
 stresses (elem, integ.pnt.,sxx,syy,szz,sxy,sxz,syz) for set ELALL and time  0.1000000E+01

         1   1 -2.507393E+06 -1.461329E+05 -1.791557E+05 -6.108233E+04 -1.226632E+05  1.211518E+01
         1   2 -2.484991E+06  8.903498E+03 -8.023276E+04 -1.977265E+04 -7.985852E+04  2.553162E+00
         1   3 -2.507210E+06  7.981099E+03 -4.824528E+04  2.153945E+04 -3.705354E+04 -1.290543E+00
         1   4 -2.507397E+06 -1.461399E+05 -1.791567E+05  1.343917E-08 -1.226632E+05 -2.306209E-10
         1   5 -2.484991E+06  8.902761E+03 -8.023286E+04  5.773232E-09 -7.985852E+04 -2.674638E-10
         1   6 -2.507210E+06  7.980223E+03 -4.824541E+04  2.334196E-08 -3.705354E+04  3.987488E-10
         1   7 -2.507393E+06 -1.461329E+05 -1.791557E+05  6.108233E+04 -1.226632E+05 -1.211518E+01
         1   8 -2.484991E+06  8.903498E+03 -8.023276E+04  1.977265E+04 -7.985852E+04 -2.553162E+00
         1   9 -2.507210E+06  7.981099E+03 -4.824528E+04 -2.153945E+04 -3.705354E+04  1.290543E+00
         1  10 -2.507409E+06 -1.461369E+05 -1.791841E+05 -6.108232E+04 -8.317043E-10 -9.770067E-12
         1  11 -2.484998E+06  8.901778E+03 -8.024479E+04 -1.977265E+04 -1.685121E-09  1.265266E-11
         1  12 -2.507211E+06  7.980728E+03 -4.824787E+04  2.153945E+04  1.696707E-09  3.100166E-10
         1  13 -2.507413E+06 -1.461440E+05 -1.791851E+05  4.803065E-09 -2.151587E-09 -6.646581E-11
         1  14 -2.484998E+06  8.901040E+03 -8.024489E+04  1.223094E-08 -3.241424E-09 -7.444009E-11
         1  15 -2.507212E+06  7.979853E+03 -4.824800E+04  1.428698E-08  3.942821E-10  2.044770E-10
         1  16 -2.507409E+06 -1.461369E+05 -1.791841E+05  6.108232E+04 -1.445367E-10 -1.910778E-10
         1  17 -2.484998E+06  8.901778E+03 -8.024479E+04  1.977265E+04 -1.853590E-10 -3.605219E-10
         1  18 -2.507211E+06  7.980728E+03 -4.824787E+04 -2.153945E+04 -3.075007E-10  2.867498E-10
         1  19 -2.507393E+06 -1.461329E+05 -1.791557E+05 -6.108233E+04  1.226632E+05 -1.211518E+01
         1  20 -2.484991E+06  8.903498E+03 -8.023276E+04 -1.977265E+04  7.985852E+04 -2.553162E+00
         1  21 -2.507210E+06  7.981099E+03 -4.824528E+04  2.153945E+04  3.705354E+04  1.290543E+00
         1  22 -2.507397E+06 -1.461399E+05 -1.791567E+05  1.333629E-08  1.226632E+05  1.075354E-10
         1  23 -2.484991E+06  8.902761E+03 -8.023286E+04  5.804713E-09  7.985852E+04  1.274855E-10
         1  24 -2.507210E+06  7.980223E+03 -4.824541E+04  1.491941E-08  3.705354E+04  1.313536E-11
         1  25 -2.507393E+06 -1.461329E+05 -1.791557E+05  6.108233E+04  1.226632E+05  1.211518E+01
         1  26 -2.484991E+06  8.903498E+03 -8.023276E+04  1.977265E+04  7.985852E+04  2.553162E+00
         1  27 -2.507210E+06  7.981099E+03 -4.824528E+04 -2.153945E+04  3.705354E+04 -1.290543E+00
         2   1 -2.498272E+06 -1.051917E+04 -3.878381E+04 -3.592308E+03 -2.998008E+04  1.741438E-01
         2   2 -2.496140E+06  8.022392E+02 -2.055735E+04 -8.909824E+02 -1.959931E+04  2.823651E-02
         2   3 -2.498247E+06  6.045385E+02 -1.198888E+04  1.810330E+03 -9.218427E+03 -2.698469E-02
         2   4 -2.498272E+06 -1.051919E+04 -3.878381E+04  5.067876E-09 -2.998008E+04  7.365088E-10
         2   5 -2.496140E+06  8.022377E+02 -2.055735E+04 -1.333478E-08 -1.959931E+04  1.670672E-10
         2   6 -2.498247E+06  6.045323E+02 -1.198888E+04  3.485630E-09 -9.218427E+03 -1.302657E-09
         2   7 -2.498272E+06 -1.051917E+04 -3.878381E+04  3.592308E+03 -2.998008E+04 -1.741438E-01
         2   8 -2.496140E+06  8.022392E+02 -2.055735E+04  8.909824E+02 -1.959931E+04 -2.823651E-02
         2   9 -2.498247E+06  6.045385E+02 -1.198888E+04 -1.810330E+03 -9.218427E+03  2.698469E-02
         2  10 -2.498273E+06 -1.051941E+04 -3.878551E+04 -3.592308E+03 -2.763027E-10  5.555752E-10
         2  11 -2.496140E+06  8.021355E+02 -2.055808E+04 -8.909824E+02 -1.020389E-09  6.874890E-10
         2  12 -2.498247E+06  6.045156E+02 -1.198904E+04  1.810330E+03 -2.056668E-10  9.445889E-11
         2  13 -2.498273E+06 -1.051943E+04 -3.878551E+04 -5.609205E-09 -4.112768E-09  5.284988E-10
         2  14 -2.496140E+06  8.021340E+02 -2.055808E+04 -1.125225E-08 -3.086805E-09  4.272959E-10
         2  15 -2.498247E+06  6.045094E+02 -1.198904E+04  1.106964E-08  5.187224E-10 -8.213275E-10
         2  16 -2.498273E+06 -1.051941E+04 -3.878551E+04  3.592308E+03 -7.155892E-10  5.896986E-10
         2  17 -2.496140E+06  8.021355E+02 -2.055808E+04  8.909824E+02  1.346106E-10  7.759309E-11
         2  18 -2.498247E+06  6.045156E+02 -1.198904E+04 -1.810330E+03 -9.852444E-10 -1.848917E-09
         2  19 -2.498272E+06 -1.051917E+04 -3.878381E+04 -3.592308E+03  2.998008E+04 -1.741438E-01
         2  20 -2.496140E+06  8.022392E+02 -2.055735E+04 -8.909824E+02  1.959931E+04 -2.823651E-02
         2  21 -2.498247E+06  6.045385E+02 -1.198888E+04  1.810330E+03  9.218427E+03  2.698469E-02
         2  22 -2.498272E+06 -1.051919E+04 -3.878381E+04  9.133607E-10  2.998008E+04  3.202348E-10
         2  23 -2.496140E+06  8.022377E+02 -2.055735E+04  3.709589E-09  1.959931E+04  6.890113E-10
         2  24 -2.498247E+06  6.045323E+02 -1.198888E+04  2.022551E-08  9.218427E+03 -3.111783E-10
         2  25 -2.498272E+06 -1.051917E+04 -3.878381E+04  3.592308E+03  2.998008E+04  1.741438E-01
         2  26 -2.496140E+06  8.022392E+02 -2.055735E+04  8.909824E+02  1.959931E+04  2.823651E-02
         2  27 -2.498247E+06  6.045385E+02 -1.198888E+04 -1.810330E+03  9.218427E+03 -2.698469E-02
         3   1 -2.497430E+06 -7.101906E+02 -9.271499E+03 -3.984678E+01 -7.352173E+03  4.737083E-04
         3   2 -2.497150E+06  9.642007E+01 -5.265819E+03  7.069620E+01 -4.736318E+03 -5.414255E-04
         3   3 -2.497425E+06  5.011997E+01 -3.181476E+03  1.812373E+02 -2.120493E+03 -6.214214E-04
         3   4 -2.497430E+06 -7.101906E+02 -9.271499E+03  4.555755E-09 -7.352173E+03 -9.784958E-10
         3   5 -2.497150E+06  9.642006E+01 -5.265819E+03  1.211660E-09 -4.736318E+03  1.071578E-09
         3   6 -2.497425E+06  5.011990E+01 -3.181476E+03  2.952875E-09 -2.120493E+03  1.141061E-09
         3   7 -2.497430E+06 -7.101906E+02 -9.271499E+03  3.984678E+01 -7.352173E+03 -4.737104E-04
         3   8 -2.497150E+06  9.642007E+01 -5.265819E+03 -7.069620E+01 -4.736318E+03  5.414271E-04
         3   9 -2.497425E+06  5.011997E+01 -3.181476E+03 -1.812373E+02 -2.120493E+03  6.214238E-04
         3  10 -2.497430E+06 -7.102052E+02 -9.271601E+03 -3.984678E+01 -3.651357E-09 -4.710295E-11
         3  11 -2.497150E+06  9.641402E+01 -5.265862E+03  7.069620E+01 -9.801728E-11 -9.752977E-11
         3  12 -2.497425E+06  5.011875E+01 -3.181484E+03  1.812373E+02  1.125380E-09 -2.641261E-11
         3  13 -2.497430E+06 -7.102052E+02 -9.271601E+03  1.775196E-08 -9.522925E-10 -7.578946E-10
         3  14 -2.497150E+06  9.641401E+01 -5.265862E+03  5.576110E-09  8.523271E-27  4.753133E-10
         3  15 -2.497425E+06  5.011869E+01 -3.181484E+03 -2.262567E-09  1.371912E-27  1.680926E-10
         3  16 -2.497430E+06 -7.102052E+02 -9.271601E+03  3.984678E+01  7.721922E-10 -1.515421E-09
         3  17 -2.497150E+06  9.641402E+01 -5.265862E+03 -7.069620E+01  2.481829E-09  8.821763E-10
         3  18 -2.497425E+06  5.011875E+01 -3.181484E+03 -1.812373E+02 -1.309295E-09  4.534052E-10
         3  19 -2.497430E+06 -7.101906E+02 -9.271499E+03 -3.984678E+01  7.352173E+03 -4.737080E-04
         3  20 -2.497150E+06  9.642007E+01 -5.265819E+03  7.069620E+01  4.736318E+03  5.414262E-04
         3  21 -2.497425E+06  5.011997E+01 -3.181476E+03  1.812373E+02  2.120493E+03  6.214213E-04
         3  22 -2.497430E+06 -7.101906E+02 -9.271499E+03  1.798077E-08  7.352173E+03 -6.072193E-10
         3  23 -2.497150E+06  9.642006E+01 -5.265819E+03  5.636988E-09  4.736318E+03 -1.416665E-10
         3  24 -2.497425E+06  5.011990E+01 -3.181476E+03 -5.183088E-10  2.120493E+03 -7.148215E-10
         3  25 -2.497430E+06 -7.101906E+02 -9.271499E+03  3.984678E+01  7.352173E+03  4.737067E-04
         3  26 -2.497150E+06  9.642007E+01 -5.265819E+03 -7.069620E+01  4.736318E+03 -5.414263E-04
         3  27 -2.497425E+06  5.011997E+01 -3.181476E+03 -1.812373E+02  2.120493E+03 -6.214227E-04
         4   1 -2.497332E+06 -3.514882E+01 -2.545923E+03  4.477403E+01 -1.606048E+03 -1.162752E-04
         4   2 -2.497265E+06  2.142908E+01 -1.792083E+03  2.168939E+01 -7.203284E+02 -2.526279E-05
         4   3 -2.497331E+06  6.760955E+00 -1.634444E+03 -1.395595E+00  1.654047E+02 -3.736942E-07
         4   4 -2.497332E+06 -3.514883E+01 -2.545923E+03  2.055623E-08 -1.606048E+03  5.612025E-10
         4   5 -2.497265E+06  2.142908E+01 -1.792083E+03  1.767486E-09 -7.203284E+02 -1.569429E-10
         4   6 -2.497331E+06  6.760955E+00 -1.634444E+03  7.440559E-09  1.654047E+02 -9.112795E-10
         4   7 -2.497332E+06 -3.514882E+01 -2.545923E+03 -4.477403E+01 -1.606048E+03  1.162758E-04
         4   8 -2.497265E+06  2.142908E+01 -1.792083E+03 -2.168939E+01 -7.203284E+02  2.526157E-05
         4   9 -2.497331E+06  6.760955E+00 -1.634444E+03  1.395595E+00  1.654047E+02  3.721594E-07
         4  10 -2.497332E+06 -3.514952E+01 -2.545928E+03  4.477403E+01  1.592291E-10 -1.404626E-10
         4  11 -2.497265E+06  2.142894E+01 -1.792084E+03  2.168939E+01  2.886960E-09  4.610168E-10
         4  12 -2.497331E+06  6.760948E+00 -1.634445E+03 -1.395595E+00  9.365757E-11 -1.818176E-10
         4  13 -2.497332E+06 -3.514952E+01 -2.545928E+03  1.205827E-08 -2.808016E-10  1.358113E-11
         4  14 -2.497265E+06  2.142894E+01 -1.792084E+03  8.216531E-09 -2.038912E-09  2.497229E-10
         4  15 -2.497331E+06  6.760948E+00 -1.634445E+03 -4.249117E-09  2.850281E-09 -2.300708E-10
         4  16 -2.497332E+06 -3.514952E+01 -2.545928E+03 -4.477403E+01  1.055703E-09  1.309372E-10
         4  17 -2.497265E+06  2.142894E+01 -1.792084E+03 -2.168939E+01 -1.286316E-09  2.498250E-11
         4  18 -2.497331E+06  6.760948E+00 -1.634445E+03  1.395595E+00  1.452117E-09 -1.006110E-10
         4  19 -2.497332E+06 -3.514882E+01 -2.545923E+03  4.477403E+01  1.606048E+03  1.162748E-04
         4  20 -2.497265E+06  2.142908E+01 -1.792083E+03  2.168939E+01  7.203284E+02  2.526399E-05
         4  21 -2.497331E+06  6.760955E+00 -1.634444E+03 -1.395595E+00 -1.654047E+02  3.738011E-07
         4  22 -2.497332E+06 -3.514883E+01 -2.545923E+03  2.075776E-08  1.606048E+03 -4.646707E-10
         4  23 -2.497265E+06  2.142908E+01 -1.792083E+03  1.744395E-09  7.203284E+02  6.631669E-10
         4  24 -2.497331E+06  6.760955E+00 -1.634444E+03  1.983246E-08 -1.654047E+02  4.776888E-10
         4  25 -2.497332E+06 -3.514882E+01 -2.545923E+03 -4.477403E+01  1.606048E+03 -1.162763E-04
         4  26 -2.497265E+06  2.142908E+01 -1.792083E+03 -2.168939E+01  7.203284E+02 -2.526250E-05
         4  27 -2.497331E+06  6.760955E+00 -1.634444E+03  1.395595E+00 -1.654047E+02 -3.731386E-07
         5   1 -2.497342E+06  8.679209E+00 -1.744388E+03 -2.684200E+01  4.706496E+02 -2.042816E-05
         5   2 -2.497252E+06  2.920062E+01 -2.387077E+03 -5.408523E+01  1.650715E+03 -1.443614E-04
         5   3 -2.497343E+06 -5.782884E+01 -3.827246E+03 -8.132849E+01  2.830780E+03 -3.722634E-04
         5   4 -2.497342E+06  8.679208E+00 -1.744388E+03  7.263547E-09  4.706496E+02 -8.123069E-10
         5   5 -2.497252E+06  2.920061E+01 -2.387077E+03  3.936265E-09  1.650715E+03 -1.755517E-10
         5   6 -2.497343E+06 -5.782885E+01 -3.827246E+03  8.667668E-09  2.830780E+03 -3.145347E-10
         5   7 -2.497342E+06  8.679209E+00 -1.744388E+03  2.684200E+01  4.706496E+02  2.042624E-05
         5   8 -2.497252E+06  2.920062E+01 -2.387077E+03  5.408523E+01  1.650715E+03  1.443608E-04
         5   9 -2.497343E+06 -5.782884E+01 -3.827246E+03  8.132849E+01  2.830780E+03  3.722634E-04
         5  10 -2.497342E+06  8.679150E+00 -1.744389E+03 -2.684200E+01 -2.096054E-09 -1.312525E-10
         5  11 -2.497252E+06  2.919988E+01 -2.387082E+03 -5.408523E+01 -1.295508E-10  6.911674E-10
         5  12 -2.497343E+06 -5.783100E+01 -3.827261E+03 -8.132849E+01  1.504703E-09  2.823150E-10
         5  13 -2.497342E+06  8.679148E+00 -1.744389E+03  9.152653E-10  1.200842E-09 -2.897155E-10
         5  14 -2.497252E+06  2.919988E+01 -2.387082E+03 -2.493889E-09 -3.914979E-10  1.939954E-10
         5  15 -2.497343E+06 -5.783101E+01 -3.827261E+03  2.704084E-09  1.859161E-09  1.242230E-10
         5  16 -2.497342E+06  8.679150E+00 -1.744389E+03  2.684200E+01  1.165262E-09 -5.210003E-10
         5  17 -2.497252E+06  2.919988E+01 -2.387082E+03  5.408523E+01 -1.708244E-09 -4.449678E-10
         5  18 -2.497343E+06 -5.783100E+01 -3.827261E+03  8.132849E+01  1.285979E-09  5.045160E-11
         5  19 -2.497342E+06  8.679209E+00 -1.744388E+03 -2.684200E+01 -4.706496E+02  2.042800E-05
         5  20 -2.497252E+06  2.920062E+01 -2.387077E+03 -5.408523E+01 -1.650715E+03  1.443636E-04
         5  21 -2.497343E+06 -5.782884E+01 -3.827246E+03 -8.132849E+01 -2.830780E+03  3.722647E-04
         5  22 -2.497342E+06  8.679208E+00 -1.744388E+03  1.607430E-08 -4.706496E+02  2.276257E-10
         5  23 -2.497252E+06  2.920061E+01 -2.387077E+03  8.281812E-09 -1.650715E+03  5.244661E-10
         5  24 -2.497343E+06 -5.782885E+01 -3.827246E+03  6.431916E-09 -2.830780E+03  5.376131E-10
         5  25 -2.497342E+06  8.679209E+00 -1.744388E+03  2.684200E+01 -4.706496E+02 -2.042787E-05
         5  26 -2.497252E+06  2.920062E+01 -2.387077E+03  5.408523E+01 -1.650715E+03 -1.443628E-04
         5  27 -2.497343E+06 -5.782884E+01 -3.827246E+03  8.132849E+01 -2.830780E+03 -3.722640E-04
         6   1 -2.497501E+06  7.935446E+01 -4.928045E+03 -3.012490E+02  3.616772E+03 -1.761770E-03
         6   2 -2.497059E+06  1.548406E+02 -8.398880E+03 -1.193734E+02  7.789487E+03 -1.503551E-03
         6   3 -2.497508E+06 -1.150147E+03 -1.493957E+04  6.250024E+01  1.196211E+04  1.208904E-03
         6   4 -2.497501E+06  7.935429E+01 -4.928045E+03  3.793252E-09  3.616772E+03  7.589045E-10
         6   5 -2.497059E+06  1.548406E+02 -8.398880E+03 -6.650849E-09  7.789487E+03  1.874810E-09
         6   6 -2.497508E+06 -1.150147E+03 -1.493957E+04  1.760470E-08  1.196211E+04 -1.367385E-09
         6   7 -2.497501E+06  7.935446E+01 -4.928045E+03  3.012490E+02  3.616772E+03  1.761771E-03
         6   8 -2.497059E+06  1.548406E+02 -8.398880E+03  1.193734E+02  7.789487E+03  1.503553E-03
         6   9 -2.497508E+06 -1.150147E+03 -1.493957E+04 -6.250024E+01  1.196211E+04 -1.208905E-03
         6  10 -2.497501E+06  7.935094E+01 -4.928070E+03 -3.012490E+02 -9.184408E-11 -8.594584E-11
         6  11 -2.497059E+06  1.548242E+02 -8.398994E+03 -1.193734E+02 -1.891754E-09 -1.665597E-10
         6  12 -2.497509E+06 -1.150186E+03 -1.493984E+04  6.250024E+01  2.969231E-09 -1.097191E-09
         6  13 -2.497501E+06  7.935076E+01 -4.928070E+03 -2.586529E-09  2.968475E-09  3.004184E-10
         6  14 -2.497059E+06  1.548242E+02 -8.398994E+03 -8.909709E-09 -1.301474E-09  3.303869E-10
         6  15 -2.497509E+06 -1.150186E+03 -1.493984E+04  7.335702E-09 -5.390578E-10 -1.338841E-09
         6  16 -2.497501E+06  7.935094E+01 -4.928070E+03  3.012490E+02  4.834025E-10  7.218652E-10
         6  17 -2.497059E+06  1.548242E+02 -8.398994E+03  1.193734E+02  1.666162E-09  8.979241E-10
         6  18 -2.497509E+06 -1.150186E+03 -1.493984E+04 -6.250024E+01 -8.385398E-10 -1.474488E-09
         6  19 -2.497501E+06  7.935446E+01 -4.928045E+03 -3.012490E+02 -3.616772E+03  1.761770E-03
         6  20 -2.497059E+06  1.548406E+02 -8.398880E+03 -1.193734E+02 -7.789487E+03  1.503551E-03
         6  21 -2.497508E+06 -1.150147E+03 -1.493957E+04  6.250024E+01 -1.196211E+04 -1.208905E-03
         6  22 -2.497501E+06  7.935429E+01 -4.928045E+03  8.245863E-09 -3.616772E+03 -7.778032E-11
         6  23 -2.497059E+06  1.548406E+02 -8.398880E+03  1.033253E-08 -7.789487E+03 -1.119755E-09
         6  24 -2.497508E+06 -1.150147E+03 -1.493957E+04  1.886617E-08 -1.196211E+04 -1.275932E-09
         6  25 -2.497501E+06  7.935446E+01 -4.928045E+03  3.012490E+02 -3.616772E+03 -1.761770E-03
         6  26 -2.497059E+06  1.548406E+02 -8.398880E+03  1.193734E+02 -7.789487E+03 -1.503553E-03
         6  27 -2.497508E+06 -1.150147E+03 -1.493957E+04 -6.250024E+01 -1.196211E+04  1.208903E-03
         7   1 -2.498833E+06  9.784074E+02 -1.935748E+04 -2.933380E+03  1.497257E+04 -7.101785E-02
         7   2 -2.495421E+06  1.298712E+03 -3.325517E+04  1.441564E+03  3.176611E+04  7.404543E-02
         7   3 -2.498873E+06 -1.703348E+04 -6.278056E+04  5.816607E+03  4.855960E+04  4.567159E-01
         7   4 -2.498833E+06  9.783911E+02 -1.935749E+04  2.291814E-08  1.497257E+04 -2.181264E-09
         7   5 -2.495421E+06  1.298708E+03 -3.325517E+04 -1.364182E-09  3.176611E+04  1.471380E-10
         7   6 -2.498873E+06 -1.703355E+04 -6.278057E+04 -1.083627E-08  4.855960E+04  1.057511E-09
         7   7 -2.498833E+06  9.784074E+02 -1.935748E+04  2.933380E+03  1.497257E+04  7.101785E-02
         7   8 -2.495421E+06  1.298712E+03 -3.325517E+04 -1.441564E+03  3.176611E+04 -7.404543E-02
         7   9 -2.498873E+06 -1.703348E+04 -6.278056E+04 -5.816607E+03  4.855960E+04 -4.567159E-01
         7  10 -2.498833E+06  9.783469E+02 -1.935791E+04 -2.933380E+03 -3.300517E-09 -1.309374E-09
         7  11 -2.495422E+06  1.298440E+03 -3.325708E+04  1.441564E+03  3.563530E-09 -1.262681E-10
         7  12 -2.498875E+06 -1.703412E+04 -6.278501E+04  5.816607E+03  7.110582E-09  5.122506E-10
         7  13 -2.498833E+06  9.783306E+02 -1.935791E+04 -4.786280E-09 -1.960322E-09 -1.500145E-09
         7  14 -2.495422E+06  1.298436E+03 -3.325708E+04  1.268415E-08 -6.504349E-10  1.400773E-11
         7  15 -2.498875E+06 -1.703418E+04 -6.278501E+04  5.400392E-09 -1.170586E-09  5.623103E-10
         7  16 -2.498833E+06  9.783469E+02 -1.935791E+04  2.933380E+03  2.275025E-09 -1.691620E-09
         7  17 -2.495422E+06  1.298440E+03 -3.325708E+04 -1.441564E+03 -4.627095E-09  7.581371E-11
         7  18 -2.498875E+06 -1.703412E+04 -6.278501E+04 -5.816607E+03 -5.684332E-09  7.163330E-10
         7  19 -2.498833E+06  9.784074E+02 -1.935748E+04 -2.933380E+03 -1.497257E+04  7.101785E-02
         7  20 -2.495421E+06  1.298712E+03 -3.325517E+04  1.441564E+03 -3.176611E+04 -7.404543E-02
         7  21 -2.498873E+06 -1.703348E+04 -6.278056E+04  5.816607E+03 -4.855960E+04 -4.567159E-01
         7  22 -2.498833E+06  9.783911E+02 -1.935749E+04  6.268915E-09 -1.497257E+04 -8.176043E-10
         7  23 -2.495421E+06  1.298708E+03 -3.325517E+04  1.382792E-08 -3.176611E+04 -1.665132E-10
         7  24 -2.498873E+06 -1.703355E+04 -6.278057E+04  3.752343E-08 -4.855960E+04  9.594466E-11
         7  25 -2.498833E+06  9.784074E+02 -1.935748E+04  2.933380E+03 -1.497257E+04 -7.101785E-02
         7  26 -2.495421E+06  1.298712E+03 -3.325517E+04 -1.441564E+03 -3.176611E+04  7.404543E-02
         7  27 -2.498873E+06 -1.703348E+04 -6.278056E+04 -5.816607E+03 -4.855960E+04  4.567159E-01
         8   1 -2.513344E+06  1.292438E+04 -7.810373E+04 -3.487820E+04  6.000932E+04 -3.384419E+00
         8   2 -2.477366E+06  1.441757E+04 -1.298956E+05  3.201749E+04  1.293196E+05  6.694795E+00
         8   3 -2.513634E+06 -2.366162E+05 -2.900624E+05  9.890844E+04  1.986308E+05  3.176713E+01
         8   4 -2.513345E+06  1.292209E+04 -7.810406E+04  4.188525E-08  6.000932E+04  6.679206E-10
         8   5 -2.477367E+06  1.441564E+04 -1.298958E+05  6.512084E-09  1.293196E+05 -2.586021E-10
         8   6 -2.513644E+06 -2.366346E+05 -2.900650E+05 -5.485752E-09  1.986308E+05 -2.826284E-10
         8   7 -2.513344E+06  1.292438E+04 -7.810373E+04  3.487820E+04  6.000932E+04  3.384419E+00
         8   8 -2.477366E+06  1.441757E+04 -1.298956E+05 -3.201749E+04  1.293196E+05 -6.694795E+00
         8   9 -2.513634E+06 -2.366162E+05 -2.900624E+05 -9.890844E+04  1.986308E+05 -3.176713E+01
         8  10 -2.513348E+06  1.292341E+04 -7.811052E+04 -3.487820E+04 -6.498794E-09  8.118792E-10
         8  11 -2.477384E+06  1.441306E+04 -1.299271E+05  3.201749E+04 -2.493402E-09  5.376475E-10
         8  12 -2.513676E+06 -2.366268E+05 -2.901368E+05  9.890843E+04  9.290634E-10  4.018593E-11
         8  13 -2.513349E+06  1.292112E+04 -7.811085E+04  1.196627E-08  1.109395E-09  5.931190E-10
         8  14 -2.477385E+06  1.441113E+04 -1.299274E+05 -7.432080E-09  6.488118E-10  5.664269E-10
         8  15 -2.513687E+06 -2.366453E+05 -2.901395E+05  9.775583E-09 -2.750770E-09  1.535394E-10
         8  16 -2.513348E+06  1.292341E+04 -7.811052E+04  3.487820E+04  4.671615E-09  3.923490E-10
         8  17 -2.477384E+06  1.441306E+04 -1.299271E+05 -3.201749E+04  4.312196E-09  4.642555E-10
         8  18 -2.513676E+06 -2.366268E+05 -2.901368E+05 -9.890843E+04  5.318632E-10  1.045067E-10
         8  19 -2.513344E+06  1.292438E+04 -7.810373E+04 -3.487820E+04 -6.000932E+04  3.384419E+00
         8  20 -2.477366E+06  1.441757E+04 -1.298956E+05  3.201749E+04 -1.293196E+05 -6.694795E+00
         8  21 -2.513634E+06 -2.366162E+05 -2.900624E+05  9.890844E+04 -1.986308E+05 -3.176713E+01
         8  22 -2.513345E+06  1.292209E+04 -7.810406E+04 -2.228161E-08 -6.000932E+04  5.646343E-10
         8  23 -2.477367E+06  1.441564E+04 -1.298958E+05  1.576327E-10 -1.293196E+05  1.288862E-09
         8  24 -2.513644E+06 -2.366346E+05 -2.900650E+05  1.804826E-08 -1.986308E+05  5.802479E-10
         8  25 -2.513344E+06  1.292438E+04 -7.810373E+04  3.487820E+04 -6.000932E+04 -3.384419E+00
         8  26 -2.477366E+06  1.441757E+04 -1.298956E+05 -3.201749E+04 -1.293196E+05  6.694795E+00
         8  27 -2.513634E+06 -2.366162E+05 -2.900624E+05 -9.890844E+04 -1.986308E+05  3.176713E+01
         9   1  1.912643E+06  6.369521E+06  1.858462E+06 -1.158367E+06  8.723167E+04  6.241451E+05
         9   2  1.446194E+06  5.293011E+06  1.268325E+06 -9.763791E+05  2.830092E+05  2.858688E+05
         9   3  1.155262E+06  4.307903E+06  9.415510E+05 -1.020161E+06  3.102633E+05 -5.175315E+04
         9   4  2.045479E+05 -5.620198E+05  2.267991E+05 -1.019240E+06  8.836693E+04  1.572487E+05
         9   5  4.266154E+04 -5.812802E+05  1.099703E+05 -9.066644E+05  2.838070E+05  1.012152E+05
         9   6  8.471134E+03 -5.582078E+05  6.214213E+04 -1.019823E+06  3.100682E+05  4.520985E+04
         9   7 -1.506789E+06 -7.449122E+06 -1.407352E+06 -8.816068E+05  8.930437E+04 -3.045120E+05
         9   8 -1.362927E+06 -6.422625E+06 -1.049947E+06 -8.375734E+05  2.845689E+05 -8.174220E+04
         9   9 -1.139639E+06 -5.401341E+06 -8.181640E+05 -1.019449E+06  3.098722E+05  1.414367E+05
         9  10  1.912531E+06  6.369104E+06  1.857722E+06 -1.158411E+06  1.025578E-09  2.473911E-09
         9  11  1.446086E+06  5.292903E+06  1.268022E+06 -9.764441E+05  1.668615E-09 -3.447963E-10
         9  12  1.155158E+06  4.307874E+06  9.413652E+05 -1.020148E+06 -1.308252E-09 -3.036760E-09
         9  13  2.045328E+05 -5.620485E+05  2.267379E+05 -1.019251E+06  5.007780E-10 -2.228693E-13
         9  14  4.257227E+04 -5.813129E+05  1.097996E+05 -9.066875E+05 -9.160615E-10  6.646957E-11
         9  15  8.367343E+03 -5.582358E+05  6.195756E+04 -1.019835E+06 -2.700436E-10  2.598612E-10
         9  16 -1.506822E+06 -7.449225E+06 -1.407543E+06 -8.815849E+05  2.104321E-09 -2.419082E-09
         9  17 -1.363016E+06 -6.422654E+06 -1.050112E+06 -8.375546E+05  9.369113E-10  3.275970E-10
         9  18 -1.139747E+06 -5.401389E+06 -8.183826E+05 -1.019484E+06  1.699694E-09  3.234004E-09
         9  19  1.912643E+06  6.369521E+06  1.858462E+06 -1.158367E+06 -8.723167E+04 -6.241451E+05
         9  20  1.446194E+06  5.293011E+06  1.268325E+06 -9.763791E+05 -2.830092E+05 -2.858688E+05
         9  21  1.155262E+06  4.307903E+06  9.415510E+05 -1.020161E+06 -3.102633E+05  5.175315E+04
         9  22  2.045479E+05 -5.620198E+05  2.267991E+05 -1.019240E+06 -8.836693E+04 -1.572487E+05
         9  23  4.266154E+04 -5.812802E+05  1.099703E+05 -9.066644E+05 -2.838070E+05 -1.012152E+05
         9  24  8.471134E+03 -5.582078E+05  6.214213E+04 -1.019823E+06 -3.100682E+05 -4.520985E+04
         9  25 -1.506789E+06 -7.449122E+06 -1.407352E+06 -8.816068E+05 -8.930437E+04  3.045120E+05
         9  26 -1.362927E+06 -6.422625E+06 -1.049947E+06 -8.375734E+05 -2.845689E+05  8.174220E+04
         9  27 -1.139639E+06 -5.401341E+06 -8.181640E+05 -1.019449E+06 -3.098722E+05 -1.414367E+05
        10   1  9.985984E+05  3.616977E+06  7.974270E+05 -1.038756E+06  2.731661E+05 -4.003798E+04
        10   2  7.463988E+05  2.583059E+06  5.774828E+05 -9.153847E+05  2.206663E+05 -7.575212E+04
        10   3  5.071270E+05  1.557212E+06  3.836733E+05 -1.028637E+06  1.553543E+05 -1.115986E+05
        10   4  1.367495E+04 -5.656849E+05  4.804518E+04 -1.022203E+06  2.729663E+05  3.676616E+04
        10   5  7.485878E+03 -5.663124E+05  2.860721E+04 -9.038719E+05  2.202579E+05  2.239087E+04
        10   6  1.061331E+04 -5.635592E+05  2.058948E+04 -1.022234E+06  1.547033E+05  7.826640E+03
        10   7 -9.722163E+05 -4.731334E+06 -7.019868E+05 -1.005731E+06  2.727697E+05  1.130691E+05
        10   8 -7.319590E+05 -3.705967E+06 -5.205835E+05 -8.924009E+05  2.198519E+05  1.200524E+05
        10   9 -4.861325E+05 -2.679884E+06 -3.425914E+05 -1.015844E+06  1.540533E+05  1.268574E+05
        10  10  9.985179E+05  3.616955E+06  7.972839E+05 -1.038747E+06  4.398110E-10 -9.300687E-10
        10  11  7.463450E+05  2.583040E+06  5.773807E+05 -9.153713E+05  1.189900E-09 -8.510621E-10
        10  12  5.070978E+05  1.557192E+06  3.836047E+05 -1.028623E+06 -1.220659E-09  1.013647E-10
        10  13  1.359458E+04 -5.657063E+05  4.790258E+04 -1.022211E+06  1.435973E-10  1.474428E-10
        10  14  7.433652E+03 -5.663260E+05  2.851509E+04 -9.038759E+05  5.397418E-10  1.796321E-10
        10  15  1.058760E+04 -5.635657E+05  2.054439E+04 -1.022235E+06 -2.674817E-09  1.043478E-10
        10  16 -9.722997E+05 -4.731368E+06 -7.021510E+05 -1.005756E+06 -6.257573E-10  1.216783E-09
        10  17 -7.320148E+05 -3.705996E+06 -5.207018E+05 -8.924222E+05 -1.388846E-09  7.900143E-10
        10  18 -4.861624E+05 -2.679908E+06 -3.426665E+05 -1.015860E+06 -1.923460E-09 -1.822007E-10
        10  19  9.985984E+05  3.616977E+06  7.974270E+05 -1.038756E+06 -2.731661E+05  4.003798E+04
        10  20  7.463988E+05  2.583059E+06  5.774828E+05 -9.153847E+05 -2.206663E+05  7.575212E+04
        10  21  5.071270E+05  1.557212E+06  3.836733E+05 -1.028637E+06 -1.553543E+05  1.115986E+05
        10  22  1.367495E+04 -5.656849E+05  4.804518E+04 -1.022203E+06 -2.729663E+05 -3.676616E+04
        10  23  7.485878E+03 -5.663124E+05  2.860721E+04 -9.038719E+05 -2.202579E+05 -2.239087E+04
        10  24  1.061331E+04 -5.635592E+05  2.058948E+04 -1.022234E+06 -1.547033E+05 -7.826640E+03
        10  25 -9.722163E+05 -4.731334E+06 -7.019868E+05 -1.005731E+06 -2.727697E+05 -1.130691E+05
        10  26 -7.319590E+05 -3.705967E+06 -5.205835E+05 -8.924009E+05 -2.198519E+05 -1.200524E+05
        10  27 -4.861325E+05 -2.679884E+06 -3.425914E+05 -1.015844E+06 -1.540533E+05 -1.268574E+05
        11   1  3.482619E+05  8.821803E+05  2.601769E+05 -1.029066E+06  1.118937E+05 -1.159830E+05
        11   2  1.095519E+05 -1.458507E+05  7.206170E+04 -8.969640E+05  4.965528E+04 -9.175190E+04
        11   3 -1.155864E+05 -1.174977E+06 -1.291491E+05 -1.001152E+06  8.428963E+03 -6.751068E+04
        11   4  1.098424E+04 -5.629769E+05  1.882439E+04 -1.022153E+06  1.111898E+05  4.317907E+03
        11   5  1.548014E+04 -5.647808E+05  2.023198E+04 -9.039448E+05  4.914487E+04 -6.329528E+03
        11   6  3.964886E+04 -5.626818E+05  3.274871E+04 -1.022008E+06  8.116497E+03 -1.692689E+04
        11   7 -3.263945E+05 -2.006043E+06 -2.225381E+05 -1.015252E+06  1.104875E+05  1.243484E+05
        11   8 -7.859449E+04 -9.835142E+05 -3.157046E+04 -9.109203E+05  4.863230E+04  7.903810E+04
        11   9  1.948571E+05  4.995459E+04  1.946258E+05 -1.042883E+06  7.800808E+03  3.370716E+04
        11  10  3.482449E+05  8.821626E+05  2.601283E+05 -1.029056E+06 -1.303817E-09  2.848032E-09
        11  11  1.095470E+05 -1.458604E+05  7.204128E+04 -8.969603E+05  8.782999E-10 -7.208799E-10
        11  12 -1.155877E+05 -1.174982E+06 -1.291579E+05 -1.001152E+06  1.932487E-10 -4.162168E-09
        11  13  1.097096E+04 -5.629803E+05  1.880113E+04 -1.022154E+06 -9.095747E-10  1.827951E-11
        11  14  1.547753E+04 -5.647815E+05  2.022737E+04 -9.039445E+05  3.437480E-10 -5.859209E-11
        11  15  3.964871E+04 -5.626821E+05  3.274805E+04 -1.022008E+06  3.058511E-09  3.091306E-12
        11  16 -3.264118E+05 -2.006063E+06 -2.225903E+05 -1.015263E+06 -5.063849E-10 -2.881006E-09
        11  17 -7.859872E+04 -9.835216E+05 -3.158669E+04 -9.109234E+05  2.042632E-09  8.466331E-10
        11  18  1.948567E+05  4.995335E+04  1.946235E+05 -1.042883E+06 -3.913569E-10  3.921632E-09
        11  19  3.482619E+05  8.821803E+05  2.601769E+05 -1.029066E+06 -1.118937E+05  1.159830E+05
        11  20  1.095519E+05 -1.458507E+05  7.206170E+04 -8.969640E+05 -4.965528E+04  9.175190E+04
        11  21 -1.155864E+05 -1.174977E+06 -1.291491E+05 -1.001152E+06 -8.428963E+03  6.751068E+04
        11  22  1.098424E+04 -5.629769E+05  1.882439E+04 -1.022153E+06 -1.111898E+05 -4.317907E+03
        11  23  1.548014E+04 -5.647808E+05  2.023198E+04 -9.039448E+05 -4.914487E+04  6.329528E+03
        11  24  3.964886E+04 -5.626818E+05  3.274871E+04 -1.022008E+06 -8.116497E+03  1.692689E+04
        11  25 -3.263945E+05 -2.006043E+06 -2.225381E+05 -1.015252E+06 -1.104875E+05 -1.243484E+05
        11  26 -7.859449E+04 -9.835142E+05 -3.157046E+04 -9.109203E+05 -4.863230E+04 -7.903810E+04
        11  27  1.948571E+05  4.995459E+04  1.946258E+05 -1.042883E+06 -7.800808E+03 -3.370716E+04
        12   1 -3.326223E+06 -9.198779E+05 -4.630625E+05 -1.260799E+06 -2.697284E+05 -9.875768E+04
        12   2 -3.263016E+06 -5.083427E+05 -2.112688E+05 -1.274984E+06 -1.716560E+05 -5.781222E+04
        12   3 -3.326682E+06 -4.543103E+05 -1.275078E+05 -1.218529E+06 -7.169492E+04 -2.188180E+04
        12   4 -3.243549E+06 -7.661677E+05 -4.166198E+05 -1.112189E+06 -2.654357E+05 -9.721553E+04
        12   5 -3.158069E+06 -4.303450E+05 -1.773947E+05 -1.206401E+06 -1.708536E+05 -5.752497E+04
        12   6 -3.198746E+06 -4.513252E+05 -1.034085E+05 -1.229987E+06 -7.437881E+04 -2.288130E+04
        12   7 -3.160832E+06 -6.123640E+05 -3.701701E+05 -9.635469E+05 -2.611425E+05 -9.567102E+04
        12   8 -3.053108E+06 -3.523331E+05 -1.435211E+05 -1.137804E+06 -1.700511E+05 -5.723754E+04
        12   9 -3.070789E+06 -4.483362E+05 -7.930847E+04 -1.241450E+06 -7.706333E+04 -2.388054E+04
        12  10 -3.326304E+06 -9.199081E+05 -4.632185E+05 -1.260820E+06 -5.076320E-10  7.724237E-11
        12  11 -3.263048E+06 -5.083543E+05 -2.113308E+05 -1.274992E+06 -3.141254E-09 -2.645423E-11
        12  12 -3.326687E+06 -4.543122E+05 -1.275185E+05 -1.218530E+06 -1.153019E-10 -1.439171E-09
        12  13 -3.243628E+06 -7.661969E+05 -4.167708E+05 -1.112210E+06  9.544089E-10  4.103741E-11
        12  14 -3.158102E+06 -4.303565E+05 -1.774561E+05 -1.206409E+06  2.053761E-10 -3.109227E-10
        12  15 -3.198752E+06 -4.513272E+05 -1.034200E+05 -1.229989E+06 -5.206200E-10 -1.483755E-09
        12  16 -3.160908E+06 -6.123923E+05 -3.703162E+05 -9.635671E+05 -4.415226E-10  3.239121E-11
        12  17 -3.053140E+06 -3.523444E+05 -1.435819E+05 -1.137812E+06 -1.861639E-09 -2.692757E-10
        12  18 -3.070796E+06 -4.483384E+05 -7.932077E+04 -1.241451E+06 -1.904412E-09 -1.487379E-09
        12  19 -3.326223E+06 -9.198779E+05 -4.630625E+05 -1.260799E+06  2.697284E+05  9.875768E+04
        12  20 -3.263016E+06 -5.083427E+05 -2.112688E+05 -1.274984E+06  1.716560E+05  5.781222E+04
        12  21 -3.326682E+06 -4.543103E+05 -1.275078E+05 -1.218529E+06  7.169492E+04  2.188180E+04
        12  22 -3.243549E+06 -7.661677E+05 -4.166198E+05 -1.112189E+06  2.654357E+05  9.721553E+04
        12  23 -3.158069E+06 -4.303450E+05 -1.773947E+05 -1.206401E+06  1.708536E+05  5.752497E+04
        12  24 -3.198746E+06 -4.513252E+05 -1.034085E+05 -1.229987E+06  7.437881E+04  2.288130E+04
        12  25 -3.160832E+06 -6.123640E+05 -3.701701E+05 -9.635469E+05  2.611425E+05  9.567102E+04
        12  26 -3.053108E+06 -3.523331E+05 -1.435211E+05 -1.137804E+06  1.700511E+05  5.723754E+04
        12  27 -3.070789E+06 -4.483362E+05 -7.930847E+04 -1.241450E+06  7.706333E+04  2.388054E+04
        13   1 -3.236527E+06 -5.156308E+05 -9.740113E+04 -1.230492E+06 -5.880320E+04 -1.909411E+04
        13   2 -3.201442E+06 -4.631267E+05 -4.612171E+04 -1.213863E+06 -3.672192E+04 -1.282960E+04
        13   3 -3.164099E+06 -4.533293E+05 -1.826626E+04 -1.208456E+06 -1.454105E+04 -6.824626E+03
        13   4 -3.185330E+06 -4.883765E+05 -8.293879E+04 -1.208164E+06 -5.993760E+04 -1.952022E+04
        13   5 -3.184716E+06 -4.547712E+05 -4.149459E+04 -1.207135E+06 -3.803521E+04 -1.332192E+04
        13   6 -3.181810E+06 -4.638362E+05 -2.332945E+04 -1.217329E+06 -1.603458E+04 -7.384181E+03
        13   7 -3.134129E+06 -4.611211E+05 -6.847668E+04 -1.185835E+06 -6.107210E+04 -1.994640E+04
        13   8 -3.167991E+06 -4.464157E+05 -3.686750E+04 -1.200408E+06 -3.934854E+04 -1.381427E+04
        13   9 -3.199520E+06 -4.743428E+05 -2.839261E+04 -1.226203E+06 -1.752806E+04 -7.943690E+03
        13  10 -3.236531E+06 -5.156321E+05 -9.740836E+04 -1.230493E+06 -3.220101E-09 -2.261092E-09
        13  11 -3.201443E+06 -4.631272E+05 -4.612457E+04 -1.213863E+06 -2.141803E-09 -1.107130E-09
        13  12 -3.164099E+06 -4.533294E+05 -1.826674E+04 -1.208456E+06  2.572239E-09 -1.472251E-09
        13  13 -3.185334E+06 -4.883779E+05 -8.294630E+04 -1.208165E+06 -1.595343E-09 -1.278574E-09
        13  14 -3.184718E+06 -4.547718E+05 -4.149766E+04 -1.207136E+06  3.451456E-10 -4.497032E-10
        13  15 -3.181810E+06 -4.638363E+05 -2.333004E+04 -1.217330E+06 -8.478859E-10 -1.449044E-09
        13  16 -3.134133E+06 -4.611226E+05 -6.848448E+04 -1.185836E+06  1.141862E-09 -2.931384E-10
        13  17 -3.167992E+06 -4.464164E+05 -3.687079E+04 -1.200409E+06  5.001853E-09 -1.802869E-10
        13  18 -3.199521E+06 -4.743430E+05 -2.839331E+04 -1.226203E+06  3.618889E-10 -1.784725E-09
        13  19 -3.236527E+06 -5.156308E+05 -9.740113E+04 -1.230492E+06  5.880320E+04  1.909411E+04
        13  20 -3.201442E+06 -4.631267E+05 -4.612171E+04 -1.213863E+06  3.672192E+04  1.282960E+04
        13  21 -3.164099E+06 -4.533293E+05 -1.826626E+04 -1.208456E+06  1.454105E+04  6.824626E+03
        13  22 -3.185330E+06 -4.883765E+05 -8.293879E+04 -1.208164E+06  5.993760E+04  1.952022E+04
        13  23 -3.184716E+06 -4.547712E+05 -4.149459E+04 -1.207135E+06  3.803521E+04  1.332192E+04
        13  24 -3.181810E+06 -4.638362E+05 -2.332945E+04 -1.217329E+06  1.603458E+04  7.384181E+03
        13  25 -3.134129E+06 -4.611211E+05 -6.847668E+04 -1.185835E+06  6.107210E+04  1.994640E+04
        13  26 -3.167991E+06 -4.464157E+05 -3.686750E+04 -1.200408E+06  3.934854E+04  1.381427E+04
        13  27 -3.199520E+06 -4.743428E+05 -2.839261E+04 -1.226203E+06  1.752806E+04  7.943690E+03
        14   1 -3.121364E+06 -4.447322E+05 -2.888510E+03 -1.199649E+06 -1.087236E+04 -6.852119E+03
        14   2 -3.089883E+06 -4.205384E+05  1.498523E+04 -1.180712E+06 -5.276888E+03 -7.071566E+03
        14   3 -3.044702E+06 -4.137004E+05  2.866659E+04 -1.178777E+06  3.172476E+02 -7.285469E+03
        14   4 -3.180460E+06 -4.665901E+05 -1.792235E+04 -1.215477E+06 -1.228179E+04 -7.380321E+03
        14   5 -3.187176E+06 -4.569984E+05 -9.633918E+03 -1.207316E+06 -6.683046E+03 -7.598675E+03
        14   6 -3.180194E+06 -4.647635E+05 -5.540144E+03 -1.216157E+06 -1.085970E+03 -7.811607E+03
        14   7 -3.239553E+06 -4.884480E+05 -3.295661E+04 -1.231303E+06 -1.369109E+04 -7.908475E+03
        14   8 -3.284461E+06 -4.934581E+05 -3.425400E+04 -1.233916E+06 -8.088971E+03 -8.125696E+03
        14   9 -3.315668E+06 -5.158255E+05 -3.974853E+04 -1.253530E+06 -2.488858E+03 -8.337620E+03
        14  10 -3.121364E+06 -4.447322E+05 -2.888822E+03 -1.199649E+06 -4.824073E-10 -1.339183E-09
        14  11 -3.089883E+06 -4.205385E+05  1.498508E+04 -1.180712E+06 -1.126074E-10  8.251127E-10
        14  12 -3.044702E+06 -4.137005E+05  2.866649E+04 -1.178777E+06  1.138754E-09  2.353716E-10
        14  13 -3.180460E+06 -4.665902E+05 -1.792274E+04 -1.215477E+06  1.210436E-09 -1.199055E-09
        14  14 -3.187176E+06 -4.569985E+05 -9.634111E+03 -1.207316E+06 -1.612475E-10  4.404280E-10
        14  15 -3.180194E+06 -4.647635E+05 -5.540261E+03 -1.216157E+06  5.472745E-10 -4.536160E-10
        14  16 -3.239553E+06 -4.884481E+05 -3.295709E+04 -1.231303E+06  8.508174E-10 -9.017329E-10
        14  17 -3.284461E+06 -4.934582E+05 -3.425425E+04 -1.233916E+06 -4.021291E-10 -4.465683E-11
        14  18 -3.315668E+06 -5.158256E+05 -3.974867E+04 -1.253530E+06 -1.325765E-09 -1.235447E-09
        14  19 -3.121364E+06 -4.447322E+05 -2.888510E+03 -1.199649E+06  1.087236E+04  6.852119E+03
        14  20 -3.089883E+06 -4.205384E+05  1.498523E+04 -1.180712E+06  5.276888E+03  7.071566E+03
        14  21 -3.044702E+06 -4.137004E+05  2.866659E+04 -1.178777E+06 -3.172476E+02  7.285469E+03
        14  22 -3.180460E+06 -4.665901E+05 -1.792235E+04 -1.215477E+06  1.228179E+04  7.380321E+03
        14  23 -3.187176E+06 -4.569984E+05 -9.633918E+03 -1.207316E+06  6.683046E+03  7.598675E+03
        14  24 -3.180194E+06 -4.647635E+05 -5.540144E+03 -1.216157E+06  1.085970E+03  7.811607E+03
        14  25 -3.239553E+06 -4.884480E+05 -3.295661E+04 -1.231303E+06  1.369109E+04  7.908475E+03
        14  26 -3.284461E+06 -4.934581E+05 -3.425400E+04 -1.233916E+06  8.088971E+03  8.125696E+03
        14  27 -3.315668E+06 -5.158255E+05 -3.974853E+04 -1.253530E+06  2.488858E+03  8.337620E+03
        15   1 -3.007053E+06 -3.999699E+05  3.958769E+04 -1.168568E+06  1.547317E+03 -8.159615E+03
        15   2 -2.977204E+06 -3.787013E+05  5.028930E+04 -1.150114E+06  3.693142E+03 -9.610833E+03
        15   3 -2.933002E+06 -3.722106E+05  5.990059E+04 -1.148369E+06  5.826673E+03 -1.102673E+04
        15   4 -3.180143E+06 -4.648262E+05 -4.347974E+03 -1.215856E+06  1.638289E+02 -8.678490E+03
        15   5 -3.187311E+06 -4.573885E+05 -2.865096E+03 -1.207519E+06  2.333576E+03 -1.012101E+04
        15   6 -3.180133E+06 -4.647338E+05 -2.491756E+03 -1.215892E+06  4.490943E+03 -1.152823E+04
        15   7 -3.353202E+06 -5.296801E+05 -4.828569E+04 -1.263132E+06 -1.219225E+03 -9.197201E+03
        15   8 -3.397375E+06 -5.360726E+05 -5.602289E+04 -1.264907E+06  9.745186E+02 -1.063099E+04
        15   9 -3.427205E+06 -5.572533E+05 -6.488916E+04 -1.283390E+06  3.155793E+03 -1.202951E+04
        15  10 -3.007053E+06 -3.999700E+05  3.958756E+04 -1.168568E+06  1.448107E-12 -1.292889E-09
        15  11 -2.977204E+06 -3.787014E+05  5.028910E+04 -1.150114E+06  9.853288E-10 -1.085471E-10
        15  12 -2.933002E+06 -3.722107E+05  5.990029E+04 -1.148369E+06 -8.411360E-10  1.041421E-10
        15  13 -3.180143E+06 -4.648263E+05 -4.348115E+03 -1.215856E+06  3.169314E-11 -8.255098E-10
        15  14 -3.187311E+06 -4.573886E+05 -2.865299E+03 -1.207519E+06  1.569866E-10  6.835192E-10
        15  15 -3.180133E+06 -4.647340E+05 -2.492043E+03 -1.215892E+06  4.064394E-10  7.942365E-10
        15  16 -3.353203E+06 -5.296802E+05 -4.828585E+04 -1.263132E+06  8.563081E-10 -5.676941E-10
        15  17 -3.397375E+06 -5.360727E+05 -5.602310E+04 -1.264907E+06  2.651269E-09  4.843453E-10
        15  18 -3.427205E+06 -5.572535E+05 -6.488945E+04 -1.283390E+06  1.393428E-09  7.260656E-10
        15  19 -3.007053E+06 -3.999699E+05  3.958769E+04 -1.168568E+06 -1.547317E+03  8.159615E+03
        15  20 -2.977204E+06 -3.787013E+05  5.028930E+04 -1.150114E+06 -3.693142E+03  9.610833E+03
        15  21 -2.933002E+06 -3.722106E+05  5.990059E+04 -1.148369E+06 -5.826673E+03  1.102673E+04
        15  22 -3.180143E+06 -4.648262E+05 -4.347974E+03 -1.215856E+06 -1.638289E+02  8.678490E+03
        15  23 -3.187311E+06 -4.573885E+05 -2.865096E+03 -1.207519E+06 -2.333576E+03  1.012101E+04
        15  24 -3.180133E+06 -4.647338E+05 -2.491756E+03 -1.215892E+06 -4.490943E+03  1.152823E+04
        15  25 -3.353202E+06 -5.296801E+05 -4.828569E+04 -1.263132E+06  1.219225E+03  9.197201E+03
        15  26 -3.397375E+06 -5.360726E+05 -5.602289E+04 -1.264907E+06 -9.745186E+02  1.063099E+04
        15  27 -3.427205E+06 -5.572533E+05 -6.488916E+04 -1.283390E+06 -3.155793E+03  1.202951E+04
        16   1 -2.897707E+06 -3.587003E+05  6.900291E+04 -1.138500E+06  6.639752E+03 -1.198803E+04
        16   2 -2.869832E+06 -3.389005E+05  7.658552E+04 -1.121185E+06  9.120952E+03 -1.317689E+04
        16   3 -2.828590E+06 -3.330024E+05  8.278528E+04 -1.119465E+06  1.158213E+04 -1.430899E+04
        16   4 -3.180355E+06 -4.645167E+05 -2.629184E+03 -1.215656E+06  5.330793E+03 -1.247970E+04
        16   5 -3.187052E+06 -4.576629E+05 -3.655288E+03 -1.207822E+06  7.850276E+03 -1.365457E+04
        16   6 -3.180392E+06 -4.647189E+05 -6.095100E+03 -1.215584E+06  1.034962E+04 -1.477271E+04
        16   7 -3.462923E+06 -5.703275E+05 -7.426739E+04 -1.292779E+06  4.022494E+03 -1.297112E+04
        16   8 -3.504174E+06 -5.764188E+05 -8.390417E+04 -1.294418E+06  6.580312E+03 -1.413199E+04
        16   9 -3.532073E+06 -5.964278E+05 -9.498578E+04 -1.311653E+06  9.117885E+03 -1.523615E+04
        16  10 -2.897707E+06 -3.587005E+05  6.900255E+04 -1.138500E+06 -1.062454E-09  9.316793E-10
        16  11 -2.869832E+06 -3.389007E+05  7.658503E+04 -1.121185E+06  1.685008E-09  1.808489E-09
        16  12 -2.828590E+06 -3.330026E+05  8.278465E+04 -1.119464E+06  3.706542E-09  1.308048E-09
        16  13 -3.180355E+06 -4.645169E+05 -2.629529E+03 -1.215656E+06 -1.372715E-09  9.739961E-10
        16  14 -3.187053E+06 -4.576631E+05 -3.655754E+03 -1.207821E+06  5.074271E-09  1.366298E-09
        16  15 -3.180392E+06 -4.647191E+05 -6.095711E+03 -1.215583E+06  1.901714E-09  1.706939E-09
        16  16 -3.462923E+06 -5.703277E+05 -7.426774E+04 -1.292779E+06  2.411207E-09  9.551952E-10
        16  17 -3.504174E+06 -5.764190E+05 -8.390462E+04 -1.294418E+06  4.821852E-09  1.150831E-09
        16  18 -3.532073E+06 -5.964281E+05 -9.498637E+04 -1.311653E+06  2.333505E-09  2.659150E-09
        16  19 -2.897707E+06 -3.587003E+05  6.900291E+04 -1.138500E+06 -6.639752E+03  1.198803E+04
        16  20 -2.869832E+06 -3.389005E+05  7.658552E+04 -1.121185E+06 -9.120952E+03  1.317689E+04
        16  21 -2.828590E+06 -3.330024E+05  8.278528E+04 -1.119465E+06 -1.158213E+04  1.430899E+04
        16  22 -3.180355E+06 -4.645167E+05 -2.629184E+03 -1.215656E+06 -5.330793E+03  1.247970E+04
        16  23 -3.187052E+06 -4.576629E+05 -3.655288E+03 -1.207822E+06 -7.850276E+03  1.365457E+04
        16  24 -3.180392E+06 -4.647189E+05 -6.095100E+03 -1.215584E+06 -1.034962E+04  1.477271E+04
        16  25 -3.462923E+06 -5.703275E+05 -7.426739E+04 -1.292779E+06 -4.022494E+03  1.297112E+04
        16  26 -3.504174E+06 -5.764188E+05 -8.390417E+04 -1.294418E+06 -6.580312E+03  1.413199E+04
        16  27 -3.532073E+06 -5.964278E+05 -9.498578E+04 -1.311653E+06 -9.117885E+03  1.523615E+04
        17   1 -2.796215E+06 -3.205072E+05  8.944279E+04 -1.110841E+06  1.309065E+04 -1.491082E+04
        17   2 -2.770787E+06 -3.020286E+05  9.105337E+04 -1.094573E+06  2.071080E+04 -1.396426E+04
        17   3 -2.735044E+06 -2.990881E+05  8.661926E+04 -1.091817E+06  2.828929E+04 -1.290246E+04
        17   4 -3.180944E+06 -4.641434E+05 -7.924001E+03 -1.215477E+06  1.188308E+04 -1.536545E+04
        17   5 -3.186299E+06 -4.577332E+05 -1.407282E+04 -1.208212E+06  1.957832E+04 -1.439113E+04
        17   6 -3.181354E+06 -4.668787E+05 -2.632911E+04 -1.214459E+06  2.723149E+04 -1.330169E+04
        17   7 -3.565528E+06 -6.077703E+05 -1.053027E+05 -1.320054E+06  1.067633E+04 -1.581977E+04
        17   8 -3.601640E+06 -6.134262E+05 -1.192126E+05 -1.321780E+06  1.844668E+04 -1.481769E+04
        17   9 -3.627468E+06 -6.346551E+05 -1.392930E+05 -1.337020E+06  2.617453E+04 -1.370061E+04
        17  10 -2.796215E+06 -3.205074E+05  8.944205E+04 -1.110841E+06  5.126755E-09  8.245135E-10
        17  11 -2.770788E+06 -3.020289E+05  9.105220E+04 -1.094573E+06  1.901909E-09  4.710829E-10
        17  12 -2.735045E+06 -2.990885E+05  8.661744E+04 -1.091817E+06  3.972891E-09  2.752112E-09
        17  13 -3.180944E+06 -4.641437E+05 -7.924709E+03 -1.215477E+06  2.006762E-09  8.670858E-10
        17  14 -3.186299E+06 -4.577335E+05 -1.407393E+04 -1.208211E+06  1.505522E-09 -8.998859E-10
        17  15 -3.181355E+06 -4.668790E+05 -2.633083E+04 -1.214459E+06  1.454748E-09  1.827757E-09
        17  16 -3.565528E+06 -6.077706E+05 -1.053033E+05 -1.320054E+06 -8.019448E-10  6.301303E-10
        17  17 -3.601640E+06 -6.134266E+05 -1.192137E+05 -1.321780E+06 -4.751767E-09 -2.207656E-09
        17  18 -3.627468E+06 -6.346555E+05 -1.392946E+05 -1.337020E+06 -3.510358E-09  4.918148E-10
        17  19 -2.796215E+06 -3.205072E+05  8.944279E+04 -1.110841E+06 -1.309065E+04  1.491082E+04
        17  20 -2.770787E+06 -3.020286E+05  9.105337E+04 -1.094573E+06 -2.071080E+04  1.396426E+04
        17  21 -2.735044E+06 -2.990881E+05  8.661926E+04 -1.091817E+06 -2.828929E+04  1.290246E+04
        17  22 -3.180944E+06 -4.641434E+05 -7.924001E+03 -1.215477E+06 -1.188308E+04  1.536545E+04
        17  23 -3.186299E+06 -4.577332E+05 -1.407282E+04 -1.208212E+06 -1.957832E+04  1.439113E+04
        17  24 -3.181354E+06 -4.668787E+05 -2.632911E+04 -1.214459E+06 -2.723149E+04  1.330169E+04
        17  25 -3.565528E+06 -6.077703E+05 -1.053027E+05 -1.320054E+06 -1.067633E+04  1.581977E+04
        17  26 -3.601640E+06 -6.134262E+05 -1.192126E+05 -1.321780E+06 -1.844668E+04  1.481769E+04
        17  27 -3.627468E+06 -6.346551E+05 -1.392930E+05 -1.337020E+06 -2.617453E+04  1.370061E+04
        18   1 -2.704119E+06 -2.882314E+05  8.610832E+04 -1.091271E+06  3.371154E+04 -1.200292E+04
        18   2 -2.682183E+06 -2.642455E+05  6.605139E+04 -1.068302E+06  6.486747E+04 -1.813225E+03
        18   3 -2.668471E+06 -2.910052E+05  1.227243E+04 -1.048082E+06  9.567754E+04  9.300939E+03
        18   4 -3.183748E+06 -4.624017E+05 -3.430508E+04 -1.216707E+06  3.244360E+04 -1.248122E+04
        18   5 -3.182186E+06 -4.550192E+05 -6.110374E+04 -1.208554E+06  6.421531E+04 -2.060833E+03
        18   6 -3.188987E+06 -4.985284E+05 -1.221358E+05 -1.203148E+06  9.563987E+04  9.282850E+03
        18   7 -3.663154E+06 -6.365612E+05 -1.547372E+05 -1.342058E+06  3.117672E+04 -1.295916E+04
        18   8 -3.681944E+06 -6.457744E+05 -1.882795E+05 -1.348702E+06  6.356371E+04 -2.308224E+03
        18   9 -3.709235E+06 -7.060242E+05 -2.565666E+05 -1.358093E+06  9.560220E+04  9.264762E+03
        18  10 -2.704120E+06 -2.882319E+05  8.610591E+04 -1.091270E+06 -1.834871E-09  7.522701E-10
        18  11 -2.682188E+06 -2.642467E+05  6.604345E+04 -1.068302E+06 -2.267181E-09 -1.965466E-09
        18  12 -2.668481E+06 -2.910077E+05  1.225499E+04 -1.048082E+06  5.393912E-11 -5.261586E-10
        18  13 -3.183750E+06 -4.624021E+05 -3.430735E+04 -1.216707E+06 -1.879766E-09  2.128503E-09
        18  14 -3.182191E+06 -4.550203E+05 -6.111154E+04 -1.208554E+06 -3.099284E-09 -3.056888E-10
        18  15 -3.188997E+06 -4.985309E+05 -1.221532E+05 -1.203149E+06 -2.034695E-09 -1.087187E-09
        18  16 -3.663155E+06 -6.365617E+05 -1.547393E+05 -1.342057E+06  3.559720E-09  4.164895E-09
        18  17 -3.681949E+06 -6.457755E+05 -1.882871E+05 -1.348702E+06 -3.276385E-10  1.075282E-09
        18  18 -3.709245E+06 -7.060267E+05 -2.565840E+05 -1.358093E+06 -3.111034E-09 -1.160385E-09
        18  19 -2.704119E+06 -2.882314E+05  8.610832E+04 -1.091271E+06 -3.371154E+04  1.200292E+04
        18  20 -2.682183E+06 -2.642455E+05  6.605139E+04 -1.068302E+06 -6.486747E+04  1.813225E+03
        18  21 -2.668471E+06 -2.910052E+05  1.227243E+04 -1.048082E+06 -9.567754E+04 -9.300939E+03
        18  22 -3.183748E+06 -4.624017E+05 -3.430508E+04 -1.216707E+06 -3.244360E+04  1.248122E+04
        18  23 -3.182186E+06 -4.550192E+05 -6.110374E+04 -1.208554E+06 -6.421531E+04  2.060833E+03
        18  24 -3.188987E+06 -4.985284E+05 -1.221358E+05 -1.203148E+06 -9.563987E+04 -9.282850E+03
        18  25 -3.663154E+06 -6.365612E+05 -1.547372E+05 -1.342058E+06 -3.117672E+04  1.295916E+04
        18  26 -3.681944E+06 -6.457744E+05 -1.882795E+05 -1.348702E+06 -6.356371E+04  2.308224E+03
        18  27 -3.709235E+06 -7.060242E+05 -2.565666E+05 -1.358093E+06 -9.560220E+04 -9.264762E+03
        19   1 -2.606948E+06 -2.841078E+05 -1.247061E+04 -1.138004E+06  1.218779E+05  1.608855E+04
        19   2 -2.609457E+06 -1.617705E+05 -1.151072E+05 -1.002852E+06  2.516120E+05  6.625973E+04
        19   3 -2.809379E+06 -5.480269E+05 -4.520103E+05 -7.472662E+05  3.752159E+05  1.326974E+05
        19   4 -3.209014E+06 -4.436831E+05 -1.522821E+05 -1.234974E+06  1.169092E+05  1.422824E+04
        19   5 -3.142466E+06 -4.195588E+05 -2.612502E+05 -1.208031E+06  2.577827E+05  6.855804E+04
        19   6 -3.275775E+06 -9.065834E+05 -6.135073E+05 -1.060585E+06  3.925363E+05  1.391010E+05
        19   7 -3.810716E+06 -6.032663E+05 -2.921146E+05 -1.331879E+06  1.119458E+05  1.236858E+04
        19   8 -3.675184E+06 -6.772677E+05 -4.074177E+05 -1.413030E+06  2.639476E+05  7.085265E+04
        19   9 -3.741873E+06 -1.264836E+06 -7.750141E+05 -1.373624E+06  4.098425E+05  1.454864E+05
        19  10 -2.606964E+06 -2.841121E+05 -1.249914E+04 -1.138005E+06  9.385737E-10 -3.862007E-10
        19  11 -2.609526E+06 -1.617924E+05 -1.152351E+05 -1.002865E+06  2.112414E-09  1.062432E-09
        19  12 -2.809535E+06 -5.480839E+05 -4.523094E+05 -7.473064E+05  1.273800E-09  1.035515E-09
        19  13 -3.209029E+06 -4.436870E+05 -1.523083E+05 -1.234976E+06  9.667381E-11 -2.841887E-10
        19  14 -3.142539E+06 -4.195818E+05 -2.613847E+05 -1.208045E+06 -1.363793E-09  4.249502E-10
        19  15 -3.275946E+06 -9.066459E+05 -6.138351E+05 -1.060630E+06 -1.347866E-09  3.796971E-10
        19  16 -3.810729E+06 -6.032699E+05 -2.921386E+05 -1.331880E+06 -4.749859E-10 -4.304491E-10
        19  17 -3.675261E+06 -6.772920E+05 -4.075590E+05 -1.413046E+06 -1.887715E-09  5.680203E-10
        19  18 -3.742061E+06 -1.264905E+06 -7.753720E+05 -1.373672E+06 -9.030769E-10  9.889982E-12
        19  19 -2.606948E+06 -2.841078E+05 -1.247061E+04 -1.138004E+06 -1.218779E+05 -1.608855E+04
        19  20 -2.609457E+06 -1.617705E+05 -1.151072E+05 -1.002852E+06 -2.516120E+05 -6.625973E+04
        19  21 -2.809379E+06 -5.480269E+05 -4.520103E+05 -7.472662E+05 -3.752159E+05 -1.326974E+05
        19  22 -3.209014E+06 -4.436831E+05 -1.522821E+05 -1.234974E+06 -1.169092E+05 -1.422824E+04
        19  23 -3.142466E+06 -4.195588E+05 -2.612502E+05 -1.208031E+06 -2.577827E+05 -6.855804E+04
        19  24 -3.275775E+06 -9.065834E+05 -6.135073E+05 -1.060585E+06 -3.925363E+05 -1.391010E+05
        19  25 -3.810716E+06 -6.032663E+05 -2.921146E+05 -1.331879E+06 -1.119458E+05 -1.236858E+04
        19  26 -3.675184E+06 -6.772677E+05 -4.074177E+05 -1.413030E+06 -2.639476E+05 -7.085265E+04
        19  27 -3.741873E+06 -1.264836E+06 -7.750141E+05 -1.373624E+06 -4.098425E+05 -1.454864E+05
        20   1 -9.018942E+05  3.549911E+04  4.352773E+04  1.486263E+04  2.983808E+04  7.153175E-01
        20   2 -9.073172E+05 -2.156090E+03  1.949990E+04  4.811614E+03  1.943225E+04  1.508162E-01
        20   3 -9.019114E+05 -1.938231E+03  1.172261E+04 -5.239146E+03  9.026557E+03 -7.628041E-02
        20   4 -9.018944E+05  3.549870E+04  4.352767E+04  5.337955E-09  2.983808E+04  1.659284E-10
        20   5 -9.073172E+05 -2.156133E+03  1.949990E+04 -3.519253E-09  1.943225E+04  1.081738E-10
        20   6 -9.019115E+05 -1.938282E+03  1.172260E+04 -6.992451E-09  9.026557E+03 -9.449976E-10
        20   7 -9.018942E+05  3.549911E+04  4.352773E+04 -1.486263E+04  2.983808E+04 -7.153175E-01
        20   8 -9.073172E+05 -2.156090E+03  1.949990E+04 -4.811614E+03  1.943225E+04 -1.508162E-01
        20   9 -9.019114E+05 -1.938231E+03  1.172261E+04  5.239146E+03  9.026557E+03  7.628040E-02
        20  10 -9.018951E+05  3.549887E+04  4.352605E+04  1.486263E+04 -2.391401E-10 -1.674933E-10
        20  11 -9.073176E+05 -2.156191E+03  1.949919E+04  4.811614E+03 -6.923530E-10 -4.132692E-10
        20  12 -9.019115E+05 -1.938253E+03  1.172246E+04 -5.239146E+03  7.513306E-10 -1.464116E-10
        20  13 -9.018954E+05  3.549846E+04  4.352599E+04 -3.230666E-09 -1.767704E-12  9.149149E-11
        20  14 -9.073176E+05 -2.156235E+03  1.949919E+04  4.017788E-09 -1.076598E-09  2.057717E-10
        20  15 -9.019115E+05 -1.938304E+03  1.172245E+04  4.962945E-10  3.944299E-10  4.822999E-11
        20  16 -9.018951E+05  3.549887E+04  4.352605E+04 -1.486263E+04  6.128162E-10  3.634782E-10
        20  17 -9.073176E+05 -2.156191E+03  1.949919E+04 -4.811614E+03  8.775432E-10  8.257414E-10
        20  18 -9.019115E+05 -1.938253E+03  1.172246E+04  5.239146E+03 -4.185935E-10  2.589819E-10
        20  19 -9.018942E+05  3.549911E+04  4.352773E+04  1.486263E+04 -2.983808E+04 -7.153175E-01
        20  20 -9.073172E+05 -2.156090E+03  1.949990E+04  4.811614E+03 -1.943225E+04 -1.508162E-01
        20  21 -9.019114E+05 -1.938231E+03  1.172261E+04 -5.239146E+03 -9.026557E+03  7.628041E-02
        20  22 -9.018944E+05  3.549870E+04  4.352767E+04  5.411518E-09 -2.983808E+04  3.015398E-11
        20  23 -9.073172E+05 -2.156133E+03  1.949990E+04 -3.521362E-09 -1.943225E+04  3.346347E-10
        20  24 -9.019115E+05 -1.938282E+03  1.172260E+04  3.679773E-09 -9.026557E+03  1.075395E-09
        20  25 -9.018942E+05  3.549911E+04  4.352773E+04 -1.486263E+04 -2.983808E+04  7.153175E-01
        20  26 -9.073172E+05 -2.156090E+03  1.949990E+04 -4.811614E+03 -1.943225E+04  1.508162E-01
        20  27 -9.019114E+05 -1.938231E+03  1.172261E+04  5.239146E+03 -9.026557E+03 -7.628040E-02
        21   1 -9.040863E+05  2.553263E+03  9.420572E+03  8.728069E+02  7.305455E+03  1.028483E-02
        21   2 -9.046012E+05 -1.942046E+02  4.985421E+03  2.158275E+02  4.786649E+03  1.666366E-03
        21   3 -9.040886E+05 -1.465241E+02  2.890768E+03 -4.411624E+02  2.267812E+03 -1.613754E-03
        21   4 -9.040863E+05  2.553262E+03  9.420572E+03  3.616654E-08  7.305455E+03 -1.162667E-09
        21   5 -9.046012E+05 -1.942047E+02  4.985421E+03 -3.714235E-09  4.786649E+03 -5.833923E-10
        21   6 -9.040886E+05 -1.465245E+02  2.890768E+03 -2.018470E-08  2.267812E+03 -5.229012E-10
        21   7 -9.040863E+05  2.553263E+03  9.420572E+03 -8.728069E+02  7.305455E+03 -1.028484E-02
        21   8 -9.046012E+05 -1.942046E+02  4.985421E+03 -2.158275E+02  4.786649E+03 -1.666368E-03
        21   9 -9.040886E+05 -1.465241E+02  2.890768E+03  4.411624E+02  2.267812E+03  1.613753E-03
        21  10 -9.040863E+05  2.553249E+03  9.420472E+03  8.728069E+02 -8.979471E-09 -1.825228E-10
        21  11 -9.046012E+05 -1.942108E+02  4.985378E+03  2.158275E+02 -1.296708E-09 -3.091716E-10
        21  12 -9.040886E+05 -1.465255E+02  2.890758E+03 -4.411624E+02  7.584345E-09  3.638515E-10
        21  13 -9.040863E+05  2.553248E+03  9.420472E+03 -2.600084E-09  1.468543E-10 -4.015369E-10
        21  14 -9.046012E+05 -1.942109E+02  4.985378E+03 -9.066651E-09  1.304354E-09 -8.662192E-10
        21  15 -9.040886E+05 -1.465258E+02  2.890758E+03  3.838909E-09 -2.284099E-09  4.367141E-11
        21  16 -9.040863E+05  2.553249E+03  9.420472E+03 -8.728069E+02  6.868332E-09 -6.906335E-10
        21  17 -9.046012E+05 -1.942108E+02  4.985378E+03 -2.158275E+02 -2.573637E-09 -1.389103E-09
        21  18 -9.040886E+05 -1.465255E+02  2.890758E+03  4.411624E+02 -6.783468E-09 -2.900509E-10
        21  19 -9.040863E+05  2.553263E+03  9.420572E+03  8.728069E+02 -7.305455E+03 -1.028483E-02
        21  20 -9.046012E+05 -1.942046E+02  4.985421E+03  2.158275E+02 -4.786649E+03 -1.666367E-03
        21  21 -9.040886E+05 -1.465241E+02  2.890768E+03 -4.411624E+02 -2.267812E+03  1.613754E-03
        21  22 -9.040863E+05  2.553262E+03  9.420572E+03 -2.411516E-08 -7.305455E+03  3.635763E-10
        21  23 -9.046012E+05 -1.942047E+02  4.985421E+03 -1.226591E-08 -4.786649E+03 -1.134677E-09
        21  24 -9.040886E+05 -1.465245E+02  2.890768E+03  3.404235E-08 -2.267812E+03  6.063305E-10
        21  25 -9.040863E+05  2.553263E+03  9.420572E+03 -8.728069E+02 -7.305455E+03  1.028483E-02
        21  26 -9.046012E+05 -1.942046E+02  4.985421E+03 -2.158275E+02 -4.786649E+03  1.666364E-03
        21  27 -9.040886E+05 -1.465241E+02  2.890768E+03  4.411624E+02 -2.267812E+03 -1.613753E-03
        22   1 -9.042877E+05  1.722913E+02  2.221308E+03  8.503200E+00  1.818603E+03  2.494322E-05
        22   2 -9.043533E+05 -2.278332E+01  1.221312E+03 -1.964604E+01  1.211381E+03 -3.838673E-05
        22   3 -9.042881E+05 -1.131773E+01  6.687126E+02 -4.779530E+01  6.041599E+02 -4.657746E-05
        22   4 -9.042877E+05  1.722913E+02  2.221308E+03  2.144204E-08  1.818603E+03 -1.036632E-10
        22   5 -9.043533E+05 -2.278332E+01  1.221312E+03  7.844269E-09  1.211381E+03  5.231214E-10
        22   6 -9.042881E+05 -1.131773E+01  6.687126E+02  7.982366E-09  6.041599E+02 -7.196418E-10
        22   7 -9.042877E+05  1.722913E+02  2.221308E+03 -8.503200E+00  1.818603E+03 -2.494335E-05
        22   8 -9.043533E+05 -2.278332E+01  1.221312E+03  1.964604E+01  1.211381E+03  3.838769E-05
        22   9 -9.042881E+05 -1.131773E+01  6.687126E+02  4.779530E+01  6.041599E+02  4.657614E-05
        22  10 -9.042877E+05  1.722904E+02  2.221302E+03  8.503200E+00  5.760870E-10  7.386065E-10
        22  11 -9.043533E+05 -2.278371E+01  1.221309E+03 -1.964604E+01  8.313576E-10  4.809444E-10
        22  12 -9.042881E+05 -1.131782E+01  6.687120E+02 -4.779530E+01  2.329267E-09 -4.734908E-10
        22  13 -9.042877E+05  1.722904E+02  2.221302E+03  1.065416E-08  1.118622E-09  5.305273E-10
        22  14 -9.043533E+05 -2.278371E+01  1.221309E+03 -1.905919E-09  1.330233E-09  3.098572E-10
        22  15 -9.042881E+05 -1.131783E+01  6.687120E+02 -1.017139E-09  9.757960E-10 -2.884497E-10
        22  16 -9.042877E+05  1.722904E+02  2.221302E+03 -8.503200E+00 -3.215935E-09  3.578058E-10
        22  17 -9.043533E+05 -2.278371E+01  1.221309E+03  1.964604E+01 -1.369649E-09  2.802492E-10
        22  18 -9.042881E+05 -1.131782E+01  6.687120E+02  4.779530E+01 -1.777796E-09 -1.029610E-10
        22  19 -9.042877E+05  1.722913E+02  2.221308E+03  8.503200E+00 -1.818603E+03 -2.494165E-05
        22  20 -9.043533E+05 -2.278332E+01  1.221312E+03 -1.964604E+01 -1.211381E+03  3.838751E-05
        22  21 -9.042881E+05 -1.131773E+01  6.687126E+02 -4.779530E+01 -6.041599E+02  4.657673E-05
        22  22 -9.042877E+05  1.722913E+02  2.221308E+03  1.063524E-08 -1.818603E+03  1.179831E-09
        22  23 -9.043533E+05 -2.278332E+01  1.221312E+03 -5.190313E-09 -1.211381E+03  1.038576E-10
        22  24 -9.042881E+05 -1.131773E+01  6.687126E+02  5.878697E-09 -6.041599E+02  1.528476E-10
        22  25 -9.042877E+05  1.722913E+02  2.221308E+03 -8.503200E+00 -1.818603E+03  2.494402E-05
        22  26 -9.043533E+05 -2.278332E+01  1.221312E+03  1.964604E+01 -1.211381E+03 -3.838739E-05
        22  27 -9.042881E+05 -1.131773E+01  6.687126E+02  4.779530E+01 -6.041599E+02 -4.657651E-05
        23   1 -9.043137E+05  8.932543E+00  4.799951E+02 -1.513935E+01  5.010164E+02 -1.223574E-05
        23   2 -9.043216E+05 -2.606357E+00  1.924433E+02 -1.430950E+01  4.057264E+02 -9.364817E-06
        23   3 -9.043138E+05 -5.618925E-01 -2.960979E+01 -1.347966E+01  3.104379E+02 -6.750269E-06
        23   4 -9.043137E+05  8.932542E+00  4.799951E+02  1.382990E-08  5.010164E+02 -9.344048E-10
        23   5 -9.043216E+05 -2.606357E+00  1.924433E+02  1.173217E-08  4.057264E+02 -1.551308E-10
        23   6 -9.043138E+05 -5.618928E-01 -2.960979E+01  9.365300E-09  3.104379E+02 -7.461045E-10
        23   7 -9.043137E+05  8.932543E+00  4.799951E+02  1.513935E+01  5.010164E+02  1.223372E-05
        23   8 -9.043216E+05 -2.606357E+00  1.924433E+02  1.430950E+01  4.057264E+02  9.364177E-06
        23   9 -9.043138E+05 -5.618925E-01 -2.960979E+01  1.347966E+01  3.104379E+02  6.749052E-06
        23  10 -9.043137E+05  8.932475E+00  4.799947E+02 -1.513935E+01  3.027581E-11 -4.339388E-10
        23  11 -9.043216E+05 -2.606401E+00  1.924429E+02 -1.430950E+01  1.154079E-09  3.016386E-10
        23  12 -9.043138E+05 -5.619184E-01 -2.960997E+01 -1.347966E+01 -8.979682E-11 -4.007701E-10
        23  13 -9.043137E+05  8.932475E+00  4.799947E+02  3.196506E-09 -1.248444E-09 -2.382609E-10
        23  14 -9.043216E+05 -2.606402E+00  1.924429E+02  1.388323E-08  1.634529E-10  1.742697E-10
        23  15 -9.043138E+05 -5.619187E-01 -2.960997E+01 -7.318095E-10  1.536763E-09 -3.293894E-10
        23  16 -9.043137E+05  8.932475E+00  4.799947E+02  1.513935E+01  1.226576E-09 -5.932774E-11
        23  17 -9.043216E+05 -2.606401E+00  1.924429E+02  1.430950E+01  6.242472E-10  9.830720E-11
        23  18 -9.043138E+05 -5.619184E-01 -2.960997E+01  1.347966E+01  1.588515E-10 -2.543405E-10
        23  19 -9.043137E+05  8.932543E+00  4.799951E+02 -1.513935E+01 -5.010164E+02  1.223509E-05
        23  20 -9.043216E+05 -2.606357E+00  1.924433E+02 -1.430950E+01 -4.057264E+02  9.365380E-06
        23  21 -9.043138E+05 -5.618925E-01 -2.960979E+01 -1.347966E+01 -3.104379E+02  6.749777E-06
        23  22 -9.043137E+05  8.932542E+00  4.799951E+02  1.193107E-08 -5.010164E+02  4.583379E-10
        23  23 -9.043216E+05 -2.606357E+00  1.924433E+02  1.064508E-08 -4.057264E+02  4.773500E-10
        23  24 -9.043138E+05 -5.618928E-01 -2.960979E+01  1.984736E-08 -3.104379E+02  8.556232E-11
        23  25 -9.043137E+05  8.932543E+00  4.799951E+02  1.513935E+01 -5.010164E+02 -1.223417E-05
        23  26 -9.043216E+05 -2.606357E+00  1.924433E+02  1.430950E+01 -4.057264E+02 -9.364382E-06
        23  27 -9.043138E+05 -5.618925E-01 -2.960979E+01  1.347966E+01 -3.104379E+02 -6.749716E-06
        24   1 -9.043243E+05  1.336962E+00 -1.393739E+02 -1.474863E+01  3.257261E+02 -7.749384E-06
        24   2 -9.043086E+05  5.134987E+00 -4.014024E+02 -1.810554E+01  5.243626E+02 -1.531250E-05
        24   3 -9.043245E+05 -1.354477E+01 -7.985101E+02 -2.146249E+01  7.230019E+02 -2.502809E-05
        24   4 -9.043243E+05  1.336961E+00 -1.393739E+02  1.338034E-08  3.257261E+02 -2.954043E-10
        24   5 -9.043086E+05  5.134987E+00 -4.014024E+02  8.679244E-09  5.243626E+02  1.548305E-09
        24   6 -9.043245E+05 -1.354477E+01 -7.985101E+02  6.395201E-09  7.230019E+02  1.268870E-09
        24   7 -9.043243E+05  1.336962E+00 -1.393739E+02  1.474863E+01  3.257261E+02  7.748836E-06
        24   8 -9.043086E+05  5.134987E+00 -4.014024E+02  1.810554E+01  5.243626E+02  1.531521E-05
        24   9 -9.043245E+05 -1.354477E+01 -7.985101E+02  2.146249E+01  7.230019E+02  2.503069E-05
        24  10 -9.043243E+05  1.336933E+00 -1.393741E+02 -1.474863E+01 -8.353336E-10 -2.855955E-10
        24  11 -9.043086E+05  5.134913E+00 -4.014029E+02 -1.810554E+01  6.204261E-10  6.292369E-10
        24  12 -9.043245E+05 -1.354491E+01 -7.985111E+02 -2.146249E+01  6.126238E-10 -9.772972E-11
        24  13 -9.043243E+05  1.336933E+00 -1.393741E+02  5.055651E-09 -1.110213E-09  1.233548E-11
        24  14 -9.043086E+05  5.134913E+00 -4.014029E+02 -5.320526E-09 -1.860016E-09  1.013003E-09
        24  15 -9.043245E+05 -1.354491E+01 -7.985111E+02  3.128768E-09 -3.892996E-09 -5.877361E-11
        24  16 -9.043243E+05  1.336933E+00 -1.393741E+02  1.474863E+01  1.987062E-09  3.411270E-10
        24  17 -9.043086E+05  5.134913E+00 -4.014029E+02  1.810554E+01 -1.802724E-09  1.338746E-09
        24  18 -9.043245E+05 -1.354491E+01 -7.985111E+02  2.146249E+01 -3.003093E-09  1.378197E-11
        24  19 -9.043243E+05  1.336962E+00 -1.393739E+02 -1.474863E+01 -3.257261E+02  7.748853E-06
        24  20 -9.043086E+05  5.134987E+00 -4.014024E+02 -1.810554E+01 -5.243626E+02  1.531391E-05
        24  21 -9.043245E+05 -1.354477E+01 -7.985101E+02 -2.146249E+01 -7.230019E+02  2.502795E-05
        24  22 -9.043243E+05  1.336961E+00 -1.393739E+02  1.612310E-08 -3.257261E+02  3.520235E-10
        24  23 -9.043086E+05  5.134987E+00 -4.014024E+02 -2.093933E-09 -5.243626E+02  5.115848E-10
        24  24 -9.043245E+05 -1.354477E+01 -7.985101E+02  5.525954E-09 -7.230019E+02 -1.382652E-09
        24  25 -9.043243E+05  1.336962E+00 -1.393739E+02  1.474863E+01 -3.257261E+02 -7.748231E-06
        24  26 -9.043086E+05  5.134987E+00 -4.014024E+02  1.810554E+01 -5.243626E+02 -1.531278E-05
        24  27 -9.043245E+05 -1.354477E+01 -7.985101E+02  2.146249E+01 -7.230019E+02 -2.503084E-05
        25   1 -9.043626E+05  1.777221E+01 -1.073948E+03 -7.188569E+01  8.912223E+02 -1.033377E-04
        25   2 -9.042614E+05  3.529634E+01 -1.903874E+03 -2.919635E+01  1.837724E+03 -8.654511E-05
        25   3 -9.043632E+05 -2.648591E+02 -3.430101E+03  1.349302E+01  2.784225E+03  6.059756E-05
        25   4 -9.043626E+05  1.777220E+01 -1.073948E+03  6.840447E-09  8.912223E+02  1.451294E-10
        25   5 -9.042614E+05  3.529633E+01 -1.903874E+03 -6.190716E-09  1.837724E+03 -7.672414E-10
        25   6 -9.043632E+05 -2.648591E+02 -3.430101E+03  3.927804E-09  2.784225E+03  3.015024E-10
        25   7 -9.043626E+05  1.777221E+01 -1.073948E+03  7.188569E+01  8.912223E+02  1.033380E-04
        25   8 -9.042614E+05  3.529634E+01 -1.903874E+03  2.919635E+01  1.837724E+03  8.654333E-05
        25   9 -9.043632E+05 -2.648591E+02 -3.430101E+03 -1.349302E+01  2.784225E+03 -6.059656E-05
        25  10 -9.043626E+05  1.777200E+01 -1.073950E+03 -7.188569E+01 -2.525016E-09 -5.131933E-10
        25  11 -9.042615E+05  3.529543E+01 -1.903880E+03 -2.919635E+01 -2.028150E-09  9.826804E-11
        25  12 -9.043632E+05 -2.648612E+02 -3.430116E+03  1.349302E+01 -5.507855E-10  1.061513E-09
        25  13 -9.043626E+05  1.777199E+01 -1.073950E+03 -8.181258E-09 -4.126140E-09 -6.839017E-10
        25  14 -9.042615E+05  3.529543E+01 -1.903880E+03  2.492361E-09 -2.316528E-09 -2.817916E-10
        25  15 -9.043632E+05 -2.648612E+02 -3.430116E+03 -7.280680E-09 -1.998097E-09  3.761310E-10
        25  16 -9.043626E+05  1.777200E+01 -1.073950E+03  7.188569E+01 -7.467649E-10 -8.881428E-10
        25  17 -9.042615E+05  3.529543E+01 -1.903880E+03  2.919635E+01  4.708691E-10 -6.851915E-10
        25  18 -9.043632E+05 -2.648612E+02 -3.430116E+03 -1.349302E+01  1.482591E-09 -2.254881E-10
        25  19 -9.043626E+05  1.777221E+01 -1.073948E+03 -7.188569E+01 -8.912223E+02  1.033368E-04
        25  20 -9.042614E+05  3.529634E+01 -1.903874E+03 -2.919635E+01 -1.837724E+03  8.654549E-05
        25  21 -9.043632E+05 -2.648591E+02 -3.430101E+03  1.349302E+01 -2.784225E+03 -6.059506E-05
        25  22 -9.043626E+05  1.777220E+01 -1.073948E+03  1.123191E-08 -8.912223E+02 -1.488964E-09
        25  23 -9.042614E+05  3.529633E+01 -1.903874E+03 -6.045682E-09 -1.837724E+03  2.291351E-10
        25  24 -9.043632E+05 -2.648591E+02 -3.430101E+03  8.431717E-09 -2.784225E+03  4.191765E-10
        25  25 -9.043626E+05  1.777221E+01 -1.073948E+03  7.188569E+01 -8.912223E+02 -1.033398E-04
        25  26 -9.042614E+05  3.529634E+01 -1.903874E+03  2.919635E+01 -1.837724E+03 -8.654494E-05
        25  27 -9.043632E+05 -2.648591E+02 -3.430101E+03 -1.349302E+01 -2.784225E+03  6.059585E-05
        26   1 -9.046690E+05  2.253941E+02 -4.455667E+03 -6.778680E+02  3.477237E+03 -3.801991E-03
        26   2 -9.038806E+05  2.986589E+02 -7.671014E+03  3.320925E+02  7.352990E+03  3.938711E-03
        26   3 -9.046724E+05 -3.925554E+03 -1.448669E+04  1.342040E+03  1.122867E+04  2.430665E-02
        26   4 -9.046690E+05  2.253933E+02 -4.455667E+03 -6.879091E-09  3.477237E+03  3.444161E-10
        26   5 -9.038806E+05  2.986587E+02 -7.671014E+03  4.313003E-10  7.352990E+03 -8.722195E-10
        26   6 -9.046724E+05 -3.925557E+03 -1.448669E+04  7.480979E-09  1.122867E+04 -1.346247E-10
        26   7 -9.046690E+05  2.253941E+02 -4.455667E+03  6.778680E+02  3.477237E+03  3.801992E-03
        26   8 -9.038806E+05  2.986589E+02 -7.671014E+03 -3.320925E+02  7.352990E+03 -3.938713E-03
        26   9 -9.046724E+05 -3.925554E+03 -1.448669E+04 -1.342040E+03  1.122867E+04 -2.430665E-02
        26  10 -9.046690E+05  2.253909E+02 -4.455690E+03 -6.778680E+02 -1.485968E-09  8.202344E-10
        26  11 -9.038807E+05  2.986443E+02 -7.671116E+03  3.320925E+02 -2.245159E-09 -2.435833E-10
        26  12 -9.046725E+05 -3.925588E+03 -1.448693E+04  1.342040E+03 -1.878744E-10 -2.877514E-10
        26  13 -9.046690E+05  2.253900E+02 -4.455690E+03 -2.685210E-09  1.093393E-09  3.499419E-10
        26  14 -9.038807E+05  2.986441E+02 -7.671116E+03  3.626380E-09 -7.503782E-10 -1.343572E-10
        26  15 -9.046725E+05 -3.925591E+03 -1.448693E+04  7.780604E-09 -9.455711E-10 -6.868064E-11
        26  16 -9.046690E+05  2.253909E+02 -4.455690E+03  6.778680E+02 -7.004465E-11 -2.071559E-10
        26  17 -9.038807E+05  2.986443E+02 -7.671116E+03 -3.320925E+02  8.831617E-10 -1.436263E-10
        26  18 -9.046725E+05 -3.925588E+03 -1.448693E+04 -1.342040E+03  1.170164E-10  2.444393E-10
        26  19 -9.046690E+05  2.253941E+02 -4.455667E+03 -6.778680E+02 -3.477237E+03  3.801993E-03
        26  20 -9.038806E+05  2.986589E+02 -7.671014E+03  3.320925E+02 -7.352990E+03 -3.938712E-03
        26  21 -9.046724E+05 -3.925554E+03 -1.448669E+04  1.342040E+03 -1.122867E+04 -2.430665E-02
        26  22 -9.046690E+05  2.253933E+02 -4.455667E+03  7.970275E-09 -3.477237E+03  3.728239E-10
        26  23 -9.038806E+05  2.986587E+02 -7.671014E+03 -7.051889E-10 -7.352990E+03  5.890725E-10
        26  24 -9.046724E+05 -3.925557E+03 -1.448669E+04 -1.855056E-09 -1.122867E+04 -2.125573E-11
        26  25 -9.046690E+05  2.253941E+02 -4.455667E+03  6.778680E+02 -3.477237E+03 -3.801992E-03
        26  26 -9.038806E+05  2.986589E+02 -7.671014E+03 -3.320925E+02 -7.352990E+03  3.938713E-03
        26  27 -9.046724E+05 -3.925554E+03 -1.448669E+04 -1.342040E+03 -1.122867E+04  2.430665E-02
        27   1 -9.080158E+05  2.980268E+03 -1.802456E+04 -8.054918E+03  1.387503E+04 -1.802722E-01
        27   2 -8.997046E+05  3.315095E+03 -2.997789E+04  7.397998E+03  2.987427E+04  3.564834E-01
        27   3 -9.080406E+05 -5.457614E+04 -6.691428E+04  2.285089E+04  4.587381E+04  1.690825E+00
        27   4 -9.080159E+05  2.980146E+03 -1.802457E+04  1.784735E-08  1.387503E+04  3.393853E-10
        27   5 -8.997046E+05  3.314992E+03 -2.997791E+04 -3.421447E-09  2.987427E+04  1.496132E-10
        27   6 -9.080412E+05 -5.457713E+04 -6.691442E+04  1.057209E-08  4.587381E+04 -4.061035E-11
        27   7 -9.080158E+05  2.980268E+03 -1.802456E+04  8.054918E+03  1.387503E+04  1.802722E-01
        27   8 -8.997046E+05  3.315095E+03 -2.997789E+04 -7.397998E+03  2.987427E+04 -3.564834E-01
        27   9 -9.080406E+05 -5.457614E+04 -6.691428E+04 -2.285089E+04  4.587381E+04 -1.690825E+00
        27  10 -9.080160E+05  2.980216E+03 -1.802492E+04 -8.054918E+03 -5.606485E-10 -2.138292E-10
        27  11 -8.997055E+05  3.314855E+03 -2.997957E+04  7.397998E+03  3.621703E-10 -1.912436E-10
        27  12 -9.080429E+05 -5.457671E+04 -6.691824E+04  2.285089E+04 -3.467905E-10 -7.507057E-11
        27  13 -9.080161E+05  2.980094E+03 -1.802494E+04  7.053066E-09 -1.416663E-09 -5.358713E-13
        27  14 -8.997056E+05  3.314752E+03 -2.997959E+04  8.838974E-10 -1.561484E-09 -8.071994E-11
        27  15 -9.080434E+05 -5.457769E+04 -6.691838E+04  9.768050E-11  2.084157E-09 -3.101483E-11
        27  16 -9.080160E+05  2.980216E+03 -1.802492E+04  8.054918E+03 -2.411127E-10  2.578795E-10
        27  17 -8.997055E+05  3.314855E+03 -2.997957E+04 -7.397998E+03  2.023873E-09  6.896113E-11
        27  18 -9.080429E+05 -5.457671E+04 -6.691824E+04 -2.285089E+04  1.188866E-09  9.007112E-12
        27  19 -9.080158E+05  2.980268E+03 -1.802456E+04 -8.054918E+03 -1.387503E+04  1.802722E-01
        27  20 -8.997046E+05  3.315095E+03 -2.997789E+04  7.397998E+03 -2.987427E+04 -3.564834E-01
        27  21 -9.080406E+05 -5.457614E+04 -6.691428E+04  2.285089E+04 -4.587381E+04 -1.690825E+00
        27  22 -9.080159E+05  2.980146E+03 -1.802457E+04  9.181027E-09 -1.387503E+04 -3.274788E-10
        27  23 -8.997046E+05  3.314992E+03 -2.997791E+04 -1.274550E-09 -2.987427E+04 -2.989277E-10
        27  24 -9.080412E+05 -5.457713E+04 -6.691442E+04  8.463106E-09 -4.587381E+04 -2.184194E-11
        27  25 -9.080158E+05  2.980268E+03 -1.802456E+04  8.054918E+03 -1.387503E+04 -1.802722E-01
        27  26 -8.997046E+05  3.315095E+03 -2.997789E+04 -7.397998E+03 -2.987427E+04  3.564834E-01
        27  27 -9.080406E+05 -5.457614E+04 -6.691428E+04 -2.285089E+04 -4.587381E+04  1.690825E+00
        28   1  6.104375E+05  1.911751E+06  6.729733E+05 -1.975847E+05  1.505737E+04  2.790800E+05
        28   2  2.609381E+05  1.739450E+06  4.300714E+05 -8.264881E+04  4.643567E+04  1.650146E+05
        28   3  2.334875E+05  1.662982E+06  3.419194E+05 -2.945182E+04  4.566359E+04  5.096454E+04
        28   4  2.966104E+05  6.489476E+05  3.651031E+05 -7.232574E+04  1.512492E+04  2.434363E+05
        28   5 -1.832338E+04  6.031210E+05  1.689324E+05 -4.154604E+04  4.646043E+04  1.534963E+05
        28   6 -1.509224E+04  6.491030E+05  1.109734E+05 -7.248836E+04  4.565021E+04  6.354465E+04
        28   7 -1.727478E+04 -6.123692E+05  5.713001E+04  5.267865E+04  1.517823E+04  2.078644E+05
        28   8 -2.976686E+05 -5.320119E+05 -9.229048E+04 -5.186810E+02  4.648371E+04  1.419987E+05
        28   9 -2.637359E+05 -3.638202E+05 -1.200379E+05 -1.154538E+05  4.563507E+04  7.610438E+04
        28  10  6.104164E+05  1.911668E+06  6.728269E+05 -1.975881E+05 -5.154632E-11  1.149258E-09
        28  11  2.609285E+05  1.739420E+06  4.300163E+05 -8.265497E+04  1.153783E-09 -3.236194E-10
        28  12  2.334845E+05  1.662979E+06  3.419106E+05 -2.945370E+04 -3.314880E-10 -8.522534E-10
        28  13  2.965943E+05  6.488839E+05  3.649914E+05 -7.232870E+04  1.640589E-09 -4.052156E-11
        28  14 -1.833202E+04  6.030951E+05  1.688842E+05 -4.155178E+04  2.432704E-09 -2.033279E-10
        28  15 -1.509556E+04  6.490981E+05  1.109619E+05 -7.249070E+04  1.856327E-09  1.564644E-10
        28  16 -1.728664E+04 -6.124157E+05  5.704831E+04  5.267611E+04  5.012436E-10 -1.193306E-09
        28  17 -2.976763E+05 -5.320342E+05 -9.233246E+04 -5.239990E+02  3.279681E-09  1.181646E-10
        28  18 -2.637397E+05 -3.638270E+05 -1.200527E+05 -1.154566E+05 -5.030781E-10  6.885812E-10
        28  19  6.104375E+05  1.911751E+06  6.729733E+05 -1.975847E+05 -1.505737E+04 -2.790800E+05
        28  20  2.609381E+05  1.739450E+06  4.300714E+05 -8.264881E+04 -4.643567E+04 -1.650146E+05
        28  21  2.334875E+05  1.662982E+06  3.419194E+05 -2.945182E+04 -4.566359E+04 -5.096454E+04
        28  22  2.966104E+05  6.489476E+05  3.651031E+05 -7.232574E+04 -1.512492E+04 -2.434363E+05
        28  23 -1.832338E+04  6.031210E+05  1.689324E+05 -4.154604E+04 -4.646043E+04 -1.534963E+05
        28  24 -1.509224E+04  6.491030E+05  1.109734E+05 -7.248836E+04 -4.565021E+04 -6.354465E+04
        28  25 -1.727478E+04 -6.123692E+05  5.713001E+04  5.267865E+04 -1.517823E+04 -2.078644E+05
        28  26 -2.976686E+05 -5.320119E+05 -9.229048E+04 -5.186810E+02 -4.648371E+04 -1.419987E+05
        28  27 -2.637359E+05 -3.638202E+05 -1.200379E+05 -1.154538E+05 -4.563507E+04 -7.610438E+04
        29   1  2.409595E+05  1.530075E+06  3.016851E+05 -8.357878E+04  3.841843E+04  4.387645E+04
        29   2  1.873973E+05  1.399534E+06  2.494105E+05 -4.283121E+04  3.405441E+04  5.887026E+03
        29   3  1.753575E+05  1.284379E+06  2.322253E+05 -6.426498E+04  2.789996E+04 -3.210444E+04
        29   4  2.043844E+04  6.321027E+05  9.611426E+04 -7.252400E+04  3.841935E+04  4.645862E+04
        29   5 -2.826556E+03  6.245535E+05  7.239670E+04 -4.143455E+04  3.405061E+04  9.847551E+03
        29   6  1.522248E+04  6.321563E+05  8.284513E+04 -7.252934E+04  2.789154E+04 -2.677289E+04
        29   7 -2.001382E+05 -2.651241E+05 -1.095095E+05 -6.148501E+04  3.842036E+04  4.903705E+04
        29   8 -1.930921E+05 -1.498717E+05 -1.046563E+05 -4.003940E+04  3.404682E+04  1.380318E+04
        29   9 -1.449418E+05 -1.967264E+04 -6.656286E+04 -8.078473E+04  2.788297E+04 -2.144687E+04
        29  10  2.409574E+05  1.530073E+06  3.016788E+05 -8.358014E+04 -4.803935E-10  6.389645E-10
        29  11  1.873961E+05  1.399534E+06  2.494083E+05 -4.283137E+04  3.140388E-09 -9.990831E-10
        29  12  1.753563E+05  1.284377E+06  2.322219E+05 -6.426426E+04  7.803783E-10  1.056206E-10
        29  13  2.043628E+04  6.321000E+05  9.610743E+04 -7.252544E+04  1.786597E-10 -3.520917E-10
        29  14 -2.827827E+03  6.245531E+05  7.239433E+04 -4.143482E+04  4.006653E-09 -4.676800E-10
        29  15  1.522146E+04  6.321553E+05  8.284232E+04 -7.252874E+04  6.369158E-11  2.667433E-10
        29  16 -2.001404E+05 -2.651271E+05 -1.095168E+05 -6.148653E+04 -1.557482E-09 -9.860378E-10
        29  17 -1.930934E+05 -1.498722E+05 -1.046589E+05 -4.003978E+04 -6.944944E-10  4.253773E-10
        29  18 -1.449427E+05 -1.967335E+04 -6.656519E+04 -8.078425E+04 -2.344195E-09 -4.383520E-10
        29  19  2.409595E+05  1.530075E+06  3.016851E+05 -8.357878E+04 -3.841843E+04 -4.387645E+04
        29  20  1.873973E+05  1.399534E+06  2.494105E+05 -4.283121E+04 -3.405441E+04 -5.887026E+03
        29  21  1.753575E+05  1.284379E+06  2.322253E+05 -6.426498E+04 -2.789996E+04  3.210444E+04
        29  22  2.043844E+04  6.321027E+05  9.611426E+04 -7.252400E+04 -3.841935E+04 -4.645862E+04
        29  23 -2.826556E+03  6.245535E+05  7.239670E+04 -4.143455E+04 -3.405061E+04 -9.847551E+03
        29  24  1.522248E+04  6.321563E+05  8.284513E+04 -7.252934E+04 -2.789154E+04  2.677289E+04
        29  25 -2.001382E+05 -2.651241E+05 -1.095095E+05 -6.148501E+04 -3.842036E+04 -4.903705E+04
        29  26 -1.930921E+05 -1.498717E+05 -1.046563E+05 -4.003940E+04 -3.404682E+04 -1.380318E+04
        29  27 -1.449418E+05 -1.967264E+04 -6.656286E+04 -8.078473E+04 -2.788297E+04  2.144687E+04
        30   1  1.214799E+05  1.182119E+06  2.139636E+05 -1.067981E+05  2.483595E+04 -4.432168E+04
        30   2  8.829720E+04  1.025338E+06  2.269702E+05 -1.131909E+04  1.798814E+04 -1.187495E+05
        30   3  2.982123E+05  9.387628E+05  3.491106E+05  2.251700E+04  5.305342E+03 -1.931799E+05
        30   4 -1.063179E+04  6.442684E+05  9.159340E+04 -7.256738E+04  2.482834E+04 -4.125250E+04
        30   5 -1.366727E+04  6.095276E+05  1.317342E+05 -4.147151E+04  1.797746E+04 -1.113046E+05
        30   6  2.257017E+05  6.442342E+05  2.780069E+05 -7.201209E+04  5.305153E+03 -1.813722E+05
        30   7 -1.427592E+05  1.066882E+05 -3.079498E+04 -3.836633E+04  2.482107E+04 -3.818594E+04
        30   8 -1.156402E+05  1.938793E+05  3.648751E+04 -7.160349E+04  1.796607E+04 -1.038645E+05
        30   9  1.532185E+05  3.498044E+05  2.069023E+05 -1.664962E+05  5.301378E+03 -1.695702E+05
        30  10  1.214787E+05  1.182117E+06  2.139588E+05 -1.067973E+05  1.802366E-09  1.722154E-09
        30  11  8.829308E+04  1.025323E+06  2.269431E+05 -1.131737E+04 -2.069572E-09 -7.985600E-10
        30  12  2.982023E+05  9.387228E+05  3.490405E+05  2.251783E+04 -3.596447E-10 -1.055726E-09
        30  13 -1.063291E+04  6.442664E+05  9.158905E+04 -7.256655E+04 -9.694811E-10 -6.061821E-10
        30  14 -1.367094E+04  6.095142E+05  1.317103E+05 -4.146990E+04 -1.712590E-09 -6.217386E-10
        30  15  2.256928E+05  6.441989E+05  2.779451E+05 -7.201132E+04  1.394276E-09  2.948299E-10
        30  16 -1.427602E+05  1.066865E+05 -3.079888E+04 -3.836557E+04 -1.590813E-09 -2.297101E-09
        30  17 -1.156435E+05  1.938677E+05  3.646664E+04 -7.160199E+04  8.999896E-10  1.668102E-10
        30  18  1.532108E+05  3.497735E+05  2.068482E+05 -1.664955E+05  2.421919E-09  6.340236E-10
        30  19  1.214799E+05  1.182119E+06  2.139636E+05 -1.067981E+05 -2.483595E+04  4.432168E+04
        30  20  8.829720E+04  1.025338E+06  2.269702E+05 -1.131909E+04 -1.798814E+04  1.187495E+05
        30  21  2.982123E+05  9.387628E+05  3.491106E+05  2.251700E+04 -5.305342E+03  1.931799E+05
        30  22 -1.063179E+04  6.442684E+05  9.159340E+04 -7.256738E+04 -2.482834E+04  4.125250E+04
        30  23 -1.366727E+04  6.095276E+05  1.317342E+05 -4.147151E+04 -1.797746E+04  1.113046E+05
        30  24  2.257017E+05  6.442342E+05  2.780069E+05 -7.201209E+04 -5.305153E+03  1.813722E+05
        30  25 -1.427592E+05  1.066882E+05 -3.079498E+04 -3.836633E+04 -2.482107E+04  3.818594E+04
        30  26 -1.156402E+05  1.938793E+05  3.648751E+04 -7.160349E+04 -1.796607E+04  1.038645E+05
        30  27  1.532185E+05  3.498044E+05  2.069023E+05 -1.664962E+05 -5.301378E+03  1.695702E+05
        31   1 -1.524988E+06 -3.498951E+05 -1.367992E+05 -5.743649E+05 -7.306109E+04 -2.601568E+04
        31   2 -1.502574E+06 -2.370104E+05 -6.764895E+04 -5.746283E+05 -4.658541E+04 -1.344782E+04
        31   3 -1.511112E+06 -2.214392E+05 -4.367940E+04 -5.593581E+05 -1.904688E+04 -3.713225E+03
        31   4 -1.449424E+06 -2.890035E+05 -1.100645E+05 -5.204210E+05 -7.047028E+04 -2.504900E+04
        31   5 -1.428268E+06 -1.989758E+05 -4.689550E+04 -5.437592E+05 -4.596283E+04 -1.321539E+04
        31   6 -1.437669E+06 -2.058655E+05 -2.734098E+04 -5.515654E+05 -2.039253E+04 -4.217262E+03
        31   7 -1.373852E+06 -2.281034E+05 -8.333032E+04 -4.664700E+05 -6.787916E+04 -2.408186E+04
        31   8 -1.353956E+06 -1.609396E+05 -2.614269E+04 -5.128864E+05 -4.534017E+04 -1.298290E+04
        31   9 -1.364220E+06 -1.902920E+05 -1.100281E+04 -5.437722E+05 -2.173834E+04 -4.721299E+03
        31  10 -1.524994E+06 -3.498972E+05 -1.368106E+05 -5.743665E+05 -2.203796E-09 -2.856338E-11
        31  11 -1.502576E+06 -2.370112E+05 -6.765338E+04 -5.746288E+05 -2.274314E-09 -5.669757E-11
        31  12 -1.511113E+06 -2.214393E+05 -4.368011E+04 -5.593582E+05 -1.622530E-10  5.487792E-12
        31  13 -1.449429E+06 -2.890055E+05 -1.100750E+05 -5.204225E+05 -9.780939E-10  1.056023E-10
        31  14 -1.428270E+06 -1.989766E+05 -4.689981E+04 -5.437597E+05  5.398208E-10  1.855063E-11
        31  15 -1.437669E+06 -2.058657E+05 -2.734179E+04 -5.515654E+05 -1.168905E-09 -1.867788E-10
        31  16 -1.373857E+06 -2.281053E+05 -8.334010E+04 -4.664713E+05  4.765200E-10  5.341208E-11
        31  17 -1.353959E+06 -1.609403E+05 -2.614688E+04 -5.128869E+05  3.079707E-10 -9.664005E-11
        31  18 -1.364220E+06 -1.902921E+05 -1.100374E+04 -5.437723E+05  3.387478E-09 -2.964321E-10
        31  19 -1.524988E+06 -3.498951E+05 -1.367992E+05 -5.743649E+05  7.306109E+04  2.601568E+04
        31  20 -1.502574E+06 -2.370104E+05 -6.764895E+04 -5.746283E+05  4.658541E+04  1.344782E+04
        31  21 -1.511112E+06 -2.214392E+05 -4.367940E+04 -5.593581E+05  1.904688E+04  3.713225E+03
        31  22 -1.449424E+06 -2.890035E+05 -1.100645E+05 -5.204210E+05  7.047028E+04  2.504900E+04
        31  23 -1.428268E+06 -1.989758E+05 -4.689550E+04 -5.437592E+05  4.596283E+04  1.321539E+04
        31  24 -1.437669E+06 -2.058655E+05 -2.734098E+04 -5.515654E+05  2.039253E+04  4.217262E+03
        31  25 -1.373852E+06 -2.281034E+05 -8.333032E+04 -4.664700E+05  6.787916E+04  2.408186E+04
        31  26 -1.353956E+06 -1.609396E+05 -2.614269E+04 -5.128864E+05  4.534017E+04  1.298290E+04
        31  27 -1.364220E+06 -1.902920E+05 -1.100281E+04 -5.437722E+05  2.173834E+04  4.721299E+03
        32   1 -1.480293E+06 -2.350637E+05 -3.401079E+04 -5.606373E+05 -1.594505E+04 -3.546020E+03
        32   2 -1.465331E+06 -2.171630E+05 -1.865921E+04 -5.527122E+05 -9.937113E+03 -2.150548E+03
        32   3 -1.446998E+06 -2.133231E+05 -9.535618E+03 -5.509387E+05 -3.873518E+03 -9.026172E+02
        32   4 -1.434103E+06 -2.156563E+05 -2.192998E+04 -5.458134E+05 -1.641661E+04 -3.722868E+03
        32   5 -1.435339E+06 -2.053990E+05 -1.098097E+04 -5.439490E+05 -1.051090E+04 -2.365644E+03
        32   6 -1.433184E+06 -2.091820E+05 -6.178414E+03 -5.482364E+05 -4.549741E+03 -1.156071E+03
        32   7 -1.387910E+06 -1.962485E+05 -9.849249E+03 -5.309884E+05 -1.688822E+04 -3.899736E+03
        32   8 -1.405346E+06 -1.936350E+05 -3.302816E+03 -5.351855E+05 -1.108471E+04 -2.580753E+03
        32   9 -1.419370E+06 -2.050409E+05 -2.821262E+03 -5.455342E+05 -5.225972E+03 -1.409524E+03
        32  10 -1.480293E+06 -2.350638E+05 -3.401130E+04 -5.606374E+05 -4.097013E-10 -7.419272E-11
        32  11 -1.465331E+06 -2.171631E+05 -1.865940E+04 -5.527122E+05  1.162023E-09  1.650186E-09
        32  12 -1.446998E+06 -2.133231E+05 -9.535648E+03 -5.509387E+05  2.576548E-09  6.635705E-10
        32  13 -1.434103E+06 -2.156564E+05 -2.193051E+04 -5.458135E+05  9.011820E-10  5.706572E-10
        32  14 -1.435339E+06 -2.053991E+05 -1.098118E+04 -5.439491E+05  2.138512E-09  1.329461E-09
        32  15 -1.433184E+06 -2.091820E+05 -6.178455E+03 -5.482364E+05  2.074063E-09  4.176314E-10
        32  16 -1.387911E+06 -1.962486E+05 -9.849815E+03 -5.309885E+05  3.114159E-09  9.147025E-10
        32  17 -1.405346E+06 -1.936350E+05 -3.303060E+03 -5.351856E+05  6.338070E-09  1.464708E-09
        32  18 -1.419370E+06 -2.050409E+05 -2.821317E+03 -5.455342E+05  4.119018E-10  2.418504E-10
        32  19 -1.480293E+06 -2.350637E+05 -3.401079E+04 -5.606373E+05  1.594505E+04  3.546020E+03
        32  20 -1.465331E+06 -2.171630E+05 -1.865921E+04 -5.527122E+05  9.937113E+03  2.150548E+03
        32  21 -1.446998E+06 -2.133231E+05 -9.535618E+03 -5.509387E+05  3.873518E+03  9.026172E+02
        32  22 -1.434103E+06 -2.156563E+05 -2.192998E+04 -5.458134E+05  1.641661E+04  3.722868E+03
        32  23 -1.435339E+06 -2.053990E+05 -1.098097E+04 -5.439490E+05  1.051090E+04  2.365644E+03
        32  24 -1.433184E+06 -2.091820E+05 -6.178414E+03 -5.482364E+05  4.549741E+03  1.156071E+03
        32  25 -1.387910E+06 -1.962485E+05 -9.849249E+03 -5.309884E+05  1.688822E+04  3.899736E+03
        32  26 -1.405346E+06 -1.936350E+05 -3.302816E+03 -5.351855E+05  1.108471E+04  2.580753E+03
        32  27 -1.419370E+06 -2.050409E+05 -2.821262E+03 -5.455342E+05  5.225972E+03  1.409524E+03
        33   1 -1.428672E+06 -2.084333E+05 -3.656646E+03 -5.467080E+05 -2.836828E+03 -1.145227E+03
        33   2 -1.414559E+06 -1.979425E+05  2.855819E+03 -5.381112E+05 -1.205796E+03 -1.573039E+03
        33   3 -1.394000E+06 -1.948657E+05  8.253559E+03 -5.372501E+05  4.271970E+02 -2.005848E+03
        33   4 -1.432816E+06 -2.099194E+05 -4.748819E+03 -5.477604E+05 -3.468507E+03 -1.381989E+03
        33   5 -1.436005E+06 -2.059712E+05 -2.559738E+03 -5.439827E+05 -1.840982E+03 -1.811133E+03
        33   6 -1.432747E+06 -2.094364E+05 -1.482506E+03 -5.479408E+05 -2.115298E+02 -2.245287E+03
        33   7 -1.436961E+06 -2.114055E+05 -5.840997E+03 -5.488127E+05 -4.100184E+03 -1.618752E+03
        33   8 -1.457451E+06 -2.140000E+05 -7.975383E+03 -5.498539E+05 -2.476150E+03 -2.049220E+03
        33   9 -1.471494E+06 -2.240071E+05 -1.121883E+04 -5.586309E+05 -8.502213E+02 -2.484713E+03
        33  10 -1.428672E+06 -2.084333E+05 -3.656664E+03 -5.467080E+05  1.554805E-09 -9.899637E-10
        33  11 -1.414559E+06 -1.979425E+05  2.855812E+03 -5.381112E+05  4.260694E-10 -1.083867E-09
        33  12 -1.394000E+06 -1.948657E+05  8.253551E+03 -5.372501E+05 -3.560566E-09  6.360697E-10
        33  13 -1.432817E+06 -2.099194E+05 -4.748845E+03 -5.477604E+05  1.489814E-10 -6.075981E-10
        33  14 -1.436005E+06 -2.059712E+05 -2.559750E+03 -5.439827E+05  2.404909E-10 -1.749348E-10
        33  15 -1.432747E+06 -2.094364E+05 -1.482515E+03 -5.479408E+05  8.103029E-10  9.870807E-10
        33  16 -1.436961E+06 -2.114055E+05 -5.841034E+03 -5.488127E+05 -5.876718E-10  5.092106E-11
        33  17 -1.457451E+06 -2.140000E+05 -7.975403E+03 -5.498540E+05 -1.100272E-09  3.743254E-10
        33  18 -1.471494E+06 -2.240071E+05 -1.121884E+04 -5.586309E+05  1.079245E-09  6.740825E-10
        33  19 -1.428672E+06 -2.084333E+05 -3.656646E+03 -5.467080E+05  2.836828E+03  1.145227E+03
        33  20 -1.414559E+06 -1.979425E+05  2.855819E+03 -5.381112E+05  1.205796E+03  1.573039E+03
        33  21 -1.394000E+06 -1.948657E+05  8.253559E+03 -5.372501E+05 -4.271970E+02  2.005848E+03
        33  22 -1.432816E+06 -2.099194E+05 -4.748819E+03 -5.477604E+05  3.468507E+03  1.381989E+03
        33  23 -1.436005E+06 -2.059712E+05 -2.559738E+03 -5.439827E+05  1.840982E+03  1.811133E+03
        33  24 -1.432747E+06 -2.094364E+05 -1.482506E+03 -5.479408E+05  2.115298E+02  2.245287E+03
        33  25 -1.436961E+06 -2.114055E+05 -5.840997E+03 -5.488127E+05  4.100184E+03  1.618752E+03
        33  26 -1.457451E+06 -2.140000E+05 -7.975383E+03 -5.498539E+05  2.476150E+03  2.049220E+03
        33  27 -1.471494E+06 -2.240071E+05 -1.121883E+04 -5.586309E+05  8.502213E+02  2.484713E+03
        34   1 -1.376898E+06 -1.885819E+05  1.298407E+04 -5.326236E+05  8.406533E+02 -2.458979E+03
        34   2 -1.363071E+06 -1.787640E+05  1.763038E+04 -5.240685E+05  1.574347E+03 -3.221592E+03
        34   3 -1.342564E+06 -1.757516E+05  2.197122E+04 -5.232536E+05  2.306372E+03 -3.979418E+03
        34   4 -1.432720E+06 -2.094685E+05 -1.171778E+03 -5.478794E+05  2.064673E+02 -2.696735E+03
        34   5 -1.436058E+06 -2.060522E+05 -7.936825E+02 -5.440144E+05  9.434320E+02 -3.458161E+03
        34   6 -1.432716E+06 -2.094419E+05 -7.235816E+02 -5.478896E+05  1.678717E+03 -4.214804E+03
        34   7 -1.488537E+06 -2.303547E+05 -1.532769E+04 -5.631339E+05 -4.276488E+02 -2.934464E+03
        34   8 -1.509039E+06 -2.333399E+05 -1.921804E+04 -5.639581E+05  3.126022E+02 -3.694697E+03
        34   9 -1.522861E+06 -2.431317E+05 -2.341899E+04 -5.725224E+05  1.051164E+03 -4.450152E+03
        34  10 -1.376898E+06 -1.885819E+05  1.298405E+04 -5.326236E+05  1.432656E-10  1.203695E-09
        34  11 -1.363071E+06 -1.787640E+05  1.763036E+04 -5.240685E+05  2.324750E-09 -3.144367E-12
        34  12 -1.342564E+06 -1.757516E+05  2.197119E+04 -5.232536E+05  5.857929E-10 -9.811300E-10
        34  13 -1.432720E+06 -2.094685E+05 -1.171792E+03 -5.478794E+05 -1.276895E-09  9.581963E-10
        34  14 -1.436058E+06 -2.060522E+05 -7.937067E+02 -5.440144E+05  2.893816E-09  1.519193E-10
        34  15 -1.432716E+06 -2.094420E+05 -7.236202E+02 -5.478896E+05  4.026321E-09 -5.892821E-10
        34  16 -1.488537E+06 -2.303547E+05 -1.532771E+04 -5.631339E+05 -4.720344E-11  5.134164E-10
        34  17 -1.509039E+06 -2.333399E+05 -1.921806E+04 -5.639581E+05 -9.273788E-10 -9.391155E-11
        34  18 -1.522861E+06 -2.431317E+05 -2.341903E+04 -5.725224E+05 -3.305222E-11 -7.614503E-10
        34  19 -1.376898E+06 -1.885819E+05  1.298407E+04 -5.326236E+05 -8.406533E+02  2.458979E+03
        34  20 -1.363071E+06 -1.787640E+05  1.763038E+04 -5.240685E+05 -1.574347E+03  3.221592E+03
        34  21 -1.342564E+06 -1.757516E+05  2.197122E+04 -5.232536E+05 -2.306372E+03  3.979418E+03
        34  22 -1.432720E+06 -2.094685E+05 -1.171778E+03 -5.478794E+05 -2.064673E+02  2.696735E+03
        34  23 -1.436058E+06 -2.060522E+05 -7.936825E+02 -5.440144E+05 -9.434320E+02  3.458161E+03
        34  24 -1.432716E+06 -2.094419E+05 -7.235816E+02 -5.478896E+05 -1.678717E+03  4.214804E+03
        34  25 -1.488537E+06 -2.303547E+05 -1.532769E+04 -5.631339E+05  4.276488E+02  2.934464E+03
        34  26 -1.509039E+06 -2.333399E+05 -1.921804E+04 -5.639581E+05 -3.126022E+02  3.694697E+03
        34  27 -1.522861E+06 -2.431317E+05 -2.341899E+04 -5.725224E+05 -1.051164E+03  4.450152E+03
        35   1 -1.325840E+06 -1.694424E+05  2.626724E+04 -5.186602E+05  2.622942E+03 -4.458056E+03
        35   2 -1.312337E+06 -1.598803E+05  3.009411E+04 -5.102902E+05  3.508261E+03 -5.142231E+03
        35   3 -1.292339E+06 -1.569930E+05  3.349173E+04 -5.094707E+05  4.389817E+03 -5.815713E+03
        35   4 -1.432757E+06 -2.094043E+05 -7.809477E+02 -5.478512E+05  1.999761E+03 -4.691803E+03
        35   5 -1.436009E+06 -2.060956E+05 -1.119439E+03 -5.440650E+05  2.892363E+03 -5.373321E+03
        35   6 -1.432767E+06 -2.094635E+05 -1.893089E+03 -5.478297E+05  3.781183E+03 -6.044148E+03
        35   7 -1.539663E+06 -2.493655E+05 -2.783017E+04 -5.770377E+05  1.376694E+03 -4.925507E+03
        35   8 -1.559666E+06 -2.523100E+05 -3.233428E+04 -5.778338E+05  2.276598E+03 -5.604360E+03
        35   9 -1.573176E+06 -2.619328E+05 -3.727948E+04 -5.861809E+05  3.172701E+03 -6.272527E+03
        35  10 -1.325840E+06 -1.694424E+05  2.626719E+04 -5.186602E+05 -8.068993E-10 -1.378371E-09
        35  11 -1.312337E+06 -1.598804E+05  3.009403E+04 -5.102902E+05 -1.238628E-09  1.193625E-09
        35  12 -1.292339E+06 -1.569931E+05  3.349163E+04 -5.094706E+05  6.158677E-10  7.718646E-10
        35  13 -1.432757E+06 -2.094043E+05 -7.809966E+02 -5.478512E+05  2.028657E-09 -6.765050E-10
        35  14 -1.436009E+06 -2.060957E+05 -1.119508E+03 -5.440650E+05 -7.383674E-10  1.171864E-09
        35  15 -1.432767E+06 -2.094636E+05 -1.893184E+03 -5.478297E+05  3.077806E-09  6.167306E-10
        35  16 -1.539663E+06 -2.493656E+05 -2.783022E+04 -5.770377E+05  1.731896E-09  2.459290E-10
        35  17 -1.559666E+06 -2.523101E+05 -3.233434E+04 -5.778338E+05 -2.261575E-09  6.161499E-10
        35  18 -1.573176E+06 -2.619328E+05 -3.727957E+04 -5.861808E+05 -1.347156E-09  2.216336E-10
        35  19 -1.325840E+06 -1.694424E+05  2.626724E+04 -5.186602E+05 -2.622942E+03  4.458056E+03
        35  20 -1.312337E+06 -1.598803E+05  3.009411E+04 -5.102902E+05 -3.508261E+03  5.142231E+03
        35  21 -1.292339E+06 -1.569930E+05  3.349173E+04 -5.094707E+05 -4.389817E+03  5.815713E+03
        35  22 -1.432757E+06 -2.094043E+05 -7.809477E+02 -5.478512E+05 -1.999761E+03  4.691803E+03
        35  23 -1.436009E+06 -2.060956E+05 -1.119439E+03 -5.440650E+05 -2.892363E+03  5.373321E+03
        35  24 -1.432767E+06 -2.094635E+05 -1.893089E+03 -5.478297E+05 -3.781183E+03  6.044148E+03
        35  25 -1.539663E+06 -2.493655E+05 -2.783017E+04 -5.770377E+05 -1.376694E+03  4.925507E+03
        35  26 -1.559666E+06 -2.523100E+05 -3.233428E+04 -5.778338E+05 -2.276598E+03  5.604360E+03
        35  27 -1.573176E+06 -2.619328E+05 -3.727948E+04 -5.861809E+05 -3.172701E+03  6.272527E+03
        36   1 -1.276132E+06 -1.508699E+05  3.713409E+04 -5.051754E+05  4.938673E+03 -6.191462E+03
        36   2 -1.263024E+06 -1.414660E+05  3.922540E+04 -4.969093E+05  7.443674E+03 -6.229711E+03
        36   3 -1.244200E+06 -1.394235E+05  3.942878E+04 -4.957513E+05  9.936504E+03 -6.234589E+03
        36   4 -1.432901E+06 -2.093242E+05 -2.468319E+03 -5.478417E+05  4.330603E+03 -6.419739E+03
        36   5 -1.435818E+06 -2.060652E+05 -4.390782E+03 -5.441293E+05  6.858147E+03 -6.449628E+03
        36   6 -1.433024E+06 -2.101723E+05 -8.219462E+03 -5.475250E+05  9.373465E+03 -6.446161E+03
        36   7 -1.589646E+06 -2.677768E+05 -4.207252E+04 -5.904981E+05  3.722704E+03 -6.647954E+03
        36   8 -1.608584E+06 -2.706624E+05 -4.800935E+04 -5.913373E+05  6.272798E+03 -6.669477E+03
        36   9 -1.621814E+06 -2.809190E+05 -5.587076E+04 -5.992847E+05  8.810611E+03 -6.657663E+03
        36  10 -1.276132E+06 -1.508700E+05  3.713397E+04 -5.051754E+05  1.017752E-09 -7.949170E-11
        36  11 -1.263024E+06 -1.414660E+05  3.922522E+04 -4.969093E+05  6.599003E-10 -7.651406E-10
        36  12 -1.244200E+06 -1.394236E+05  3.942852E+04 -4.957513E+05 -8.070308E-10 -1.895563E-09
        36  13 -1.432901E+06 -2.093243E+05 -2.468432E+03 -5.478417E+05 -8.206413E-10  6.488018E-11
        36  14 -1.435818E+06 -2.060652E+05 -4.390948E+03 -5.441292E+05 -2.888584E-09 -8.650515E-10
        36  15 -1.433024E+06 -2.101724E+05 -8.219705E+03 -5.475250E+05 -4.264423E-09 -1.646496E-09
        36  16 -1.589646E+06 -2.677768E+05 -4.207263E+04 -5.904980E+05 -8.065860E-10 -2.058331E-11
        36  17 -1.608584E+06 -2.706625E+05 -4.800951E+04 -5.913373E+05 -1.321943E-09 -6.885233E-10
        36  18 -1.621814E+06 -2.809190E+05 -5.587099E+04 -5.992846E+05 -3.097224E-09 -1.616183E-09
        36  19 -1.276132E+06 -1.508699E+05  3.713409E+04 -5.051754E+05 -4.938673E+03  6.191462E+03
        36  20 -1.263024E+06 -1.414660E+05  3.922540E+04 -4.969093E+05 -7.443674E+03  6.229711E+03
        36  21 -1.244200E+06 -1.394235E+05  3.942878E+04 -4.957513E+05 -9.936504E+03  6.234589E+03
        36  22 -1.432901E+06 -2.093242E+05 -2.468319E+03 -5.478417E+05 -4.330603E+03  6.419739E+03
        36  23 -1.435818E+06 -2.060652E+05 -4.390782E+03 -5.441293E+05 -6.858147E+03  6.449628E+03
        36  24 -1.433024E+06 -2.101723E+05 -8.219462E+03 -5.475250E+05 -9.373465E+03  6.446161E+03
        36  25 -1.589646E+06 -2.677768E+05 -4.207252E+04 -5.904981E+05 -3.722704E+03  6.647954E+03
        36  26 -1.608584E+06 -2.706624E+05 -4.800935E+04 -5.913373E+05 -6.272798E+03  6.669477E+03
        36  27 -1.621814E+06 -2.809190E+05 -5.587076E+04 -5.992847E+05 -8.810611E+03  6.657663E+03
        37   1 -1.227977E+06 -1.336417E+05  4.095076E+04 -4.938530E+05  1.176028E+04 -6.156781E+03
        37   2 -1.215546E+06 -1.222408E+05  3.642164E+04 -4.832456E+05  2.153503E+04 -3.358726E+03
        37   3 -1.202958E+06 -1.293512E+05  2.144726E+04 -4.766315E+05  3.115829E+04 -1.562643E+02
        37   4 -1.433730E+06 -2.088229E+05 -1.071090E+04 -5.482746E+05  1.108652E+04 -6.409958E+03
        37   5 -1.434582E+06 -2.051630E+05 -1.906975E+04 -5.441691E+05  2.113903E+04 -3.507785E+03
        37   6 -1.435334E+06 -2.200725E+05 -3.809720E+04 -5.440569E+05  3.103980E+04 -2.013322E+02
        37   7 -1.639442E+06 -2.840019E+05 -6.237588E+04 -6.026800E+05  1.041300E+04 -6.663048E+03
        37   8 -1.653570E+06 -2.880815E+05 -7.456487E+04 -6.050728E+05  2.074319E+04 -3.656785E+03
        37   9 -1.667656E+06 -3.107887E+05 -9.764584E+04 -6.114587E+05  3.092134E+04 -2.463807E+02
        37  10 -1.227977E+06 -1.336417E+05  4.095043E+04 -4.938530E+05 -2.204974E-09 -1.806611E-09
        37  11 -1.215547E+06 -1.222410E+05  3.642074E+04 -4.832456E+05 -4.137885E-11  1.014895E-09
        37  12 -1.202959E+06 -1.293514E+05  2.144544E+04 -4.766315E+05 -1.989057E-09 -1.386507E-10
        37  13 -1.433730E+06 -2.088230E+05 -1.071120E+04 -5.482745E+05 -5.676083E-09 -1.467827E-09
        37  14 -1.434583E+06 -2.051631E+05 -1.907062E+04 -5.441691E+05  5.093691E-10 -6.253601E-10
        37  15 -1.435335E+06 -2.200728E+05 -3.809902E+04 -5.440569E+05 -1.614846E-10 -1.958145E-10
        37  16 -1.639442E+06 -2.840020E+05 -6.237617E+04 -6.026799E+05 -1.739589E-09 -1.033540E-09
        37  17 -1.653571E+06 -2.880816E+05 -7.456571E+04 -6.050728E+05 -2.909718E-09 -1.342194E-09
        37  18 -1.667657E+06 -3.107889E+05 -9.764764E+04 -6.114587E+05 -1.330610E-10 -9.097717E-10
        37  19 -1.227977E+06 -1.336417E+05  4.095076E+04 -4.938530E+05 -1.176028E+04  6.156781E+03
        37  20 -1.215546E+06 -1.222408E+05  3.642164E+04 -4.832456E+05 -2.153503E+04  3.358726E+03
        37  21 -1.202958E+06 -1.293512E+05  2.144726E+04 -4.766315E+05 -3.115829E+04  1.562643E+02
        37  22 -1.433730E+06 -2.088229E+05 -1.071090E+04 -5.482746E+05 -1.108652E+04  6.409958E+03
        37  23 -1.434582E+06 -2.051630E+05 -1.906975E+04 -5.441691E+05 -2.113903E+04  3.507785E+03
        37  24 -1.435334E+06 -2.200725E+05 -3.809720E+04 -5.440569E+05 -3.103980E+04  2.013322E+02
        37  25 -1.639442E+06 -2.840019E+05 -6.237588E+04 -6.026800E+05 -1.041300E+04  6.663048E+03
        37  26 -1.653570E+06 -2.880815E+05 -7.456487E+04 -6.050728E+05 -2.074319E+04  3.656785E+03
        37  27 -1.667656E+06 -3.107887E+05 -9.764584E+04 -6.114587E+05 -3.092134E+04  2.463807E+02
        38   1 -1.176702E+06 -1.245725E+05  1.541534E+04 -5.027853E+05  4.032780E+04  1.729745E+03
        38   2 -1.171448E+06 -8.232097E+04 -1.458198E+04 -4.569065E+05  7.907654E+04  1.661347E+04
        38   3 -1.224377E+06 -2.011714E+05 -1.161740E+05 -3.769208E+05  1.149898E+05  3.904579E+04
        38   4 -1.441582E+06 -2.030073E+05 -4.749999E+04 -5.539887E+05  3.788878E+04  8.144281E+02
        38   5 -1.422215E+06 -1.940923E+05 -8.147991E+04 -5.439361E+05  8.186730E+04  1.765932E+04
        38   6 -1.462099E+06 -3.473646E+05 -1.912284E+05 -4.997696E+05  1.230102E+05  4.204847E+04
        38   7 -1.706393E+06 -2.814433E+05 -1.104203E+05 -6.051752E+05  3.545089E+04 -1.006694E+02
        38   8 -1.672919E+06 -3.058519E+05 -1.483834E+05 -6.309313E+05  8.465683E+04  1.870450E+04
        38   9 -1.699756E+06 -4.935190E+05 -2.662873E+05 -6.225663E+05  1.310272E+05  4.504805E+04
        38  10 -1.176703E+06 -1.245730E+05  1.541228E+04 -5.027854E+05 -2.625412E-09 -1.261656E-09
        38  11 -1.171455E+06 -8.232295E+04 -1.459427E+04 -4.569075E+05  1.737819E-09 -4.803188E-10
        38  12 -1.224392E+06 -2.011766E+05 -1.162018E+05 -3.769245E+05  5.421134E-10 -2.678002E-10
        38  13 -1.441583E+06 -2.030077E+05 -4.750269E+04 -5.539887E+05  3.796293E-11 -5.347781E-10
        38  14 -1.422222E+06 -1.940945E+05 -8.149313E+04 -5.439373E+05 -7.786986E-10 -7.613852E-10
        38  15 -1.462115E+06 -3.473706E+05 -1.912602E+05 -4.997737E+05 -2.264434E-10  2.838689E-10
        38  16 -1.706395E+06 -2.814436E+05 -1.104226E+05 -6.051752E+05  8.551087E-10 -1.882878E-10
        38  17 -1.672927E+06 -3.058542E+05 -1.483975E+05 -6.309326E+05 -2.840276E-09  5.360063E-10
        38  18 -1.699775E+06 -4.935258E+05 -2.663235E+05 -6.225711E+05  5.717113E-10  1.949265E-10
        38  19 -1.176702E+06 -1.245725E+05  1.541534E+04 -5.027853E+05 -4.032780E+04 -1.729745E+03
        38  20 -1.171448E+06 -8.232097E+04 -1.458198E+04 -4.569065E+05 -7.907654E+04 -1.661347E+04
        38  21 -1.224377E+06 -2.011714E+05 -1.161740E+05 -3.769208E+05 -1.149898E+05 -3.904579E+04
        38  22 -1.441582E+06 -2.030073E+05 -4.749999E+04 -5.539887E+05 -3.788878E+04 -8.144281E+02
        38  23 -1.422215E+06 -1.940923E+05 -8.147991E+04 -5.439361E+05 -8.186730E+04 -1.765932E+04
        38  24 -1.462099E+06 -3.473646E+05 -1.912284E+05 -4.997696E+05 -1.230102E+05 -4.204847E+04
        38  25 -1.706393E+06 -2.814433E+05 -1.104203E+05 -6.051752E+05 -3.545089E+04  1.006694E+02
        38  26 -1.672919E+06 -3.058519E+05 -1.483834E+05 -6.309313E+05 -8.465683E+04 -1.870450E+04
        38  27 -1.699756E+06 -4.935190E+05 -2.662873E+05 -6.225663E+05 -1.310272E+05 -4.504805E+04
        39   1 -1.814395E+05  6.793616E+04  8.330382E+04  2.846474E+04  5.713320E+04  2.620275E+00
        39   2 -1.918009E+05 -4.120985E+03  3.732868E+04  9.216060E+03  3.720981E+04  5.525318E-01
        39   3 -1.814477E+05 -3.709200E+03  2.244617E+04 -1.003223E+04  1.728633E+04 -2.794136E-01
        39   4 -1.814404E+05  6.793464E+04  8.330360E+04  4.705837E-09  5.713320E+04  4.389723E-10
        39   5 -1.918010E+05 -4.121144E+03  3.732866E+04 -8.512334E-09  3.720981E+04  9.318756E-10
        39   6 -1.814478E+05 -3.709389E+03  2.244615E+04  1.153872E-09  1.728633E+04 -8.167347E-10
        39   7 -1.814395E+05  6.793616E+04  8.330382E+04 -2.846474E+04  5.713320E+04 -2.620275E+00
        39   8 -1.918009E+05 -4.120985E+03  3.732868E+04 -9.216060E+03  3.720981E+04 -5.525318E-01
        39   9 -1.814477E+05 -3.709200E+03  2.244617E+04  1.003223E+04  1.728633E+04  2.794136E-01
        39  10 -1.814430E+05  6.793528E+04  8.329768E+04  2.846474E+04  3.735214E-10  1.535337E-10
        39  11 -1.918024E+05 -4.121356E+03  3.732608E+04  9.216060E+03  4.245716E-11  1.867147E-10
        39  12 -1.814481E+05 -3.709280E+03  2.244561E+04 -1.003223E+04 -6.351980E-10 -5.110659E-10
        39  13 -1.814439E+05  6.793376E+04  8.329746E+04 -6.036025E-09 -8.412683E-12  8.275199E-11
        39  14 -1.918025E+05 -4.121516E+03  3.732606E+04 -5.324336E-09  1.075853E-10  3.688315E-11
        39  15 -1.814482E+05 -3.709469E+03  2.244558E+04 -3.084177E-10 -5.513537E-10 -5.287627E-10
        39  16 -1.814430E+05  6.793528E+04  8.329768E+04 -2.846474E+04 -1.978410E-09  1.688494E-11
        39  17 -1.918024E+05 -4.121356E+03  3.732608E+04 -9.216060E+03  1.386493E-09 -8.295137E-11
        39  18 -1.814481E+05 -3.709280E+03  2.244561E+04  1.003223E+04  6.325057E-10 -5.315489E-10
        39  19 -1.814395E+05  6.793616E+04  8.330382E+04  2.846474E+04 -5.713320E+04 -2.620275E+00
        39  20 -1.918009E+05 -4.120985E+03  3.732868E+04  9.216060E+03 -3.720981E+04 -5.525318E-01
        39  21 -1.814477E+05 -3.709200E+03  2.244617E+04 -1.003223E+04 -1.728633E+04  2.794136E-01
        39  22 -1.814404E+05  6.793464E+04  8.330360E+04 -1.699948E-09 -5.713320E+04 -2.566049E-10
        39  23 -1.918010E+05 -4.121144E+03  3.732866E+04 -6.442718E-09 -3.720981E+04 -8.452520E-10
        39  24 -1.814478E+05 -3.709389E+03  2.244615E+04  2.057985E-08 -1.728633E+04 -2.394278E-10
        39  25 -1.814395E+05  6.793616E+04  8.330382E+04 -2.846474E+04 -5.713320E+04  2.620275E+00
        39  26 -1.918009E+05 -4.120985E+03  3.732868E+04 -9.216060E+03 -3.720981E+04  5.525318E-01
        39  27 -1.814477E+05 -3.709200E+03  2.244617E+04  1.003223E+04 -1.728633E+04 -2.794136E-01
        40   1 -1.856128E+05  4.884674E+03  1.804168E+04  1.670998E+03  1.398851E+04  3.766149E-02
        40   2 -1.865963E+05 -3.713236E+02  9.558758E+03  4.135462E+02  9.158100E+03  6.102105E-03
        40   3 -1.856138E+05 -2.805718E+02  5.558078E+03 -8.438896E+02  4.327784E+03 -5.884382E-03
        40   4 -1.856128E+05  4.884669E+03  1.804168E+04 -1.359258E-08  1.398851E+04 -1.383594E-09
        40   5 -1.865963E+05 -3.713239E+02  9.558758E+03  3.328364E-10  9.158100E+03 -8.448590E-10
        40   6 -1.856138E+05 -2.805731E+02  5.558078E+03  2.125833E-08  4.327784E+03 -9.068406E-10
        40   7 -1.856128E+05  4.884674E+03  1.804168E+04 -1.670998E+03  1.398851E+04 -3.766149E-02
        40   8 -1.865963E+05 -3.713236E+02  9.558758E+03 -4.135462E+02  9.158100E+03 -6.102107E-03
        40   9 -1.856138E+05 -2.805718E+02  5.558078E+03  8.438896E+02  4.327784E+03  5.884380E-03
        40  10 -1.856130E+05  4.884621E+03  1.804131E+04  1.670998E+03 -2.325273E-09 -8.017512E-10
        40  11 -1.865964E+05 -3.713461E+02  9.558600E+03  4.135462E+02 -4.730317E-10 -5.478841E-10
        40  12 -1.856138E+05 -2.805768E+02  5.558043E+03 -8.438896E+02 -1.628910E-09 -6.166493E-11
        40  13 -1.856130E+05  4.884616E+03  1.804131E+04 -2.787907E-09 -2.153814E-09 -7.123366E-10
        40  14 -1.865964E+05 -3.713464E+02  9.558600E+03 -5.021894E-09  4.206315E-12 -4.729370E-10
        40  15 -1.856138E+05 -2.805781E+02  5.558043E+03  2.436136E-09  1.771767E-10 -2.861738E-10
        40  16 -1.856130E+05  4.884621E+03  1.804131E+04 -1.670998E+03  1.235545E-09 -6.073685E-10
        40  17 -1.865964E+05 -3.713461E+02  9.558600E+03 -4.135462E+02  2.208322E-10 -4.152051E-10
        40  18 -1.856138E+05 -2.805768E+02  5.558043E+03  8.438896E+02 -9.458515E-11 -5.107349E-10
        40  19 -1.856128E+05  4.884674E+03  1.804168E+04  1.670998E+03 -1.398851E+04 -3.766149E-02
        40  20 -1.865963E+05 -3.713236E+02  9.558758E+03  4.135462E+02 -9.158100E+03 -6.102106E-03
        40  21 -1.856138E+05 -2.805718E+02  5.558078E+03 -8.438896E+02 -4.327784E+03  5.884382E-03
        40  22 -1.856128E+05  4.884669E+03  1.804168E+04  5.863756E-09 -1.398851E+04 -4.337288E-11
        40  23 -1.865963E+05 -3.713239E+02  9.558758E+03 -7.146753E-09 -9.158100E+03 -9.833577E-11
        40  24 -1.856138E+05 -2.805731E+02  5.558078E+03  2.130223E-08 -4.327784E+03  3.325157E-10
        40  25 -1.856128E+05  4.884674E+03  1.804168E+04 -1.670998E+03 -1.398851E+04  3.766149E-02
        40  26 -1.865963E+05 -3.713236E+02  9.558758E+03 -4.135462E+02 -9.158100E+03  6.102106E-03
        40  27 -1.856138E+05 -2.805718E+02  5.558078E+03  8.438896E+02 -4.327784E+03 -5.884381E-03
        41   1 -1.859942E+05  3.294087E+02  4.283236E+03  1.690179E+01  3.462241E+03  9.428456E-05
        41   2 -1.861211E+05 -4.409730E+01  2.390265E+03 -3.577156E+01  2.273721E+03 -1.310449E-04
        41   3 -1.859944E+05 -2.237496E+01  1.370076E+03 -8.844574E+01  1.085186E+03 -1.546432E-04
        41   4 -1.859942E+05  3.294087E+02  4.283236E+03  2.136391E-09  3.462241E+03 -1.707427E-10
        41   5 -1.861211E+05 -4.409731E+01  2.390265E+03 -4.811313E-09  2.273721E+03  1.276620E-09
        41   6 -1.859944E+05 -2.237497E+01  1.370076E+03  5.472441E-09  1.085186E+03  3.417778E-10
        41   7 -1.859942E+05  3.294087E+02  4.283236E+03 -1.690179E+01  3.462241E+03 -9.428489E-05
        41   8 -1.861211E+05 -4.409730E+01  2.390265E+03  3.577156E+01  2.273721E+03  1.310474E-04
        41   9 -1.859944E+05 -2.237496E+01  1.370076E+03  8.844574E+01  1.085186E+03  1.546439E-04
        41  10 -1.859942E+05  3.294054E+02  4.283213E+03  1.690179E+01 -1.744528E-09  7.082365E-10
        41  11 -1.861211E+05 -4.409869E+01  2.390255E+03 -3.577156E+01 -1.395415E-09  1.222323E-09
        41  12 -1.859944E+05 -2.237528E+01  1.370073E+03 -8.844574E+01 -1.597280E-10 -6.531096E-10
        41  13 -1.859942E+05  3.294054E+02  4.283213E+03 -1.942984E-09 -1.072691E-09  3.160905E-10
        41  14 -1.861211E+05 -4.409870E+01  2.390255E+03 -2.699067E-09 -3.266508E-09  9.777440E-10
        41  15 -1.859944E+05 -2.237529E+01  1.370073E+03  5.697387E-09  7.845022E-10 -2.982077E-10
        41  16 -1.859942E+05  3.294054E+02  4.283213E+03 -1.690179E+01  2.786655E-09 -8.680050E-11
        41  17 -1.861211E+05 -4.409869E+01  2.390255E+03  3.577156E+01  5.708843E-10  7.279720E-10
        41  18 -1.859944E+05 -2.237528E+01  1.370073E+03  8.844574E+01 -1.524879E-09  5.167995E-11
        41  19 -1.859942E+05  3.294087E+02  4.283236E+03  1.690179E+01 -3.462241E+03 -9.428315E-05
        41  20 -1.861211E+05 -4.409730E+01  2.390265E+03 -3.577156E+01 -2.273721E+03  1.310473E-04
        41  21 -1.859944E+05 -2.237496E+01  1.370076E+03 -8.844574E+01 -1.085186E+03  1.546419E-04
        41  22 -1.859942E+05  3.294087E+02  4.283236E+03  1.120725E-08 -3.462241E+03  8.013166E-10
        41  23 -1.861211E+05 -4.409731E+01  2.390265E+03  3.718908E-09 -2.273721E+03  6.860550E-10
        41  24 -1.859944E+05 -2.237497E+01  1.370076E+03  4.576875E-09 -1.085186E+03 -9.376325E-10
        41  25 -1.859942E+05  3.294087E+02  4.283236E+03 -1.690179E+01 -3.462241E+03  9.428473E-05
        41  26 -1.861211E+05 -4.409730E+01  2.390265E+03  3.577156E+01 -2.273721E+03 -1.310460E-04
        41  27 -1.859944E+05 -2.237496E+01  1.370076E+03  8.844574E+01 -1.085186E+03 -1.546438E-04
        42   1 -1.860409E+05  1.669773E+01  1.037088E+03 -2.552749E+01  8.687359E+02 -3.573177E-05
        42   2 -1.860631E+05 -7.174892E+00  5.735221E+02 -1.988480E+01  5.849113E+02 -1.873976E-05
        42   3 -1.860410E+05 -1.990484E+00  3.020448E+02 -1.424211E+01  3.010869E+02 -6.908771E-06
        42   4 -1.860409E+05  1.669773E+01  1.037088E+03  6.292054E-09  8.687359E+02 -3.890167E-10
        42   5 -1.860631E+05 -7.174892E+00  5.735221E+02  1.060068E-09  5.849113E+02 -2.361733E-10
        42   6 -1.860410E+05 -1.990485E+00  3.020448E+02  1.655867E-08  3.010869E+02  2.668474E-10
        42   7 -1.860409E+05  1.669773E+01  1.037088E+03  2.552749E+01  8.687359E+02  3.573103E-05
        42   8 -1.860631E+05 -7.174892E+00  5.735221E+02  1.988480E+01  5.849113E+02  1.873928E-05
        42   9 -1.860410E+05 -1.990484E+00  3.020448E+02  1.424211E+01  3.010869E+02  6.909364E-06
        42  10 -1.860409E+05  1.669753E+01  1.037087E+03 -2.552749E+01 -1.483864E-09 -9.435230E-10
        42  11 -1.860631E+05 -7.174984E+00  5.735215E+02 -1.988480E+01 -9.970083E-10  3.338963E-10
        42  12 -1.860410E+05 -1.990509E+00  3.020446E+02 -1.424211E+01  2.715275E-09 -5.846418E-11
        42  13 -1.860409E+05  1.669753E+01  1.037087E+03  4.325975E-09 -1.018020E-09 -5.940972E-10
        42  14 -1.860631E+05 -7.174984E+00  5.735215E+02  4.334388E-09 -5.741938E-10  2.360599E-10
        42  15 -1.860410E+05 -1.990509E+00  3.020446E+02  5.419169E-09 -2.965576E-10  2.639665E-11
        42  16 -1.860409E+05  1.669753E+01  1.037087E+03  2.552749E+01  8.949517E-10 -2.538451E-10
        42  17 -1.860631E+05 -7.174984E+00  5.735215E+02  1.988480E+01  7.950720E-10  1.383997E-10
        42  18 -1.860410E+05 -1.990509E+00  3.020446E+02  1.424211E+01 -1.190371E-09  1.150684E-10
        42  19 -1.860409E+05  1.669773E+01  1.037088E+03 -2.552749E+01 -8.687359E+02  3.572988E-05
        42  20 -1.860631E+05 -7.174892E+00  5.735221E+02 -1.988480E+01 -5.849113E+02  1.874047E-05
        42  21 -1.860410E+05 -1.990484E+00  3.020448E+02 -1.424211E+01 -3.010869E+02  6.908696E-06
        42  22 -1.860409E+05  1.669773E+01  1.037088E+03  6.667862E-09 -8.687359E+02 -7.978165E-10
        42  23 -1.860631E+05 -7.174892E+00  5.735221E+02  5.454133E-09 -5.849113E+02  7.012998E-10
        42  24 -1.860410E+05 -1.990485E+00  3.020448E+02  1.204946E-08 -3.010869E+02 -2.129880E-10
        42  25 -1.860409E+05  1.669773E+01  1.037088E+03  2.552749E+01 -8.687359E+02 -3.573154E-05
        42  26 -1.860631E+05 -7.174892E+00  5.735221E+02  1.988480E+01 -5.849113E+02 -1.873908E-05
        42  27 -1.860410E+05 -1.990484E+00  3.020448E+02  1.424211E+01 -3.010869E+02 -6.909150E-06
        43   1 -1.860502E+05 -3.382685E-01  2.061623E+02 -1.043118E+01  2.550836E+02 -4.287133E-06
        43   2 -1.860516E+05 -4.189355E-01  5.484142E+01 -8.459680E+00  2.280501E+02 -3.108974E-06
        43   3 -1.860502E+05 -2.873289E+00 -7.947028E+01 -6.488211E+00  2.010170E+02 -2.102334E-06
        43   4 -1.860502E+05 -3.382688E-01  2.061623E+02  1.381291E-08  2.550836E+02  2.908308E-10
        43   5 -1.860516E+05 -4.189356E-01  5.484142E+01  2.162300E-10  2.280501E+02 -2.784415E-10
        43   6 -1.860502E+05 -2.873289E+00 -7.947028E+01  1.696716E-09  2.010170E+02 -8.006374E-10
        43   7 -1.860502E+05 -3.382686E-01  2.061623E+02  1.043118E+01  2.550836E+02  4.287700E-06
        43   8 -1.860516E+05 -4.189355E-01  5.484142E+01  8.459680E+00  2.280501E+02  3.108353E-06
        43   9 -1.860502E+05 -2.873288E+00 -7.947028E+01  6.488211E+00  2.010170E+02  2.100785E-06
        43  10 -1.860502E+05 -3.382860E-01  2.061622E+02 -1.043118E+01 -6.103181E-10 -4.848474E-10
        43  11 -1.860516E+05 -4.189494E-01  5.484133E+01 -8.459680E+00 -3.389910E-10 -3.817766E-10
        43  12 -1.860502E+05 -2.873299E+00 -7.947036E+01 -6.488211E+00 -2.291896E-09 -1.355776E-10
        43  13 -1.860502E+05 -3.382863E-01  2.061622E+02  1.598050E-08 -2.076025E-09 -1.950917E-10
        43  14 -1.860516E+05 -4.189496E-01  5.484133E+01  8.846494E-09  6.056928E-10 -7.276200E-11
        43  15 -1.860502E+05 -2.873299E+00 -7.947036E+01  3.329408E-09  3.794963E-11  4.338833E-11
        43  16 -1.860502E+05 -3.382861E-01  2.061622E+02  1.043118E+01 -4.718335E-10  9.178848E-11
        43  17 -1.860516E+05 -4.189495E-01  5.484133E+01  8.459680E+00 -1.513001E-09  2.437451E-10
        43  18 -1.860502E+05 -2.873299E+00 -7.947036E+01  6.488211E+00 -1.446696E-09  2.441587E-10
        43  19 -1.860502E+05 -3.382686E-01  2.061623E+02 -1.043118E+01 -2.550836E+02  4.286210E-06
        43  20 -1.860516E+05 -4.189355E-01  5.484142E+01 -8.459680E+00 -2.280501E+02  3.108216E-06
        43  21 -1.860502E+05 -2.873289E+00 -7.947028E+01 -6.488211E+00 -2.010170E+02  2.102114E-06
        43  22 -1.860502E+05 -3.382688E-01  2.061623E+02  1.384354E-08 -2.550836E+02 -6.783914E-10
        43  23 -1.860516E+05 -4.189356E-01  5.484142E+01 -4.058876E-09 -2.280501E+02  1.354469E-10
        43  24 -1.860502E+05 -2.873289E+00 -7.947028E+01  3.885205E-09 -2.010170E+02  8.875992E-10
        43  25 -1.860502E+05 -3.382686E-01  2.061623E+02  1.043118E+01 -2.550836E+02 -4.287553E-06
        43  26 -1.860516E+05 -4.189355E-01  5.484142E+01  8.459680E+00 -2.280501E+02 -3.107972E-06
        43  27 -1.860502E+05 -2.873289E+00 -7.947028E+01  6.488211E+00 -2.010170E+02 -2.100333E-06
        44   1 -1.860591E+05  2.999640E+00 -1.518103E+02 -1.605222E+01  2.217018E+02 -5.734330E-06
        44   2 -1.860405E+05  6.545872E+00 -3.386230E+02 -6.987878E+00  3.901951E+02 -4.392335E-06
        44   3 -1.860592E+05 -5.166259E+01 -6.505935E+02  2.076601E+00  5.586910E+02  1.869617E-06
        44   4 -1.860591E+05  2.999639E+00 -1.518103E+02 -5.722528E-09  2.217018E+02 -4.149537E-10
        44   5 -1.860405E+05  6.545872E+00 -3.386230E+02 -2.002653E-09  3.901951E+02  4.790014E-10
        44   6 -1.860592E+05 -5.166259E+01 -6.505935E+02 -1.782551E-09  5.586910E+02  3.777667E-11
        44   7 -1.860591E+05  2.999640E+00 -1.518103E+02  1.605222E+01  2.217018E+02  5.733492E-06
        44   8 -1.860405E+05  6.545872E+00 -3.386230E+02  6.987878E+00  3.901951E+02  4.393283E-06
        44   9 -1.860592E+05 -5.166259E+01 -6.505935E+02 -2.076601E+00  5.586910E+02 -1.869505E-06
        44  10 -1.860591E+05  2.999627E+00 -1.518104E+02 -1.605222E+01 -1.680917E-10  2.194197E-10
        44  11 -1.860405E+05  6.545831E+00 -3.386232E+02 -6.987878E+00 -1.402633E-09  6.906508E-10
        44  12 -1.860592E+05 -5.166267E+01 -6.505941E+02  2.076601E+00 -2.963386E-09  4.824185E-10
        44  13 -1.860591E+05  2.999626E+00 -1.518104E+02  2.935472E-09 -1.146210E-09  1.727301E-10
        44  14 -1.860405E+05  6.545831E+00 -3.386232E+02  1.092441E-08 -3.869947E-09  3.333388E-10
        44  15 -1.860592E+05 -5.166267E+01 -6.505941E+02 -1.008662E-09 -1.598547E-09  2.408521E-10
        44  16 -1.860591E+05  2.999627E+00 -1.518104E+02  1.605222E+01  2.510571E-10  1.279917E-10
        44  17 -1.860405E+05  6.545831E+00 -3.386232E+02  6.987878E+00  2.091664E-10 -1.737834E-11
        44  18 -1.860592E+05 -5.166267E+01 -6.505941E+02 -2.076601E+00  9.915648E-10 -8.040493E-12
        44  19 -1.860591E+05  2.999640E+00 -1.518103E+02 -1.605222E+01 -2.217018E+02  5.734777E-06
        44  20 -1.860405E+05  6.545872E+00 -3.386230E+02 -6.987878E+00 -3.901951E+02  4.393763E-06
        44  21 -1.860592E+05 -5.166259E+01 -6.505935E+02  2.076601E+00 -5.586910E+02 -1.868592E-06
        44  22 -1.860591E+05  2.999639E+00 -1.518103E+02  8.226959E-10 -2.217018E+02  7.725017E-10
        44  23 -1.860405E+05  6.545872E+00 -3.386230E+02  6.621565E-09 -3.901951E+02  2.010187E-10
        44  24 -1.860592E+05 -5.166259E+01 -6.505935E+02  1.322837E-08 -5.586910E+02  4.387425E-10
        44  25 -1.860591E+05  2.999640E+00 -1.518103E+02  1.605222E+01 -2.217018E+02 -5.733234E-06
        44  26 -1.860405E+05  6.545872E+00 -3.386230E+02  6.987878E+00 -3.901951E+02 -4.393337E-06
        44  27 -1.860592E+05 -5.166259E+01 -6.505935E+02 -2.076601E+00 -5.586910E+02  1.869433E-06
        45   1 -1.861192E+05  4.381481E+01 -8.553821E+02 -1.327952E+02  6.910310E+02 -1.478531E-04
        45   2 -1.859655E+05  5.810264E+01 -1.488994E+03  6.444907E+01  1.443595E+03  1.499034E-04
        45   3 -1.861193E+05 -7.654223E+02 -2.822118E+03  2.616934E+02  2.196159E+03  9.259905E-04
        45   4 -1.861192E+05  4.381478E+01 -8.553821E+02 -1.301599E-08  6.910310E+02 -2.918207E-10
        45   5 -1.859655E+05  5.810263E+01 -1.488994E+03 -1.342181E-08  1.443595E+03  9.008705E-11
        45   6 -1.861193E+05 -7.654225E+02 -2.822118E+03  1.336487E-08  2.196159E+03  7.650173E-10
        45   7 -1.861192E+05  4.381481E+01 -8.553821E+02  1.327952E+02  6.910310E+02  1.478525E-04
        45   8 -1.859655E+05  5.810264E+01 -1.488994E+03 -6.444907E+01  1.443595E+03 -1.499032E-04
        45   9 -1.861193E+05 -7.654223E+02 -2.822118E+03 -2.616934E+02  2.196159E+03 -9.259889E-04
        45  10 -1.861192E+05  4.381468E+01 -8.553830E+02 -1.327952E+02 -1.461602E-09 -1.768138E-10
        45  11 -1.859655E+05  5.810208E+01 -1.488998E+03  6.444907E+01 -2.965606E-09 -8.271144E-10
        45  12 -1.861193E+05 -7.654236E+02 -2.822127E+03  2.616934E+02 -1.534553E-10 -4.508602E-11
        45  13 -1.861192E+05  4.381465E+01 -8.553830E+02 -4.541228E-09 -1.078996E-09 -1.780227E-10
        45  14 -1.859655E+05  5.810207E+01 -1.488998E+03  2.738303E-09 -3.355374E-11 -6.559679E-10
        45  15 -1.861193E+05 -7.654238E+02 -2.822127E+03  3.016974E-09  8.349369E-10 -7.667585E-11
        45  16 -1.861192E+05  4.381468E+01 -8.553830E+02  1.327952E+02  1.395546E-09 -1.733478E-10
        45  17 -1.859655E+05  5.810208E+01 -1.488998E+03 -6.444907E+01  5.415468E-10 -4.602694E-10
        45  18 -1.861193E+05 -7.654236E+02 -2.822127E+03 -2.616934E+02  1.700447E-09 -9.891921E-11
        45  19 -1.861192E+05  4.381481E+01 -8.553821E+02 -1.327952E+02 -6.910310E+02  1.478528E-04
        45  20 -1.859655E+05  5.810264E+01 -1.488994E+03  6.444907E+01 -1.443595E+03 -1.499051E-04
        45  21 -1.861193E+05 -7.654223E+02 -2.822118E+03  2.616934E+02 -2.196159E+03 -9.259906E-04
        45  22 -1.861192E+05  4.381478E+01 -8.553821E+02  1.779881E-09 -6.910310E+02 -6.814392E-11
        45  23 -1.859655E+05  5.810263E+01 -1.488994E+03  5.975823E-09 -1.443595E+03 -1.400589E-09
        45  24 -1.861193E+05 -7.654225E+02 -2.822118E+03  1.124787E-08 -2.196159E+03 -9.137622E-10
        45  25 -1.861192E+05  4.381481E+01 -8.553821E+02  1.327952E+02 -6.910310E+02 -1.478529E-04
        45  26 -1.859655E+05  5.810264E+01 -1.488994E+03 -6.444907E+01 -1.443595E+03  1.499023E-04
        45  27 -1.861193E+05 -7.654223E+02 -2.822118E+03 -2.616934E+02 -2.196159E+03  9.259887E-04
        46   1 -1.867720E+05  5.812414E+02 -3.513539E+03 -1.572204E+03  2.712096E+03 -6.870112E-03
        46   2 -1.851497E+05  6.457729E+02 -5.847040E+03  1.444083E+03  5.833307E+03  1.357238E-02
        46   3 -1.867730E+05 -1.064506E+04 -1.305186E+04  4.460315E+03  8.954474E+03  6.435097E-02
        46   4 -1.867720E+05  5.812367E+02 -3.513539E+03  4.996527E-09  2.712096E+03  8.429304E-10
        46   5 -1.851497E+05  6.457690E+02 -5.847041E+03  1.206297E-08  5.833307E+03  3.650855E-10
        46   6 -1.867730E+05 -1.064510E+04 -1.305187E+04  4.862059E-09  8.954474E+03  4.629883E-11
        46   7 -1.867720E+05  5.812414E+02 -3.513539E+03  1.572204E+03  2.712096E+03  6.870114E-03
        46   8 -1.851497E+05  6.457729E+02 -5.847040E+03 -1.444083E+03  5.833307E+03 -1.357238E-02
        46   9 -1.867730E+05 -1.064506E+04 -1.305186E+04 -4.460315E+03  8.954474E+03 -6.435097E-02
        46  10 -1.867720E+05  5.812394E+02 -3.513552E+03 -1.572204E+03  3.971283E-10  6.254730E-10
        46  11 -1.851498E+05  6.457638E+02 -5.847104E+03  1.444083E+03  9.052478E-10  8.303953E-10
        46  12 -1.867731E+05 -1.064508E+04 -1.305201E+04  4.460315E+03  3.704663E-11  2.840594E-10
        46  13 -1.867720E+05  5.812348E+02 -3.513553E+03 -1.432772E-09 -3.097589E-09  3.753400E-10
        46  14 -1.851498E+05  6.457599E+02 -5.847105E+03  7.739737E-09  2.151674E-09  4.329200E-10
        46  15 -1.867731E+05 -1.064512E+04 -1.305202E+04  1.045132E-08  2.180828E-09  1.486783E-10
        46  16 -1.867720E+05  5.812394E+02 -3.513552E+03  1.572204E+03 -3.701682E-10  1.023768E-10
        46  17 -1.851498E+05  6.457638E+02 -5.847104E+03 -1.444083E+03 -8.553421E-10  3.366002E-11
        46  18 -1.867731E+05 -1.064508E+04 -1.305201E+04 -4.460315E+03 -2.549256E-10  9.299586E-12
        46  19 -1.867720E+05  5.812414E+02 -3.513539E+03 -1.572204E+03 -2.712096E+03  6.870114E-03
        46  20 -1.851497E+05  6.457729E+02 -5.847040E+03  1.444083E+03 -5.833307E+03 -1.357238E-02
        46  21 -1.867730E+05 -1.064506E+04 -1.305186E+04  4.460315E+03 -8.954474E+03 -6.435097E-02
        46  22 -1.867720E+05  5.812367E+02 -3.513539E+03  2.907802E-09 -2.712096E+03 -9.600975E-11
        46  23 -1.851497E+05  6.457690E+02 -5.847041E+03 -8.906893E-10 -5.833307E+03  5.008561E-10
        46  24 -1.867730E+05 -1.064510E+04 -1.305187E+04  1.577727E-10 -8.954474E+03  2.489531E-10
        46  25 -1.867720E+05  5.812414E+02 -3.513539E+03  1.572204E+03 -2.712096E+03 -6.870114E-03
        46  26 -1.851497E+05  6.457729E+02 -5.847040E+03 -1.444083E+03 -5.833307E+03  1.357238E-02
        46  27 -1.867730E+05 -1.064506E+04 -1.305186E+04 -4.460315E+03 -8.954474E+03  6.435097E-02
        47   1  2.015705E+05  2.425950E+05  2.003057E+05 -7.342120E+04  8.942641E+03  2.726784E+04
        47   2  1.599760E+05  1.195398E+05  1.560084E+05 -4.088728E+04  2.659677E+04  9.146399E+03
        47   3  1.308466E+05  2.139890E+03  1.266585E+05 -6.846508E+04  2.396797E+04 -8.976418E+03
        47   4  8.884373E+03 -5.315177E+05  1.108781E+04 -6.949942E+04  8.947784E+03  6.580645E+03
        47   5 -6.188925E+02 -5.330111E+05  5.722816E+03 -3.944341E+04  2.660123E+04  3.560127E+03
        47   6 -2.706913E+02 -5.314780E+05  4.824713E+03 -6.950235E+04  2.396241E+04  5.348172E+02
        47   7 -1.838457E+05 -1.305083E+06 -1.781722E+05 -6.558248E+04  8.952670E+03 -1.408082E+04
        47   8 -1.612436E+05 -1.185168E+06 -1.445909E+05 -3.800100E+04  2.660567E+04 -2.020321E+03
        47   9 -1.314077E+05 -1.064832E+06 -1.170274E+05 -7.053866E+04  2.395681E+04  1.003795E+04
        47  10  2.015702E+05  2.425942E+05  2.003042E+05 -7.342139E+04 -1.715892E-09 -3.460275E-10
        47  11  1.599753E+05  1.195396E+05  1.560069E+05 -4.088748E+04 -5.092256E-10 -2.050649E-10
        47  12  1.308459E+05  2.139650E+03  1.266573E+05 -6.846491E+04  3.853236E-10  2.852088E-10
        47  13  8.884276E+03 -5.315178E+05  1.108758E+04 -6.949946E+04  9.762863E-10  6.269013E-11
        47  14 -6.196556E+02 -5.330113E+05  5.721463E+03 -3.944348E+04 -8.376256E-10 -4.070014E-10
        47  15 -2.713078E+02 -5.314781E+05  4.823634E+03 -6.950236E+04 -3.087947E-10  1.243453E-10
        47  16 -1.838459E+05 -1.305083E+06 -1.781728E+05 -6.558238E+04  3.088724E-09  3.563038E-10
        47  17 -1.612444E+05 -1.185168E+06 -1.445922E+05 -3.800096E+04  1.636988E-09 -5.035422E-11
        47  18 -1.314083E+05 -1.064832E+06 -1.170286E+05 -7.053885E+04 -1.371017E-10 -5.704152E-10
        47  19  2.015705E+05  2.425950E+05  2.003057E+05 -7.342120E+04 -8.942641E+03 -2.726784E+04
        47  20  1.599760E+05  1.195398E+05  1.560084E+05 -4.088728E+04 -2.659677E+04 -9.146399E+03
        47  21  1.308466E+05  2.139890E+03  1.266585E+05 -6.846508E+04 -2.396797E+04  8.976418E+03
        47  22  8.884373E+03 -5.315177E+05  1.108781E+04 -6.949942E+04 -8.947784E+03 -6.580645E+03
        47  23 -6.188925E+02 -5.330111E+05  5.722816E+03 -3.944341E+04 -2.660123E+04 -3.560127E+03
        47  24 -2.706913E+02 -5.314780E+05  4.824713E+03 -6.950235E+04 -2.396241E+04 -5.348172E+02
        47  25 -1.838457E+05 -1.305083E+06 -1.781722E+05 -6.558248E+04 -8.952670E+03  1.408082E+04
        47  26 -1.612436E+05 -1.185168E+06 -1.445909E+05 -3.800100E+04 -2.660567E+04  2.020321E+03
        47  27 -1.314077E+05 -1.064832E+06 -1.170274E+05 -7.053866E+04 -2.395681E+04 -1.003795E+04
        48   1  1.040570E+05 -1.110890E+05  1.013455E+05 -7.060517E+04  1.809840E+04 -3.655497E+03
        48   2  7.361678E+04 -2.322829E+05  7.437731E+04 -3.922528E+04  1.322246E+04 -7.074289E+03
        48   3  4.661568E+04 -3.522407E+05  5.047566E+04 -6.896871E+04  7.636939E+03 -1.049560E+04
        48   4  5.767798E+02 -5.318728E+05  4.878688E+03 -6.972616E+04  1.809639E+04 -2.901151E+02
        48   5 -1.701314E+02 -5.324280E+05  5.711551E+03 -3.916274E+04  1.321921E+04 -3.180054E+03
        48   6  2.431973E+03 -5.318524E+05  9.245009E+03 -6.972432E+04  7.632252E+03 -6.073155E+03
        48   7 -1.029158E+05 -9.524925E+05 -9.159975E+04 -6.884770E+04  1.809438E+04  3.073004E+03
        48   8 -7.396330E+04 -8.324896E+05 -6.296006E+04 -3.910021E+04  1.321595E+04  7.123138E+02
        48   9 -4.175398E+04 -7.114341E+05 -3.198770E+04 -7.047969E+04  7.627553E+03 -1.651983E+03
        48  10  1.040566E+05 -1.110891E+05  1.013449E+05 -7.060512E+04  7.626062E-10 -1.851579E-10
        48  11  7.361658E+04 -2.322830E+05  7.437689E+04 -3.922520E+04  1.054034E-09 -5.787136E-10
        48  12  4.661559E+04 -3.522409E+05  5.047534E+04 -6.896865E+04 -3.667144E-10 -1.760780E-10
        48  13  5.764282E+02 -5.318729E+05  4.878073E+03 -6.972615E+04 -8.340393E-10  4.185408E-10
        48  14 -1.703217E+02 -5.324281E+05  5.711204E+03 -3.916271E+04  1.568708E-09 -8.725215E-10
        48  15  2.431900E+03 -5.318524E+05  9.244830E+03 -6.972428E+04 -1.242433E-09  2.531781E-10
        48  16 -1.029161E+05 -9.524926E+05 -9.160038E+04 -6.884775E+04  1.562992E-10  2.230913E-10
        48  17 -7.396349E+04 -8.324897E+05 -6.296039E+04 -3.910022E+04 -8.427041E-10  3.907246E-11
        48  18 -4.175404E+04 -7.114341E+05 -3.198781E+04 -7.047968E+04 -1.972940E-09 -3.395653E-10
        48  19  1.040570E+05 -1.110890E+05  1.013455E+05 -7.060517E+04 -1.809840E+04  3.655497E+03
        48  20  7.361678E+04 -2.322829E+05  7.437731E+04 -3.922528E+04 -1.322246E+04  7.074289E+03
        48  21  4.661568E+04 -3.522407E+05  5.047566E+04 -6.896871E+04 -7.636939E+03  1.049560E+04
        48  22  5.767798E+02 -5.318728E+05  4.878688E+03 -6.972616E+04 -1.809639E+04  2.901151E+02
        48  23 -1.701314E+02 -5.324280E+05  5.711551E+03 -3.916274E+04 -1.321921E+04  3.180054E+03
        48  24  2.431973E+03 -5.318524E+05  9.245009E+03 -6.972432E+04 -7.632252E+03  6.073155E+03
        48  25 -1.029158E+05 -9.524925E+05 -9.159975E+04 -6.884770E+04 -1.809438E+04 -3.073004E+03
        48  26 -7.396330E+04 -8.324896E+05 -6.296006E+04 -3.910021E+04 -1.321595E+04 -7.123138E+02
        48  27 -4.175398E+04 -7.114341E+05 -3.198770E+04 -7.047969E+04 -7.627553E+03  1.651983E+03
        49   1  1.479782E+04 -4.632269E+05  2.624020E+04 -7.453216E+04  3.349791E+03 -1.360877E+04
        49   2 -1.515099E+04 -5.884727E+05  5.394180E+03 -3.475666E+04 -1.721562E+03 -1.902778E+04
        49   3 -1.118491E+04 -7.046616E+05 -3.475886E+03 -5.599062E+04 -1.182933E+03 -2.444011E+04
        49   4 -1.577198E+03 -5.299291E+05  1.116800E+04 -6.970919E+04  3.343104E+03 -7.748186E+03
        49   5 -1.883316E+03 -5.348077E+05  1.797711E+04 -3.918796E+04 -1.723243E+03 -1.733960E+04
        49   6  3.244810E+04 -5.299234E+05  3.965955E+04 -6.967398E+04 -1.179685E+03 -2.692534E+04
        49   7 -1.795241E+04 -5.966269E+05 -3.904353E+03 -6.488673E+04  3.336508E+03 -1.888228E+03
        49   8  1.138423E+04 -4.811401E+05  3.055986E+04 -4.361964E+04 -1.724947E+03 -1.565128E+04
        49   9  7.607953E+04 -3.551569E+05  8.279285E+04 -8.336118E+04 -1.176327E+03 -2.941126E+04
        49  10  1.479775E+04 -4.632271E+05  2.623983E+04 -7.453213E+04  6.354224E-10  1.952865E-09
        49  11 -1.515109E+04 -5.884731E+05  5.393493E+03 -3.475669E+04  1.530218E-09 -9.875521E-11
        49  12 -1.118508E+04 -7.046623E+05 -3.477012E+03 -5.599065E+04  7.194264E-10 -1.513552E-09
        49  13 -1.577226E+03 -5.299291E+05  1.116786E+04 -6.970917E+04  2.234419E-09  5.913618E-10
        49  14 -1.883400E+03 -5.348081E+05  1.797654E+04 -3.918798E+04  3.160638E-09 -1.083608E-09
        49  15  3.244790E+04 -5.299242E+05  3.965818E+04 -6.967400E+04  1.150276E-09  2.119360E-10
        49  16 -1.795243E+04 -5.966269E+05 -3.904381E+03 -6.488673E+04 -3.793647E-12 -1.887335E-09
        49  17  1.138416E+04 -4.811403E+05  3.055940E+04 -4.361967E+04  1.222510E-09 -6.010367E-10
        49  18  7.607930E+04 -3.551578E+05  8.279122E+04 -8.336121E+04  6.162540E-10  9.598182E-10
        49  19  1.479782E+04 -4.632269E+05  2.624020E+04 -7.453216E+04 -3.349791E+03  1.360877E+04
        49  20 -1.515099E+04 -5.884727E+05  5.394180E+03 -3.475666E+04  1.721562E+03  1.902778E+04
        49  21 -1.118491E+04 -7.046616E+05 -3.475886E+03 -5.599062E+04  1.182933E+03  2.444011E+04
        49  22 -1.577198E+03 -5.299291E+05  1.116800E+04 -6.970919E+04 -3.343104E+03  7.748186E+03
        49  23 -1.883316E+03 -5.348077E+05  1.797711E+04 -3.918796E+04  1.723243E+03  1.733960E+04
        49  24  3.244810E+04 -5.299234E+05  3.965955E+04 -6.967398E+04  1.179685E+03  2.692534E+04
        49  25 -1.795241E+04 -5.966269E+05 -3.904353E+03 -6.488673E+04 -3.336508E+03  1.888228E+03
        49  26  1.138423E+04 -4.811401E+05  3.055986E+04 -4.361964E+04  1.724947E+03  1.565128E+04
        49  27  7.607953E+04 -3.551569E+05  8.279285E+04 -8.336118E+04  1.176327E+03  2.941126E+04
        50   1 -7.111966E+05 -1.543853E+05 -5.205210E+04 -2.665566E+05 -1.959151E+04 -5.991122E+03
        50   2 -6.969459E+05 -1.212253E+05 -3.172881E+04 -2.612548E+05 -1.255102E+04 -7.059904E+02
        50   3 -6.860726E+05 -1.155976E+05 -2.323146E+04 -2.571164E+05 -4.485868E+03  1.847003E+03
        50   4 -6.202489E+05 -1.124656E+05 -2.605019E+04 -2.339025E+05 -1.702833E+04 -5.030316E+03
        50   5 -6.173626E+05 -8.905084E+04 -1.110347E+04 -2.370077E+05 -1.188848E+04 -4.576823E+02
        50   6 -6.174757E+05 -9.279005E+04 -6.474624E+03 -2.412769E+05 -5.724147E+03  1.382790E+03
        50   7 -5.292942E+05 -7.054456E+04 -4.936798E+01 -2.012440E+05 -1.446478E+04 -4.069287E+03
        50   8 -5.377734E+05 -5.687577E+04  9.521272E+03 -2.127578E+05 -1.122585E+04 -2.093336E+02
        50   9 -5.488738E+05 -6.998230E+04  1.028198E+04 -2.254358E+05 -6.962583E+03  9.185318E+02
        50  10 -7.111970E+05 -1.543855E+05 -5.205289E+04 -2.665567E+05  8.913783E-10  2.360137E-10
        50  11 -6.969461E+05 -1.212253E+05 -3.172911E+04 -2.612548E+05  5.546211E-10  6.499962E-10
        50  12 -6.860726E+05 -1.155976E+05 -2.323150E+04 -2.571164E+05  2.423680E-09 -4.193791E-10
        50  13 -6.202492E+05 -1.124657E+05 -2.605078E+04 -2.339026E+05 -1.136194E-09  7.345079E-11
        50  14 -6.173628E+05 -8.905087E+04 -1.110374E+04 -2.370077E+05  3.897427E-10  4.224350E-10
        50  15 -6.174757E+05 -9.279006E+04 -6.474689E+03 -2.412769E+05  5.991958E-10 -2.445906E-10
        50  16 -5.292944E+05 -7.054463E+04 -4.979269E+01 -2.012441E+05  2.233966E-09 -4.211216E-11
        50  17 -5.377736E+05 -5.687580E+04  9.521035E+03 -2.127578E+05  2.905575E-09 -1.729953E-10
        50  18 -5.488739E+05 -6.998231E+04  1.028188E+04 -2.254357E+05  2.923624E-10  1.540408E-11
        50  19 -7.111966E+05 -1.543853E+05 -5.205210E+04 -2.665566E+05  1.959151E+04  5.991122E+03
        50  20 -6.969459E+05 -1.212253E+05 -3.172881E+04 -2.612548E+05  1.255102E+04  7.059904E+02
        50  21 -6.860726E+05 -1.155976E+05 -2.323146E+04 -2.571164E+05  4.485868E+03 -1.847003E+03
        50  22 -6.202489E+05 -1.124656E+05 -2.605019E+04 -2.339025E+05  1.702833E+04  5.030316E+03
        50  23 -6.173626E+05 -8.905084E+04 -1.110347E+04 -2.370077E+05  1.188848E+04  4.576823E+02
        50  24 -6.174757E+05 -9.279005E+04 -6.474624E+03 -2.412769E+05  5.724147E+03 -1.382790E+03
        50  25 -5.292942E+05 -7.054456E+04 -4.936798E+01 -2.012440E+05  1.446478E+04  4.069287E+03
        50  26 -5.377734E+05 -5.687577E+04  9.521272E+03 -2.127578E+05  1.122585E+04  2.093336E+02
        50  27 -5.488738E+05 -6.998230E+04  1.028198E+04 -2.254358E+05  6.962583E+03 -9.185318E+02
        51   1 -6.679903E+05 -1.148246E+05 -1.827583E+04 -2.544923E+05 -4.169697E+03  1.062876E+03
        51   2 -6.556500E+05 -1.043488E+05 -1.186174E+04 -2.471649E+05 -2.499063E+03  9.648530E+02
        51   3 -6.382301E+05 -1.015082E+05 -6.980960E+03 -2.462161E+05 -7.753740E+02  7.252369E+02
        51   4 -6.166151E+05 -9.512238E+04 -5.194228E+03 -2.399336E+05 -4.562612E+03  9.155667E+02
        51   5 -6.190562E+05 -9.054830E+04 -2.604257E+03 -2.370313E+05 -2.990404E+03  7.806676E+02
        51   6 -6.163985E+05 -9.358976E+04 -1.469432E+03 -2.405076E+05 -1.365194E+03  5.041640E+02
        51   7 -5.652372E+05 -7.541992E+04  7.887189E+03 -2.253738E+05 -4.955564E+03  7.682432E+02
        51   8 -5.824614E+05 -7.674785E+04  6.653048E+03 -2.268973E+05 -3.481774E+03  5.964714E+02
        51   9 -5.945668E+05 -8.567146E+04  4.041965E+03 -2.347990E+05 -1.955027E+03  2.830866E+02
        51  10 -6.679903E+05 -1.148246E+05 -1.827586E+04 -2.544923E+05  1.384306E-09 -7.294493E-10
        51  11 -6.556500E+05 -1.043488E+05 -1.186175E+04 -2.471649E+05 -2.084895E-09  3.305731E-10
        51  12 -6.382301E+05 -1.015082E+05 -6.980962E+03 -2.462161E+05 -2.632418E-09  1.073879E-09
        51  13 -6.166151E+05 -9.512238E+04 -5.194269E+03 -2.399336E+05 -8.113902E-10 -8.310127E-12
        51  14 -6.190562E+05 -9.054831E+04 -2.604275E+03 -2.370313E+05  9.686310E-10  2.890178E-10
        51  15 -6.163985E+05 -9.358976E+04 -1.469436E+03 -2.405076E+05  7.577016E-10  8.862892E-10
        51  16 -5.652372E+05 -7.541992E+04  7.887142E+03 -2.253738E+05 -2.280240E-09  2.275846E-10
        51  17 -5.824614E+05 -7.674786E+04  6.653025E+03 -2.268973E+05 -5.788293E-10  5.791574E-10
        51  18 -5.945668E+05 -8.567146E+04  4.041958E+03 -2.347990E+05  1.023049E-09  7.175936E-10
        51  19 -6.679903E+05 -1.148246E+05 -1.827583E+04 -2.544923E+05  4.169697E+03 -1.062876E+03
        51  20 -6.556500E+05 -1.043488E+05 -1.186174E+04 -2.471649E+05  2.499063E+03 -9.648530E+02
        51  21 -6.382301E+05 -1.015082E+05 -6.980960E+03 -2.462161E+05  7.753740E+02 -7.252369E+02
        51  22 -6.166151E+05 -9.512238E+04 -5.194228E+03 -2.399336E+05  4.562612E+03 -9.155667E+02
        51  23 -6.190562E+05 -9.054830E+04 -2.604257E+03 -2.370313E+05  2.990404E+03 -7.806676E+02
        51  24 -6.163985E+05 -9.358976E+04 -1.469432E+03 -2.405076E+05  1.365194E+03 -5.041640E+02
        51  25 -5.652372E+05 -7.541992E+04  7.887189E+03 -2.253738E+05  4.955564E+03 -7.682432E+02
        51  26 -5.824614E+05 -7.674785E+04  6.653048E+03 -2.268973E+05  3.481774E+03 -5.964714E+02
        51  27 -5.945668E+05 -8.567146E+04  4.041965E+03 -2.347990E+05  1.955027E+03 -2.830866E+02
        52   1 -6.230965E+05 -9.631040E+04 -2.796709E+03 -2.422738E+05 -4.299303E+02  3.062958E+02
        52   2 -6.109483E+05 -8.758923E+04  1.464005E+03 -2.347742E+05  1.822621E+02 -3.637526E+02
        52   3 -5.929713E+05 -8.492811E+04  5.452510E+03 -2.340408E+05  7.969368E+02 -1.040309E+03
        52   4 -6.163097E+05 -9.376665E+04 -1.132934E+03 -2.403979E+05 -9.766226E+02  1.013926E+02
        52   5 -6.192163E+05 -9.067996E+04 -6.210395E+02 -2.370360E+05 -3.689726E+02 -5.703687E+02
        52   6 -6.162934E+05 -9.365256E+04 -3.777721E+02 -2.404405E+05  2.411503E+02 -1.248640E+03
        52   7 -6.095228E+05 -9.122287E+04  5.308629E+02 -2.385219E+05 -1.523329E+03 -1.035158E+02
        52   8 -6.274843E+05 -9.377072E+04 -2.706114E+03 -2.392978E+05 -9.202053E+02 -7.769840E+02
        52   9 -6.396152E+05 -1.023771E+05 -6.208156E+03 -2.468401E+05 -3.146185E+02 -1.456964E+03
        52  10 -6.230965E+05 -9.631040E+04 -2.796710E+03 -2.422738E+05 -1.291457E-10  7.947735E-10
        52  11 -6.109483E+05 -8.758923E+04  1.464005E+03 -2.347742E+05 -1.218854E-09 -9.545572E-10
        52  12 -5.929713E+05 -8.492811E+04  5.452507E+03 -2.340408E+05 -8.793198E-10 -2.441010E-10
        52  13 -6.163097E+05 -9.376665E+04 -1.132936E+03 -2.403979E+05  5.984811E-11  7.305567E-10
        52  14 -6.192163E+05 -9.067996E+04 -6.210404E+02 -2.370360E+05 -1.505958E-09 -7.508698E-10
        52  15 -6.162934E+05 -9.365257E+04 -3.777752E+02 -2.404405E+05 -3.224861E-09 -3.161169E-10
        52  16 -6.095228E+05 -9.122287E+04  5.308585E+02 -2.385219E+05 -3.638400E-10 -1.633840E-10
        52  17 -6.274843E+05 -9.377072E+04 -2.706117E+03 -2.392978E+05 -2.418804E-10 -9.925249E-10
        52  18 -6.396152E+05 -1.023771E+05 -6.208160E+03 -2.468401E+05 -1.236451E-09  1.895984E-10
        52  19 -6.230965E+05 -9.631040E+04 -2.796709E+03 -2.422738E+05  4.299303E+02 -3.062958E+02
        52  20 -6.109483E+05 -8.758923E+04  1.464005E+03 -2.347742E+05 -1.822621E+02  3.637526E+02
        52  21 -5.929713E+05 -8.492811E+04  5.452510E+03 -2.340408E+05 -7.969368E+02  1.040309E+03
        52  22 -6.163097E+05 -9.376665E+04 -1.132934E+03 -2.403979E+05  9.766226E+02 -1.013926E+02
        52  23 -6.192163E+05 -9.067996E+04 -6.210395E+02 -2.370360E+05  3.689726E+02  5.703687E+02
        52  24 -6.162934E+05 -9.365256E+04 -3.777721E+02 -2.404405E+05 -2.411503E+02  1.248640E+03
        52  25 -6.095228E+05 -9.122287E+04  5.308629E+02 -2.385219E+05  1.523329E+03  1.035158E+02
        52  26 -6.274843E+05 -9.377072E+04 -2.706114E+03 -2.392978E+05  9.202053E+02  7.769840E+02
        52  27 -6.396152E+05 -1.023771E+05 -6.208156E+03 -2.468401E+05  3.146185E+02  1.456964E+03
        53   1 -5.781423E+05 -7.940120E+04  9.360956E+03 -2.300054E+05  1.024975E+03 -1.483917E+03
        53   2 -5.660645E+05 -7.084224E+04  1.315302E+04 -2.225174E+05  1.447549E+03 -2.231016E+03
        53   3 -5.481069E+05 -6.819933E+04  1.684860E+04 -2.217948E+05  1.869710E+03 -2.976809E+03
        53   4 -6.162883E+05 -9.365979E+04 -3.130062E+02 -2.404259E+05  4.718986E+02 -1.691241E+03
        53   5 -6.192278E+05 -9.069953E+04 -2.523027E+02 -2.370440E+05  8.953535E+02 -2.438033E+03
        53   6 -6.162879E+05 -9.365538E+04 -2.887402E+02 -2.404277E+05  1.318396E+03 -3.183523E+03
        53   7 -6.544323E+05 -1.079181E+05 -9.986920E+03 -2.508456E+05 -8.113209E+01 -1.898548E+03
        53   8 -6.723881E+05 -1.105566E+05 -1.365778E+04 -2.515695E+05  3.432126E+02 -2.645029E+03
        53   9 -6.844648E+05 -1.191113E+05 -1.742657E+04 -2.590588E+05  7.671442E+02 -3.390214E+03
        53  10 -5.781423E+05 -7.940120E+04  9.360950E+03 -2.300054E+05  1.223763E-09  2.824716E-10
        53  11 -5.660645E+05 -7.084224E+04  1.315300E+04 -2.225174E+05 -2.515165E-10 -9.947928E-10
        53  12 -5.481069E+05 -6.819934E+04  1.684857E+04 -2.217948E+05 -2.410291E-09 -1.284398E-09
        53  13 -6.162883E+05 -9.365980E+04 -3.130119E+02 -2.404259E+05 -8.930944E-10  2.444933E-10
        53  14 -6.192278E+05 -9.069954E+04 -2.523154E+02 -2.370440E+05 -1.872753E-09 -8.092891E-10
        53  15 -6.162879E+05 -9.365539E+04 -2.887625E+02 -2.404276E+05 -3.205666E-09 -8.187074E-10
        53  16 -6.544323E+05 -1.079181E+05 -9.986927E+03 -2.508456E+05 -1.416093E-09 -3.645140E-10
        53  17 -6.723881E+05 -1.105566E+05 -1.365779E+04 -2.515695E+05 -1.783200E-09 -8.593552E-10
        53  18 -6.844648E+05 -1.191113E+05 -1.742659E+04 -2.590588E+05 -3.323773E-09 -6.416115E-10
        53  19 -5.781423E+05 -7.940120E+04  9.360956E+03 -2.300054E+05 -1.024975E+03  1.483917E+03
        53  20 -5.660645E+05 -7.084224E+04  1.315302E+04 -2.225174E+05 -1.447549E+03  2.231016E+03
        53  21 -5.481069E+05 -6.819933E+04  1.684860E+04 -2.217948E+05 -1.869710E+03  2.976809E+03
        53  22 -6.162883E+05 -9.365979E+04 -3.130062E+02 -2.404259E+05 -4.718986E+02  1.691241E+03
        53  23 -6.192278E+05 -9.069953E+04 -2.523027E+02 -2.370440E+05 -8.953535E+02  2.438033E+03
        53  24 -6.162879E+05 -9.365538E+04 -2.887402E+02 -2.404277E+05 -1.318396E+03  3.183523E+03
        53  25 -6.544323E+05 -1.079181E+05 -9.986920E+03 -2.508456E+05  8.113209E+01  1.898548E+03
        53  26 -6.723881E+05 -1.105566E+05 -1.365778E+04 -2.515695E+05 -3.432126E+02  2.645029E+03
        53  27 -6.844648E+05 -1.191113E+05 -1.742657E+04 -2.590588E+05 -7.671442E+02  3.390214E+03
        54   1 -5.333922E+05 -6.267129E+04  2.061893E+04 -2.177725E+05  2.093126E+03 -3.418193E+03
        54   2 -5.214173E+05 -5.419086E+04  2.410800E+04 -2.103438E+05  2.659699E+03 -4.104363E+03
        54   3 -5.036412E+05 -5.160270E+04  2.738543E+04 -2.096169E+05  3.224894E+03 -4.786468E+03
        54   4 -6.163049E+05 -9.364210E+04 -3.412874E+02 -2.404169E+05  1.543283E+03 -3.624382E+03
        54   5 -6.192080E+05 -9.071169E+04 -5.487449E+02 -2.370601E+05  2.112622E+03 -4.309565E+03
        54   6 -6.163104E+05 -9.367417E+04 -9.700220E+02 -2.404053E+05  2.680576E+03 -4.990683E+03
        54   7 -6.992109E+05 -1.246125E+05 -2.130205E+04 -2.630585E+05  9.935202E+02 -3.830541E+03
        54   8 -7.169891E+05 -1.272318E+05 -2.520620E+04 -2.637725E+05  1.565642E+03 -4.514730E+03
        54   9 -7.289668E+05 -1.357446E+05 -2.932636E+04 -2.711885E+05  2.136369E+03 -5.194856E+03
        54  10 -5.333922E+05 -6.267130E+04  2.061890E+04 -2.177725E+05 -2.509570E-09 -7.684048E-10
        54  11 -5.214173E+05 -5.419088E+04  2.410796E+04 -2.103438E+05 -2.772419E-09 -4.033741E-10
        54  12 -5.036412E+05 -5.160273E+04  2.738537E+04 -2.096169E+05 -2.405310E-09  6.271002E-10
        54  13 -6.163049E+05 -9.364212E+04 -3.413165E+02 -2.404169E+05 -3.986022E-09 -9.407022E-10
        54  14 -6.192080E+05 -9.071171E+04 -5.487882E+02 -2.370601E+05 -9.186268E-11 -4.919348E-10
        54  15 -6.163104E+05 -9.367419E+04 -9.700823E+02 -2.404053E+05 -2.202965E-09  6.554975E-10
        54  16 -6.992109E+05 -1.246125E+05 -2.130208E+04 -2.630584E+05 -3.427091E-09 -7.826956E-10
        54  17 -7.169891E+05 -1.272318E+05 -2.520624E+04 -2.637725E+05 -1.284695E-09 -8.295883E-10
        54  18 -7.289668E+05 -1.357447E+05 -2.932641E+04 -2.711885E+05  2.941750E-10  9.333389E-10
        54  19 -5.333922E+05 -6.267129E+04  2.061893E+04 -2.177725E+05 -2.093126E+03  3.418193E+03
        54  20 -5.214173E+05 -5.419086E+04  2.410800E+04 -2.103438E+05 -2.659699E+03  4.104363E+03
        54  21 -5.036412E+05 -5.160270E+04  2.738543E+04 -2.096169E+05 -3.224894E+03  4.786468E+03
        54  22 -6.163049E+05 -9.364210E+04 -3.412874E+02 -2.404169E+05 -1.543283E+03  3.624382E+03
        54  23 -6.192080E+05 -9.071169E+04 -5.487449E+02 -2.370601E+05 -2.112622E+03  4.309565E+03
        54  24 -6.163104E+05 -9.367417E+04 -9.700220E+02 -2.404053E+05 -2.680576E+03  4.990683E+03
        54  25 -6.992109E+05 -1.246125E+05 -2.130205E+04 -2.630585E+05 -9.935202E+02  3.830541E+03
        54  26 -7.169891E+05 -1.272318E+05 -2.520620E+04 -2.637725E+05 -1.565642E+03  4.514730E+03
        54  27 -7.289668E+05 -1.357446E+05 -2.932636E+04 -2.711885E+05 -2.136369E+03  5.194856E+03
        55   1 -4.890874E+05 -4.613604E+04  3.085831E+04 -2.057232E+05  3.583819E+03 -5.173111E+03
        55   2 -4.772355E+05 -3.767887E+04  3.348976E+04 -1.982975E+05  5.009218E+03 -5.522435E+03
        55   3 -4.599473E+05 -3.550988E+04  3.514150E+04 -1.973854E+05  6.426571E+03 -5.849585E+03
        55   4 -6.163713E+05 -9.361001E+04 -1.275644E+03 -2.404211E+05  3.036539E+03 -5.378477E+03
        55   5 -6.191198E+05 -9.068617E+04 -2.288018E+03 -2.370812E+05  4.477068E+03 -5.722199E+03
        55   6 -6.164356E+05 -9.405390E+04 -4.292323E+03 -2.402554E+05  5.909518E+03 -6.043754E+03
        55   7 -7.436399E+05 -1.410832E+05 -3.341104E+04 -2.751127E+05  2.489378E+03 -5.583797E+03
        55   8 -7.609848E+05 -1.436923E+05 -3.806748E+04 -2.758570E+05  3.945049E+03 -5.921913E+03
        55   9 -7.728999E+05 -1.525963E+05 -4.372810E+04 -2.831156E+05  5.392608E+03 -6.237870E+03
        55  10 -4.890874E+05 -4.613607E+04  3.085824E+04 -2.057232E+05  1.633130E-09  1.491762E-09
        55  11 -4.772355E+05 -3.767891E+04  3.348965E+04 -1.982975E+05 -3.167166E-09 -2.470883E-09
        55  12 -4.599474E+05 -3.550993E+04  3.514136E+04 -1.973854E+05 -6.114673E-09 -2.744354E-09
        55  13 -6.163713E+05 -9.361005E+04 -1.275716E+03 -2.404211E+05 -2.062530E-09  6.523064E-10
        55  14 -6.191199E+05 -9.068621E+04 -2.288117E+03 -2.370812E+05 -7.721942E-10 -9.896529E-10
        55  15 -6.164356E+05 -9.405395E+04 -4.292457E+03 -2.402553E+05  1.755163E-09 -3.521872E-10
        55  16 -7.436400E+05 -1.410832E+05 -3.341111E+04 -2.751127E+05 -2.291434E-09 -2.580110E-10
        55  17 -7.609849E+05 -1.436923E+05 -3.806758E+04 -2.758570E+05  3.884023E-09  5.487783E-10
        55  18 -7.729000E+05 -1.525964E+05 -4.372823E+04 -2.831155E+05  7.397384E-09  1.738403E-09
        55  19 -4.890874E+05 -4.613604E+04  3.085831E+04 -2.057232E+05 -3.583819E+03  5.173111E+03
        55  20 -4.772355E+05 -3.767887E+04  3.348976E+04 -1.982975E+05 -5.009218E+03  5.522435E+03
        55  21 -4.599473E+05 -3.550988E+04  3.514150E+04 -1.973854E+05 -6.426571E+03  5.849585E+03
        55  22 -6.163713E+05 -9.361001E+04 -1.275644E+03 -2.404211E+05 -3.036539E+03  5.378477E+03
        55  23 -6.191198E+05 -9.068617E+04 -2.288018E+03 -2.370812E+05 -4.477068E+03  5.722199E+03
        55  24 -6.164356E+05 -9.405390E+04 -4.292323E+03 -2.402554E+05 -5.909518E+03  6.043754E+03
        55  25 -7.436399E+05 -1.410832E+05 -3.341104E+04 -2.751127E+05 -2.489378E+03  5.583797E+03
        55  26 -7.609848E+05 -1.436923E+05 -3.806748E+04 -2.758570E+05 -3.945049E+03  5.921913E+03
        55  27 -7.728999E+05 -1.525963E+05 -4.372810E+04 -2.831156E+05 -5.392608E+03  6.237870E+03
        56   1 -4.452691E+05 -3.018252E+04  3.753189E+04 -1.947149E+05  7.501784E+03 -6.002208E+03
        56   2 -4.336677E+05 -2.060555E+04  3.675096E+04 -1.859991E+05  1.263845E+04 -4.890714E+03
        56   3 -4.194593E+05 -2.317094E+04  3.059067E+04 -1.822287E+05  1.764687E+04 -3.436626E+03
        56   4 -6.167930E+05 -9.336075E+04 -5.595585E+03 -2.406595E+05  6.883679E+03 -6.234343E+03
        56   5 -6.184886E+05 -9.020293E+04 -9.965834E+03 -2.370850E+05  1.225730E+04 -5.034023E+03
        56   6 -6.176254E+05 -9.923575E+04 -1.990455E+04 -2.384559E+05  1.750254E+04 -3.491123E+03
        56   7 -7.882875E+05 -1.565370E+05 -4.872521E+04 -2.865925E+05  6.265763E+03 -6.466410E+03
        56   8 -8.032761E+05 -1.597979E+05 -5.668536E+04 -2.881571E+05  1.187626E+04 -5.177285E+03
        56   9 -8.157538E+05 -1.752978E+05 -7.040318E+04 -2.946668E+05  1.735826E+04 -3.545600E+03
        56  10 -4.452691E+05 -3.018257E+04  3.753172E+04 -1.947148E+05  6.628112E-09  2.766158E-09
        56  11 -4.336678E+05 -2.060562E+04  3.675062E+04 -1.859991E+05  3.576139E-09  1.035901E-09
        56  12 -4.194596E+05 -2.317103E+04  3.059006E+04 -1.822286E+05 -1.288485E-09 -7.457311E-10
        56  13 -6.167930E+05 -9.336081E+04 -5.595748E+03 -2.406595E+05 -9.735707E-10 -4.649363E-11
        56  14 -6.184888E+05 -9.020300E+04 -9.966164E+03 -2.370850E+05 -2.324403E-09  6.845696E-10
        56  15 -6.176257E+05 -9.923585E+04 -1.990515E+04 -2.384558E+05  8.334626E-10 -3.484304E-10
        56  16 -7.882875E+05 -1.565371E+05 -4.872536E+04 -2.865925E+05 -3.422458E-09 -2.797475E-09
        56  17 -8.032763E+05 -1.597980E+05 -5.668568E+04 -2.881571E+05 -3.427146E-09 -9.571377E-10
        56  18 -8.157542E+05 -1.752979E+05 -7.040377E+04 -2.946668E+05  2.612223E-09 -8.275136E-11
        56  19 -4.452691E+05 -3.018252E+04  3.753189E+04 -1.947149E+05 -7.501784E+03  6.002208E+03
        56  20 -4.336677E+05 -2.060555E+04  3.675096E+04 -1.859991E+05 -1.263845E+04  4.890714E+03
        56  21 -4.194593E+05 -2.317094E+04  3.059067E+04 -1.822287E+05 -1.764687E+04  3.436626E+03
        56  22 -6.167930E+05 -9.336075E+04 -5.595585E+03 -2.406595E+05 -6.883679E+03  6.234343E+03
        56  23 -6.184886E+05 -9.020293E+04 -9.965834E+03 -2.370850E+05 -1.225730E+04  5.034023E+03
        56  24 -6.176254E+05 -9.923575E+04 -1.990455E+04 -2.384559E+05 -1.750254E+04  3.491123E+03
        56  25 -7.882875E+05 -1.565370E+05 -4.872521E+04 -2.865925E+05 -6.265763E+03  6.466410E+03
        56  26 -8.032761E+05 -1.597979E+05 -5.668536E+04 -2.881571E+05 -1.187626E+04  5.177285E+03
        56  27 -8.157538E+05 -1.752978E+05 -7.040318E+04 -2.946668E+05 -1.735826E+04  3.545600E+03
        57   1 -3.993889E+05 -1.831940E+04  2.892699E+04 -1.941433E+05  2.344564E+04 -2.658667E+03
        57   2 -3.915059E+05  7.410506E+03  1.502626E+04 -1.669896E+05  4.186939E+04  4.450368E+03
        57   3 -4.111249E+05 -5.312169E+04 -3.481207E+04 -1.248876E+05  5.783312E+04  1.810775E+04
        57   4 -6.208961E+05 -9.032429E+04 -2.481714E+04 -2.436407E+05  2.127674E+04 -3.473052E+03
        57   5 -6.120228E+05 -8.442938E+04 -4.256795E+04 -2.369589E+05  4.425156E+04  5.344235E+03
        57   6 -6.315662E+05 -1.657184E+05 -9.987457E+04 -2.153258E+05  6.476564E+04  2.070941E+04
        57   7 -8.423552E+05 -1.623287E+05 -7.856478E+04 -2.931234E+05  1.910868E+04 -4.287214E+03
        57   8 -8.324913E+05 -1.762626E+05 -1.001661E+05 -3.069043E+05  4.663280E+04  6.237660E+03
        57   9 -8.519571E+05 -2.782983E+05 -1.649412E+05 -3.057305E+05  7.169543E+04  2.330921E+04
        57  10 -3.993895E+05 -1.831955E+04  2.892594E+04 -1.941433E+05 -5.577160E-10 -3.328084E-10
        57  11 -3.915078E+05  7.410014E+03  1.502292E+04 -1.669897E+05  5.362176E-10  1.416212E-11
        57  12 -4.111286E+05 -5.312294E+04 -3.481898E+04 -1.248885E+05 -1.011840E-09 -2.417948E-10
        57  13 -6.208966E+05 -9.032442E+04 -2.481801E+04 -2.436407E+05 -1.812165E-09 -7.307466E-10
        57  14 -6.120249E+05 -8.442993E+04 -4.257168E+04 -2.369591E+05 -2.181142E-09 -1.870386E-10
        57  15 -6.315708E+05 -1.657200E+05 -9.988327E+04 -2.153269E+05  1.674671E-09  2.177701E-10
        57  16 -8.423556E+05 -1.623288E+05 -7.856550E+04 -2.931233E+05  2.904158E-09 -2.872393E-10
        57  17 -8.324937E+05 -1.762632E+05 -1.001703E+05 -3.069046E+05  1.724915E-10 -1.386374E-10
        57  18 -8.519627E+05 -2.783002E+05 -1.649519E+05 -3.057319E+05  6.645192E-10 -2.476967E-10
        57  19 -3.993889E+05 -1.831940E+04  2.892699E+04 -1.941433E+05 -2.344564E+04  2.658667E+03
        57  20 -3.915059E+05  7.410506E+03  1.502626E+04 -1.669896E+05 -4.186939E+04 -4.450368E+03
        57  21 -4.111249E+05 -5.312169E+04 -3.481207E+04 -1.248876E+05 -5.783312E+04 -1.810775E+04
        57  22 -6.208961E+05 -9.032429E+04 -2.481714E+04 -2.436407E+05 -2.127674E+04  3.473052E+03
        57  23 -6.120228E+05 -8.442938E+04 -4.256795E+04 -2.369589E+05 -4.425156E+04 -5.344235E+03
        57  24 -6.315662E+05 -1.657184E+05 -9.987457E+04 -2.153258E+05 -6.476564E+04 -2.070941E+04
        57  25 -8.423552E+05 -1.623287E+05 -7.856478E+04 -2.931234E+05 -1.910868E+04  4.287214E+03
        57  26 -8.324913E+05 -1.762626E+05 -1.001661E+05 -3.069043E+05 -4.663280E+04 -6.237660E+03
        57  27 -8.519571E+05 -2.782983E+05 -1.649412E+05 -3.057305E+05 -7.169543E+04 -2.330921E+04
        58   1  8.084445E+03  2.219338E+04  2.721180E+04  9.300830E+03  1.867257E+04  2.797350E-01
        58   2  4.701507E+03 -1.345816E+03  1.219020E+04  3.011250E+03  1.216531E+04  5.900545E-02
        58   3  8.084351E+03 -1.211720E+03  7.323639E+03 -3.278383E+03  5.657942E+03 -2.987706E-02
        58   4  8.084352E+03  2.219321E+04  2.721178E+04  1.165383E-08  1.867257E+04 -4.000827E-10
        58   5  4.701498E+03 -1.345833E+03  1.219020E+04  7.108110E-09  1.216531E+04 -5.346051E-10
        58   6  8.084340E+03 -1.211741E+03  7.323636E+03  7.678330E-09  5.657942E+03  8.861063E-10
        58   7  8.084445E+03  2.219338E+04  2.721180E+04 -9.300830E+03  1.867257E+04 -2.797350E-01
        58   8  4.701507E+03 -1.345816E+03  1.219020E+04 -3.011250E+03  1.216531E+04 -5.900545E-02
        58   9  8.084351E+03 -1.211720E+03  7.323639E+03  3.278383E+03  5.657942E+03  2.987706E-02
        58  10  8.084070E+03  2.219328E+04  2.721114E+04  9.300830E+03  1.142567E-09 -5.455211E-11
        58  11  4.701348E+03 -1.345856E+03  1.218992E+04  3.011250E+03 -6.724971E-10  6.499205E-11
        58  12  8.084317E+03 -1.211729E+03  7.323579E+03 -3.278383E+03  6.375438E-11  6.137719E-10
        58  13  8.083977E+03  2.219312E+04  2.721112E+04  5.179305E-09  9.152728E-13 -3.946571E-11
        58  14  4.701339E+03 -1.345873E+03  1.218992E+04 -4.043800E-10 -1.076072E-09  9.093477E-12
        58  15  8.084305E+03 -1.211749E+03  7.323576E+03  9.090145E-09 -1.616507E-09  3.389115E-10
        58  16  8.084070E+03  2.219328E+04  2.721114E+04 -9.300830E+03  4.728523E-10 -3.530173E-11
        58  17  4.701348E+03 -1.345856E+03  1.218992E+04 -3.011250E+03  4.055387E-10 -5.180912E-11
        58  18  8.084317E+03 -1.211729E+03  7.323579E+03  3.278383E+03  1.364075E-10  6.305220E-11
        58  19  8.084445E+03  2.219338E+04  2.721180E+04  9.300830E+03 -1.867257E+04 -2.797350E-01
        58  20  4.701507E+03 -1.345816E+03  1.219020E+04  3.011250E+03 -1.216531E+04 -5.900545E-02
        58  21  8.084351E+03 -1.211720E+03  7.323639E+03 -3.278383E+03 -5.657942E+03  2.987706E-02
        58  22  8.084352E+03  2.219321E+04  2.721178E+04  7.319861E-09 -1.867257E+04  3.192226E-10
        58  23  4.701498E+03 -1.345833E+03  1.219020E+04  1.775716E-09 -1.216531E+04  5.506215E-10
        58  24  8.084340E+03 -1.211741E+03  7.323636E+03  5.655189E-09 -5.657942E+03 -2.097698E-10
        58  25  8.084445E+03  2.219338E+04  2.721180E+04 -9.300830E+03 -1.867257E+04  2.797350E-01
        58  26  4.701507E+03 -1.345816E+03  1.219020E+04 -3.011250E+03 -1.216531E+04  5.900545E-02
        58  27  8.084351E+03 -1.211720E+03  7.323639E+03  3.278383E+03 -5.657942E+03 -2.987706E-02
        59   1  6.723187E+03  1.595631E+03  5.881181E+03  5.455261E+02  4.582466E+03  4.026573E-03
        59   2  6.402887E+03 -1.210382E+02  3.099285E+03  1.341425E+02  3.015884E+03  6.516305E-04
        59   3  6.723188E+03 -9.124484E+01  1.773923E+03 -2.772415E+02  1.449306E+03 -6.472009E-04
        59   4  6.723186E+03  1.595631E+03  5.881181E+03 -2.341806E-09  4.582466E+03  1.045452E-09
        59   5  6.402887E+03 -1.210382E+02  3.099285E+03 -4.941692E-09  3.015884E+03 -1.709519E-10
        59   6  6.723188E+03 -9.124499E+01  1.773923E+03  7.805333E-09  1.449306E+03 -4.138530E-10
        59   7  6.723187E+03  1.595631E+03  5.881181E+03 -5.455261E+02  4.582466E+03 -4.026570E-03
        59   8  6.402887E+03 -1.210382E+02  3.099285E+03 -1.341425E+02  3.015884E+03 -6.516309E-04
        59   9  6.723188E+03 -9.124484E+01  1.773923E+03  2.772415E+02  1.449306E+03  6.472000E-04
        59  10  6.723164E+03  1.595626E+03  5.881141E+03  5.455261E+02 -2.612483E-11  4.709938E-10
        59  11  6.402878E+03 -1.210406E+02  3.099268E+03  1.341425E+02  3.041135E-10 -2.313029E-10
        59  12  6.723186E+03 -9.124541E+01  1.773919E+03 -2.772415E+02 -3.476484E-09  3.779430E-11
        59  13  6.723164E+03  1.595625E+03  5.881141E+03 -2.441351E-09  2.098745E-12  2.505481E-10
        59  14  6.402878E+03 -1.210406E+02  3.099268E+03 -6.402005E-10 -5.353417E-10 -1.302457E-10
        59  15  6.723186E+03 -9.124555E+01  1.773919E+03  1.031518E-08 -9.436663E-10  1.591253E-10
        59  16  6.723164E+03  1.595626E+03  5.881141E+03 -5.455261E+02  2.389245E-11  2.970139E-11
        59  17  6.402878E+03 -1.210406E+02  3.099268E+03 -1.341425E+02  1.583618E-09 -3.070419E-11
        59  18  6.723186E+03 -9.124541E+01  1.773919E+03  2.772415E+02 -7.641183E-10  2.803146E-10
        59  19  6.723187E+03  1.595631E+03  5.881181E+03  5.455261E+02 -4.582466E+03 -4.026572E-03
        59  20  6.402887E+03 -1.210382E+02  3.099285E+03  1.341425E+02 -3.015884E+03 -6.516311E-04
        59  21  6.723188E+03 -9.124484E+01  1.773923E+03 -2.772415E+02 -1.449306E+03  6.472009E-04
        59  22  6.723186E+03  1.595631E+03  5.881181E+03 -2.540839E-09 -4.582466E+03 -5.448783E-10
        59  23  6.402887E+03 -1.210382E+02  3.099285E+03  5.815283E-09 -3.015884E+03 -9.014058E-11
        59  24  6.723188E+03 -9.124499E+01  1.773923E+03  1.659456E-08 -1.449306E+03  7.320911E-10
        59  25  6.723187E+03  1.595631E+03  5.881181E+03 -5.455261E+02 -4.582466E+03  4.026571E-03
        59  26  6.402887E+03 -1.210382E+02  3.099285E+03 -1.341425E+02 -3.015884E+03  6.516309E-04
        59  27  6.723188E+03 -9.124484E+01  1.773923E+03  2.772415E+02 -1.449306E+03 -6.471994E-04
        60   1  6.597822E+03  1.077144E+02  1.343745E+03  3.953235E+00  1.175353E+03  7.483516E-06
        60   2  6.559595E+03 -1.341550E+01  6.836177E+02 -1.544860E+01  8.350878E+02 -2.078073E-05
        60   3  6.597823E+03 -5.934224E+00  2.771627E+02 -3.485016E+01  4.948275E+02 -2.777713E-05
        60   4  6.597822E+03  1.077144E+02  1.343745E+03  1.595436E-08  1.175353E+03 -4.703752E-10
        60   5  6.559595E+03 -1.341550E+01  6.836177E+02  7.641981E-09  8.350878E+02 -7.341165E-10
        60   6  6.597823E+03 -5.934227E+00  2.771627E+02  1.036863E-08  4.948275E+02 -4.869388E-10
        60   7  6.597822E+03  1.077144E+02  1.343745E+03 -3.953235E+00  1.175353E+03 -7.484451E-06
        60   8  6.559595E+03 -1.341550E+01  6.836177E+02  1.544860E+01  8.350878E+02  2.077927E-05
        60   9  6.597823E+03 -5.934224E+00  2.771627E+02  3.485016E+01  4.948275E+02  2.777616E-05
        60  10  6.597820E+03  1.077140E+02  1.343742E+03  3.953235E+00  4.709758E-11 -1.993277E-11
        60  11  6.559594E+03 -1.341569E+01  6.836164E+02 -1.544860E+01  5.945511E-10 -5.189631E-10
        60  12  6.597823E+03 -5.934290E+00  2.771623E+02 -3.485016E+01 -1.475970E-09 -9.574587E-11
        60  13  6.597820E+03  1.077140E+02  1.343742E+03  1.153276E-08 -2.502984E-12  1.002586E-10
        60  14  6.559594E+03 -1.341569E+01  6.836164E+02  4.399375E-09 -5.385217E-10 -3.508987E-10
        60  15  6.597823E+03 -5.934292E+00  2.771623E+02  8.035776E-09  8.030886E-10 -6.744587E-11
        60  16  6.597820E+03  1.077140E+02  1.343742E+03 -3.953235E+00 -1.665892E-09  2.204200E-10
        60  17  6.559594E+03 -1.341569E+01  6.836164E+02  1.544860E+01 -1.679063E-09 -1.824796E-10
        60  18  6.597823E+03 -5.934290E+00  2.771623E+02  3.485016E+01  6.675249E-10 -3.926262E-11
        60  19  6.597822E+03  1.077144E+02  1.343745E+03  3.953235E+00 -1.175353E+03 -7.483545E-06
        60  20  6.559595E+03 -1.341550E+01  6.836177E+02 -1.544860E+01 -8.350878E+02  2.077970E-05
        60  21  6.597823E+03 -5.934224E+00  2.771627E+02 -3.485016E+01 -4.948275E+02  2.777695E-05
        60  22  6.597822E+03  1.077144E+02  1.343745E+03  1.572683E-08 -1.175353E+03  6.708617E-10
        60  23  6.559595E+03 -1.341550E+01  6.836177E+02 -9.971350E-10 -8.350878E+02  3.248309E-11
        60  24  6.597823E+03 -5.934227E+00  2.771627E+02  1.054961E-08 -4.948275E+02  3.521326E-10
        60  25  6.597822E+03  1.077144E+02  1.343745E+03 -3.953235E+00 -1.175353E+03  7.484924E-06
        60  26  6.559595E+03 -1.341550E+01  6.836177E+02  1.544860E+01 -8.350878E+02 -2.077965E-05
        60  27  6.597823E+03 -5.934224E+00  2.771627E+02  3.485016E+01 -4.948275E+02 -2.777623E-05
        61   1  6.578104E+03  6.149919E+00  1.136648E+02 -1.509576E+01  4.599836E+02 -1.118459E-05
        61   2  6.584246E+03  1.842496E+00 -2.050843E+02 -2.099737E+01  5.611938E+02 -1.897983E-05
        61   3  6.578106E+03  1.117035E+00 -5.888267E+02 -2.689906E+01  6.624054E+02 -2.870005E-05
        61   4  6.578104E+03  6.149919E+00  1.136648E+02  2.428002E-09  4.599836E+02 -1.598570E-10
        61   5  6.584246E+03  1.842495E+00 -2.050843E+02 -6.925181E-09  5.611938E+02  9.596995E-11
        61   6  6.578106E+03  1.117033E+00 -5.888267E+02 -4.970040E-09  6.624054E+02 -1.054678E-10
        61   7  6.578104E+03  6.149919E+00  1.136648E+02  1.509576E+01  4.599836E+02  1.118426E-05
        61   8  6.584246E+03  1.842496E+00 -2.050843E+02  2.099737E+01  5.611938E+02  1.898002E-05
        61   9  6.578106E+03  1.117035E+00 -5.888267E+02  2.689906E+01  6.624054E+02  2.869985E-05
        61  10  6.578104E+03  6.149862E+00  1.136644E+02 -1.509576E+01 -1.633267E-09  2.689703E-10
        61  11  6.584245E+03  1.842412E+00 -2.050849E+02 -2.099737E+01 -7.207416E-10  2.861097E-10
        61  12  6.578105E+03  1.116917E+00 -5.888276E+02 -2.689906E+01 -2.431719E-09 -3.128659E-11
        61  13  6.578104E+03  6.149862E+00  1.136644E+02  4.585391E-09 -1.076320E-09  1.665863E-10
        61  14  6.584245E+03  1.842411E+00 -2.050849E+02  1.136628E-08  5.372913E-10  1.172018E-10
        61  15  6.578105E+03  1.116916E+00 -5.888276E+02 -7.161857E-09 -2.285816E-09 -8.112791E-11
        61  16  6.578104E+03  6.149862E+00  1.136644E+02  1.509576E+01  1.886664E-11  6.475538E-11
        61  17  6.584245E+03  1.842412E+00 -2.050849E+02  2.099737E+01  1.256836E-09 -5.162965E-11
        61  18  6.578105E+03  1.116917E+00 -5.888276E+02  2.689906E+01  2.700511E-09 -1.307928E-10
        61  19  6.578104E+03  6.149919E+00  1.136648E+02 -1.509576E+01 -4.599836E+02  1.118513E-05
        61  20  6.584246E+03  1.842496E+00 -2.050843E+02 -2.099737E+01 -5.611938E+02  1.898041E-05
        61  21  6.578106E+03  1.117035E+00 -5.888267E+02 -2.689906E+01 -6.624054E+02  2.869998E-05
        61  22  6.578104E+03  6.149919E+00  1.136648E+02  1.105074E-08 -4.599836E+02  4.929582E-10
        61  23  6.584246E+03  1.842495E+00 -2.050843E+02  1.242605E-08 -5.611938E+02  1.383174E-10
        61  24  6.578106E+03  1.117033E+00 -5.888267E+02  7.608849E-09 -6.624054E+02 -5.673002E-11
        61  25  6.578104E+03  6.149919E+00  1.136648E+02  1.509576E+01 -4.599836E+02 -1.118414E-05
        61  26  6.584246E+03  1.842496E+00 -2.050843E+02  2.099737E+01 -5.611938E+02 -1.898013E-05
        61  27  6.578106E+03  1.117035E+00 -5.888267E+02  2.689906E+01 -6.624054E+02 -2.870009E-05
        62   1  6.554121E+03  5.432199E+00 -8.394580E+02 -3.760658E+01  7.917164E+02 -4.795742E-05
        62   2  6.614231E+03  1.949819E+01 -1.560837E+03 -5.311290E+01  1.564190E+03 -1.338168E-04
        62   3  6.554127E+03 -4.496696E+01 -2.804754E+03 -6.861923E+01  2.336662E+03 -2.582639E-04
        62   4  6.554121E+03  5.432196E+00 -8.394580E+02  2.986103E-08  7.917164E+02 -2.702178E-10
        62   5  6.614231E+03  1.949818E+01 -1.560837E+03 -6.991844E-09  1.564190E+03 -3.779315E-10
        62   6  6.554127E+03 -4.496697E+01 -2.804754E+03 -2.122827E-08  2.336662E+03 -5.600358E-10
        62   7  6.554121E+03  5.432199E+00 -8.394580E+02  3.760658E+01  7.917164E+02  4.795688E-05
        62   8  6.614231E+03  1.949819E+01 -1.560837E+03  5.311290E+01  1.564190E+03  1.338160E-04
        62   9  6.554127E+03 -4.496696E+01 -2.804754E+03  6.861923E+01  2.336662E+03  2.582627E-04
        62  10  6.554120E+03  5.432031E+00 -8.394592E+02 -3.760658E+01 -8.232584E-09 -2.907053E-10
        62  11  6.614228E+03  1.949753E+01 -1.560841E+03 -5.311290E+01 -1.642488E-09 -5.215445E-10
        62  12  6.554121E+03 -4.496842E+01 -2.804764E+03 -6.861923E+01  7.433671E-09 -5.619589E-10
        62  13  6.554120E+03  5.432028E+00 -8.394592E+02 -8.873802E-09 -1.070264E-09 -3.798907E-10
        62  14  6.614228E+03  1.949752E+01 -1.560841E+03 -5.246155E-10 -5.334843E-10 -6.776747E-10
        62  15  6.554121E+03 -4.496843E+01 -2.804764E+03  1.159397E-08 -2.152880E-09 -3.022380E-10
        62  16  6.554120E+03  5.432031E+00 -8.394592E+02  3.760658E+01  7.158042E-09 -4.690093E-10
        62  17  6.614228E+03  1.949753E+01 -1.560841E+03  5.311290E+01  1.913114E-09 -8.336195E-10
        62  18  6.554121E+03 -4.496842E+01 -2.804764E+03  6.861923E+01 -9.453510E-09 -4.364531E-11
        62  19  6.554121E+03  5.432199E+00 -8.394580E+02 -3.760658E+01 -7.917164E+02  4.795682E-05
        62  20  6.614231E+03  1.949819E+01 -1.560837E+03 -5.311290E+01 -1.564190E+03  1.338158E-04
        62  21  6.554127E+03 -4.496696E+01 -2.804754E+03 -6.861923E+01 -2.336662E+03  2.582627E-04
        62  22  6.554121E+03  5.432196E+00 -8.394580E+02 -3.253096E-08 -7.917164E+02 -4.897413E-10
        62  23  6.614231E+03  1.949818E+01 -1.560837E+03  1.634694E-09 -1.564190E+03 -9.780938E-10
        62  24  6.554127E+03 -4.496697E+01 -2.804754E+03  4.118530E-08 -2.336662E+03 -5.054704E-11
        62  25  6.554121E+03  5.432199E+00 -8.394580E+02  3.760658E+01 -7.917164E+02 -4.795784E-05
        62  26  6.614231E+03  1.949819E+01 -1.560837E+03  5.311290E+01 -1.564190E+03 -1.338177E-04
        62  27  6.554127E+03 -4.496696E+01 -2.804754E+03  6.861923E+01 -2.336662E+03 -2.582628E-04
        63   1  6.428869E+03  6.037368E+01 -3.700655E+03 -2.382768E+02  2.921732E+03 -1.121354E-03
        63   2  6.770831E+03  1.189084E+02 -6.448673E+03 -9.637969E+01  6.128536E+03 -9.513963E-04
        63   3  6.428922E+03 -8.878737E+02 -1.155071E+04  4.551575E+01  9.335278E+03  6.843994E-04
        63   4  6.428869E+03  6.037357E+01 -3.700655E+03  1.545925E-08  2.921732E+03  3.791062E-10
        63   5  6.770831E+03  1.189083E+02 -6.448673E+03 -9.679532E-09  6.128536E+03  2.074436E-09
        63   6  6.428922E+03 -8.878737E+02 -1.155071E+04 -1.432025E-09  9.335278E+03  9.941942E-10
        63   7  6.428869E+03  6.037368E+01 -3.700655E+03  2.382768E+02  2.921732E+03  1.121354E-03
        63   8  6.770831E+03  1.189084E+02 -6.448673E+03  9.637969E+01  6.128536E+03  9.514004E-04
        63   9  6.428922E+03 -8.878737E+02 -1.155071E+04 -4.551575E+01  9.335278E+03 -6.843974E-04
        63  10  6.428860E+03  6.037139E+01 -3.700671E+03 -2.382768E+02 -9.907328E-10  2.357424E-10
        63  11  6.770791E+03  1.188983E+02 -6.448743E+03 -9.637969E+01  1.114084E-11  1.363761E-09
        63  12  6.428828E+03 -8.878971E+02 -1.155088E+04  4.551575E+01  4.920303E-10  1.264595E-10
        63  13  6.428860E+03  6.037128E+01 -3.700671E+03 -1.579825E-09  1.074081E-09  3.952050E-10
        63  14  6.770791E+03  1.188983E+02 -6.448743E+03 -2.143986E-09 -1.618362E-09  1.076572E-09
        63  15  6.428828E+03 -8.878971E+02 -1.155088E+04  4.830664E-09  1.479115E-09  3.448754E-10
        63  16  6.428860E+03  6.037139E+01 -3.700671E+03  2.382768E+02  9.884918E-10  5.553905E-10
        63  17  6.770791E+03  1.188983E+02 -6.448743E+03  9.637969E+01 -8.274514E-10  7.834719E-10
        63  18  6.428828E+03 -8.878971E+02 -1.155088E+04 -4.551575E+01 -2.843083E-10  5.707189E-10
        63  19  6.428869E+03  6.037368E+01 -3.700655E+03 -2.382768E+02 -2.921732E+03  1.121354E-03
        63  20  6.770831E+03  1.189084E+02 -6.448673E+03 -9.637969E+01 -6.128536E+03  9.513992E-04
        63  21  6.428922E+03 -8.878737E+02 -1.155071E+04  4.551575E+01 -9.335278E+03 -6.843992E-04
        63  22  6.428869E+03  6.037357E+01 -3.700655E+03  7.665417E-10 -2.921732E+03  4.119844E-10
        63  23  6.770831E+03  1.189083E+02 -6.448673E+03  6.494094E-12 -6.128536E+03  7.155595E-11
        63  24  6.428922E+03 -8.878737E+02 -1.155071E+04  4.900549E-09 -9.335278E+03 -2.831530E-10
        63  25  6.428869E+03  6.037368E+01 -3.700655E+03  2.382768E+02 -2.921732E+03 -1.121353E-03
        63  26  6.770831E+03  1.189084E+02 -6.448673E+03  9.637969E+01 -6.128536E+03 -9.513991E-04
        63  27  6.428922E+03 -8.878737E+02 -1.155071E+04 -4.551575E+01 -9.335278E+03  6.843986E-04
        64   1  5.403410E+03  7.564282E+02 -1.498723E+04 -2.275298E+03  1.166967E+04 -4.276789E-02
        64   2  8.053069E+03  1.000838E+03 -2.577119E+04  1.114988E+03  2.469452E+04  4.434958E-02
        64   3  5.404101E+03 -1.316738E+04 -4.863685E+04  4.505345E+03  3.771938E+04  2.737236E-01
        64   4  5.403405E+03  7.564184E+02 -1.498724E+04 -6.189918E-09  1.166967E+04  1.912796E-10
        64   5  8.053067E+03  1.000836E+03 -2.577119E+04 -1.454552E-08  2.469452E+04  1.952544E-10
        64   6  5.404079E+03 -1.316741E+04 -4.863685E+04 -6.476855E-09  3.771938E+04 -7.393745E-11
        64   7  5.403410E+03  7.564282E+02 -1.498723E+04  2.275298E+03  1.166967E+04  4.276789E-02
        64   8  8.053069E+03  1.000838E+03 -2.577119E+04 -1.114988E+03  2.469452E+04 -4.434958E-02
        64   9  5.404101E+03 -1.316738E+04 -4.863685E+04 -4.505345E+03  3.771938E+04 -2.737236E-01
        64  10  5.403264E+03  7.563916E+02 -1.498749E+04 -2.275298E+03 -8.584511E-10 -3.611587E-10
        64  11  8.052414E+03  1.000674E+03 -2.577234E+04  1.114988E+03 -3.313015E-09  8.456256E-11
        64  12  5.402573E+03 -1.316776E+04 -4.863952E+04  4.505345E+03 -2.481481E-09 -5.722399E-10
        64  13  5.403259E+03  7.563819E+02 -1.498749E+04 -1.820650E-09 -2.158133E-09  2.250854E-11
        64  14  8.052412E+03  1.000672E+03 -2.577234E+04 -1.565744E-08 -1.615432E-09  1.122935E-10
        64  15  5.402551E+03 -1.316780E+04 -4.863952E+04 -9.031522E-09 -2.279837E-09 -4.896328E-10
        64  16  5.403264E+03  7.563916E+02 -1.498749E+04  2.275298E+03  3.149591E-10  4.018029E-10
        64  17  8.052414E+03  1.000674E+03 -2.577234E+04 -1.114988E+03  1.440621E-09  1.515232E-10
        64  18  5.402573E+03 -1.316776E+04 -4.863952E+04 -4.505345E+03  1.147553E-09 -4.230476E-10
        64  19  5.403410E+03  7.564282E+02 -1.498723E+04 -2.275298E+03 -1.166967E+04  4.276789E-02
        64  20  8.053069E+03  1.000838E+03 -2.577119E+04  1.114988E+03 -2.469452E+04 -4.434958E-02
        64  21  5.404101E+03 -1.316738E+04 -4.863685E+04  4.505345E+03 -3.771938E+04 -2.737236E-01
        64  22  5.403405E+03  7.564184E+02 -1.498724E+04 -1.759688E-09 -1.166967E+04 -1.495141E-10
        64  23  8.053067E+03  1.000836E+03 -2.577119E+04  5.846744E-09 -2.469452E+04  2.371598E-11
        64  24  5.404079E+03 -1.316741E+04 -4.863685E+04  1.022251E-08 -3.771938E+04 -8.968609E-10
        64  25  5.403410E+03  7.564282E+02 -1.498723E+04  2.275298E+03 -1.166967E+04 -4.276789E-02
        64  26  8.053069E+03  1.000838E+03 -2.577119E+04 -1.114988E+03 -2.469452E+04  4.434958E-02
        64  27  5.404101E+03 -1.316738E+04 -4.863685E+04 -4.505345E+03 -3.771938E+04  2.737236E-01
        65   1 -5.823494E+03  1.000215E+04 -6.050681E+04 -2.705021E+04  4.660915E+04 -2.030810E+00
        65   2  2.209356E+04  1.110738E+04 -1.006041E+05  2.485329E+04  1.003290E+05  4.016226E+00
        65   3 -5.811299E+03 -1.831237E+05 -2.244989E+05  7.675396E+04  1.540495E+05  1.904488E+01
        65   4 -5.824279E+03  1.000078E+04 -6.050700E+04  2.682076E-09  4.660915E+04 -4.113989E-10
        65   5  2.209290E+04  1.110622E+04 -1.006043E+05 -1.822759E-09  1.003290E+05 -6.686012E-10
        65   6 -5.817625E+03 -1.831348E+05 -2.245004E+05  1.252117E-08  1.540495E+05 -1.006623E-09
        65   7 -5.823494E+03  1.000215E+04 -6.050681E+04  2.705021E+04  4.660915E+04  2.030810E+00
        65   8  2.209356E+04  1.110738E+04 -1.006041E+05 -2.485329E+04  1.003290E+05 -4.016226E+00
        65   9 -5.811299E+03 -1.831237E+05 -2.244989E+05 -7.675396E+04  1.540495E+05 -1.904488E+01
        65  10 -5.825827E+03  1.000157E+04 -6.051089E+04 -2.705021E+04 -1.695435E-09 -6.496641E-10
        65  11  2.208275E+04  1.110468E+04 -1.006230E+05  2.485329E+04  5.685990E-10 -8.935342E-11
        65  12 -5.836786E+03 -1.831301E+05 -2.245434E+05  7.675395E+04  9.506253E-11  5.387587E-11
        65  13 -5.826612E+03  1.000019E+04 -6.051109E+04  7.001917E-09  9.957031E-10 -7.683727E-10
        65  14  2.208209E+04  1.110352E+04 -1.006232E+05 -9.318840E-09  5.817955E-10 -5.577132E-10
        65  15 -5.843113E+03 -1.831412E+05 -2.245450E+05  8.288361E-09  1.442324E-10 -1.545136E-10
        65  16 -5.825827E+03  1.000157E+04 -6.051089E+04  2.705021E+04  1.726845E-09 -8.501262E-10
        65  17  2.208275E+04  1.110468E+04 -1.006230E+05 -2.485329E+04 -5.509754E-10 -1.018849E-09
        65  18 -5.836786E+03 -1.831301E+05 -2.245434E+05 -7.675395E+04  4.360084E-10 -3.907745E-10
        65  19 -5.823494E+03  1.000215E+04 -6.050681E+04 -2.705021E+04 -4.660915E+04  2.030810E+00
        65  20  2.209356E+04  1.110738E+04 -1.006041E+05  2.485329E+04 -1.003290E+05 -4.016226E+00
        65  21 -5.811299E+03 -1.831237E+05 -2.244989E+05  7.675396E+04 -1.540495E+05 -1.904488E+01
        65  22 -5.824279E+03  1.000078E+04 -6.050700E+04  1.131738E-08 -4.660915E+04 -1.108479E-09
        65  23  2.209290E+04  1.110622E+04 -1.006043E+05 -6.046445E-09 -1.003290E+05 -4.262439E-10
        65  24 -5.817625E+03 -1.831348E+05 -2.245004E+05  1.294124E-08 -1.540495E+05  3.615411E-10
        65  25 -5.823494E+03  1.000215E+04 -6.050681E+04  2.705021E+04 -4.660915E+04 -2.030810E+00
        65  26  2.209356E+04  1.110738E+04 -1.006041E+05 -2.485329E+04 -1.003290E+05  4.016226E+00
        65  27 -5.811299E+03 -1.831237E+05 -2.244989E+05 -7.675396E+04 -1.540495E+05  1.904488E+01
        66   1  1.175487E+05  3.446435E+05  1.149445E+05 -3.549630E+04  5.664812E+03  1.082699E+04
        66   2  1.028750E+05  2.813141E+05  9.534686E+04 -2.048984E+04  1.708110E+04  1.988418E+03
        66   3  8.759873E+04  2.190606E+05  8.136683E+04 -3.679322E+04  1.602026E+04 -6.850965E+03
        66   4 -2.229084E+03 -1.367308E+05 -2.638085E+03 -3.635038E+04  5.666612E+03 -2.311368E+03
        66   5  9.837137E+01 -1.364543E+05 -8.108722E+02 -2.069458E+04  1.708295E+04 -1.862338E+03
        66   6  2.112095E+02 -1.367166E+05  1.862131E+02 -3.634987E+04  1.601841E+04 -1.414886E+03
        66   7 -1.220239E+05 -6.178936E+05 -1.202370E+05 -3.720379E+04  5.668448E+03 -1.543957E+04
        66   8 -1.026905E+05 -5.540612E+05 -9.698012E+04 -2.089917E+04  1.708481E+04 -5.710524E+03
        66   9 -8.718508E+04 -4.923764E+05 -8.100256E+04 -3.590677E+04  1.601657E+04  4.018107E+03
        66  10  1.175487E+05  3.446434E+05  1.149443E+05 -3.549635E+04 -1.036168E-09  1.970485E-09
        66  11  1.028747E+05  2.813140E+05  9.534630E+04 -2.048987E+04 -1.720917E-10 -2.734760E-09
        66  12  8.759844E+04  2.190605E+05  8.136626E+04 -3.679313E+04  1.842823E-09 -6.788863E-09
        66  13 -2.229120E+03 -1.367308E+05 -2.638156E+03 -3.635037E+04  1.100585E-09 -6.916505E-11
        66  14  9.805708E+01 -1.364544E+05 -8.114270E+02 -2.069455E+04  2.779415E-09 -2.522645E-10
        66  15  2.109334E+02 -1.367167E+05  1.857272E+02 -3.634986E+04  2.559828E-09 -1.624025E-10
        66  16 -1.220240E+05 -6.178938E+05 -1.202375E+05 -3.720372E+04  2.715229E-09 -1.961075E-09
        66  17 -1.026908E+05 -5.540613E+05 -9.698073E+04 -2.089909E+04  3.317630E-09  2.596523E-09
        66  18 -8.718536E+04 -4.923765E+05 -8.100307E+04 -3.590682E+04  2.445266E-09  7.216144E-09
        66  19  1.175487E+05  3.446435E+05  1.149445E+05 -3.549630E+04 -5.664812E+03 -1.082699E+04
        66  20  1.028750E+05  2.813141E+05  9.534686E+04 -2.048984E+04 -1.708110E+04 -1.988418E+03
        66  21  8.759873E+04  2.190606E+05  8.136683E+04 -3.679322E+04 -1.602026E+04  6.850965E+03
        66  22 -2.229084E+03 -1.367308E+05 -2.638085E+03 -3.635038E+04 -5.666612E+03  2.311368E+03
        66  23  9.837137E+01 -1.364543E+05 -8.108722E+02 -2.069458E+04 -1.708295E+04  1.862338E+03
        66  24  2.112095E+02 -1.367166E+05  1.862131E+02 -3.634987E+04 -1.601841E+04  1.414886E+03
        66  25 -1.220239E+05 -6.178936E+05 -1.202370E+05 -3.720379E+04 -5.668448E+03  1.543957E+04
        66  26 -1.026905E+05 -5.540612E+05 -9.698012E+04 -2.089917E+04 -1.708481E+04  5.710524E+03
        66  27 -8.718508E+04 -4.923764E+05 -8.100256E+04 -3.590677E+04 -1.601657E+04 -4.018107E+03
        67   1  7.279907E+04  1.604683E+05  6.870334E+04 -3.671808E+04  1.275621E+04 -3.114662E+03
        67   2  5.748375E+04  9.747664E+04  5.541819E+04 -2.055232E+04  1.030952E+04 -4.470910E+03
        67   3  4.333993E+04  3.494174E+04  4.330499E+04 -3.619583E+04  7.311067E+03 -5.828375E+03
        67   4 -2.063567E+02 -1.365028E+05  6.405301E+02 -3.646117E+04  1.275577E+04 -1.498310E+03
        67   5 -5.991791E+01 -1.366897E+05  1.868353E+03 -2.055574E+04  1.030854E+04 -2.443753E+03
        67   6  1.187153E+03 -1.364947E+05  3.983179E+03 -3.646029E+04  7.309440E+03 -3.390546E+03
        67   7 -7.321792E+04 -4.333922E+05 -6.742808E+04 -3.620437E+04  1.275533E+04  1.172745E+02
        67   8 -5.760739E+04 -3.708051E+05 -5.168507E+04 -2.055915E+04  1.030756E+04 -4.173541E+02
        67   9 -4.096767E+04 -3.079039E+05 -3.534055E+04 -3.672468E+04  7.307810E+03 -9.533840E+02
        67  10  7.279889E+04  1.604682E+05  6.870302E+04 -3.671805E+04 -1.165586E-10  5.956360E-09
        67  11  5.748363E+04  9.747659E+04  5.541795E+04 -2.055228E+04  5.397016E-10  2.908584E-09
        67  12  4.333986E+04  3.494169E+04  4.330483E+04 -3.619579E+04 -1.379056E-09 -2.341650E-09
        67  13 -2.065320E+02 -1.365028E+05  6.402201E+02 -3.646115E+04  3.626474E-10 -5.010503E-10
        67  14 -6.003362E+01 -1.366897E+05  1.868142E+03 -2.055572E+04  1.911245E-12 -6.002664E-10
        67  15  1.187092E+03 -1.364947E+05  3.983057E+03 -3.646027E+04 -1.962323E-09 -2.644437E-10
        67  16 -7.321810E+04 -4.333922E+05 -6.742838E+04 -3.620437E+04  9.482879E-10 -5.972579E-09
        67  17 -5.760751E+04 -3.708052E+05 -5.168527E+04 -2.055915E+04  6.835896E-10 -3.238814E-09
        67  18 -4.096773E+04 -3.079040E+05 -3.534065E+04 -3.672467E+04 -2.215331E-09  3.062660E-09
        67  19  7.279907E+04  1.604683E+05  6.870334E+04 -3.671808E+04 -1.275621E+04  3.114662E+03
        67  20  5.748375E+04  9.747664E+04  5.541819E+04 -2.055232E+04 -1.030952E+04  4.470910E+03
        67  21  4.333993E+04  3.494174E+04  4.330499E+04 -3.619583E+04 -7.311067E+03  5.828375E+03
        67  22 -2.063567E+02 -1.365028E+05  6.405301E+02 -3.646117E+04 -1.275577E+04  1.498310E+03
        67  23 -5.991791E+01 -1.366897E+05  1.868353E+03 -2.055574E+04 -1.030854E+04  2.443753E+03
        67  24  1.187153E+03 -1.364947E+05  3.983179E+03 -3.646029E+04 -7.309440E+03  3.390546E+03
        67  25 -7.321792E+04 -4.333922E+05 -6.742808E+04 -3.620437E+04 -1.275533E+04 -1.172745E+02
        67  26 -5.760739E+04 -3.708051E+05 -5.168507E+04 -2.055915E+04 -1.030756E+04  4.173541E+02
        67  27 -4.096767E+04 -3.079039E+05 -3.534055E+04 -3.672468E+04 -7.307810E+03  9.533840E+02
        68   1  2.686255E+04 -2.277178E+04  3.068109E+04 -3.884575E+04  5.287333E+03 -6.696765E+03
        68   2  1.135498E+04 -8.787448E+04  1.994335E+04 -1.845224E+04  2.336821E+03 -1.052704E+04
        68   3  1.250552E+04 -1.483642E+05  1.585169E+04 -2.986614E+04  3.902500E+02 -1.435641E+04
        68   4 -8.202790E+02 -1.355229E+05  5.048732E+03 -3.646359E+04  5.285421E+03 -4.125797E+03
        68   5 -9.209106E+02 -1.378903E+05  8.566620E+03 -2.055382E+04  2.335469E+03 -8.702859E+03
        68   6  1.576667E+04 -1.355200E+05  1.924913E+04 -3.645109E+04  3.895387E+02 -1.327937E+04
        68   7 -2.850396E+04 -2.482622E+05 -2.058442E+04 -3.408187E+04  5.283528E+03 -1.555291E+03
        68   8 -1.319696E+04 -1.879038E+05 -2.810261E+03 -2.265522E+04  2.334105E+03 -6.878822E+03
        68   9  1.902797E+04 -1.226756E+05  2.264659E+04 -4.303618E+04  3.888046E+02 -1.220231E+04
        68  10  2.686251E+04 -2.277183E+04  3.068095E+04 -3.884572E+04  8.502959E-10 -2.028282E-10
        68  11  1.135494E+04 -8.787460E+04  1.994314E+04 -1.845222E+04 -1.855661E-09  3.601974E-10
        68  12  1.250547E+04 -1.483644E+05  1.585131E+04 -2.986613E+04 -1.355669E-10  2.857169E-10
        68  13 -8.203135E+02 -1.355229E+05  5.048647E+03 -3.646357E+04  1.344745E-09 -7.374057E-10
        68  14 -9.209368E+02 -1.378904E+05  8.566468E+03 -2.055380E+04  1.066837E-09 -7.662598E-10
        68  15  1.576662E+04 -1.355202E+05  1.924880E+04 -3.645108E+04  1.309303E-11 -2.884426E-10
        68  16 -2.850399E+04 -2.482622E+05 -2.058448E+04 -3.408186E+04  1.926912E-10  1.648906E-10
        68  17 -1.319697E+04 -1.879039E+05 -2.810361E+03 -2.265521E+04  1.642358E-09 -7.766886E-10
        68  18  1.902792E+04 -1.226758E+05  2.264631E+04 -4.303617E+04  1.543002E-10  5.184884E-10
        68  19  2.686255E+04 -2.277178E+04  3.068109E+04 -3.884575E+04 -5.287333E+03  6.696765E+03
        68  20  1.135498E+04 -8.787448E+04  1.994335E+04 -1.845224E+04 -2.336821E+03  1.052704E+04
        68  21  1.250552E+04 -1.483642E+05  1.585169E+04 -2.986614E+04 -3.902500E+02  1.435641E+04
        68  22 -8.202790E+02 -1.355229E+05  5.048732E+03 -3.646359E+04 -5.285421E+03  4.125797E+03
        68  23 -9.209106E+02 -1.378903E+05  8.566620E+03 -2.055382E+04 -2.335469E+03  8.702859E+03
        68  24  1.576667E+04 -1.355200E+05  1.924913E+04 -3.645109E+04 -3.895387E+02  1.327937E+04
        68  25 -2.850396E+04 -2.482622E+05 -2.058442E+04 -3.408187E+04 -5.283528E+03  1.555291E+03
        68  26 -1.319696E+04 -1.879038E+05 -2.810261E+03 -2.265522E+04 -2.334105E+03  6.878822E+03
        68  27  1.902797E+04 -1.226756E+05  2.264659E+04 -4.303618E+04 -3.888046E+02  1.220231E+04
        69   1 -1.705051E+05 -4.302201E+04 -1.637518E+04 -6.732736E+04 -7.409449E+03 -2.543892E+03
        69   2 -1.628340E+05 -2.800710E+04 -7.662588E+03 -6.399315E+04 -4.563983E+03 -1.146637E+03
        69   3 -1.556157E+05 -2.527479E+04 -3.603496E+03 -6.215970E+04 -1.476109E+03 -3.955764E+02
        69   4 -1.523841E+05 -3.299853E+04 -1.084743E+04 -5.910114E+04 -6.982864E+03 -2.383974E+03
        69   5 -1.516259E+05 -2.280604E+04 -4.626117E+03 -5.988644E+04 -4.587411E+03 -1.155432E+03
        69   6 -1.512315E+05 -2.480697E+04 -2.701702E+03 -6.217262E+04 -1.949582E+03 -5.731131E+02
        69   7 -1.342628E+05 -2.297497E+04 -5.319743E+03 -5.087472E+04 -6.556269E+03 -2.224047E+03
        69   8 -1.404177E+05 -1.760496E+04 -1.589665E+03 -5.577966E+04 -4.610839E+03 -1.164227E+03
        69   9 -1.468472E+05 -2.433915E+04 -1.799904E+03 -6.218553E+04 -2.423059E+03 -7.506494E+02
        69  10 -1.705052E+05 -4.302203E+04 -1.637530E+04 -6.732738E+04  4.325047E-10  1.932844E-10
        69  11 -1.628340E+05 -2.800711E+04 -7.662630E+03 -6.399316E+04  3.311538E-09  1.250923E-09
        69  12 -1.556157E+05 -2.527479E+04 -3.603501E+03 -6.215970E+04  3.452993E-09  2.955890E-10
        69  13 -1.523841E+05 -3.299855E+04 -1.084753E+04 -5.910115E+04  8.963014E-10  4.945126E-10
        69  14 -1.516259E+05 -2.280605E+04 -4.626159E+03 -5.988644E+04  5.418177E-09  1.217568E-09
        69  15 -1.512315E+05 -2.480697E+04 -2.701710E+03 -6.217262E+04 -9.232929E-10  6.197934E-10
        69  16 -1.342629E+05 -2.297499E+04 -5.319833E+03 -5.087473E+04  3.028077E-09  8.267893E-10
        69  17 -1.404178E+05 -1.760497E+04 -1.589708E+03 -5.577966E+04  2.078731E-09  1.361178E-09
        69  18 -1.468473E+05 -2.433916E+04 -1.799916E+03 -6.218553E+04 -1.172639E-10  8.394011E-10
        69  19 -1.705051E+05 -4.302201E+04 -1.637518E+04 -6.732736E+04  7.409449E+03  2.543892E+03
        69  20 -1.628340E+05 -2.800710E+04 -7.662588E+03 -6.399315E+04  4.563983E+03  1.146637E+03
        69  21 -1.556157E+05 -2.527479E+04 -3.603496E+03 -6.215970E+04  1.476109E+03  3.955764E+02
        69  22 -1.523841E+05 -3.299853E+04 -1.084743E+04 -5.910114E+04  6.982864E+03  2.383974E+03
        69  23 -1.516259E+05 -2.280604E+04 -4.626117E+03 -5.988644E+04  4.587411E+03  1.155432E+03
        69  24 -1.512315E+05 -2.480697E+04 -2.701702E+03 -6.217262E+04  1.949582E+03  5.731131E+02
        69  25 -1.342628E+05 -2.297497E+04 -5.319743E+03 -5.087472E+04  6.556269E+03  2.224047E+03
        69  26 -1.404177E+05 -1.760496E+04 -1.589665E+03 -5.577966E+04  4.610839E+03  1.164227E+03
        69  27 -1.468472E+05 -2.433915E+04 -1.799904E+03 -6.218553E+04  2.423059E+03  7.506494E+02
        70   1 -1.459360E+05 -2.413463E+04 -9.530493E+02 -6.047309E+04 -1.188498E+03 -6.730615E+02
        70   2 -1.390459E+05 -1.853450E+04  2.237420E+03 -5.633277E+04 -4.500482E+02 -8.621241E+02
        70   3 -1.291810E+05 -1.696800E+04  4.798790E+03 -5.583057E+04  3.008277E+02 -1.084269E+03
        70   4 -1.508794E+05 -2.577139E+04 -2.170275E+03 -6.160563E+04 -1.461488E+03 -7.754270E+02
        70   5 -1.523243E+05 -2.343820E+04 -1.097652E+03 -5.990604E+04 -7.460882E+02 -9.731351E+02
        70   6 -1.507899E+05 -2.513411E+04 -6.358774E+02 -6.184461E+04 -1.827199E+01 -1.203929E+03
        70   7 -1.558228E+05 -2.740814E+04 -3.387500E+03 -6.273816E+04 -1.734476E+03 -8.777916E+02
        70   8 -1.656024E+05 -2.834187E+04 -4.432720E+03 -6.347923E+04 -1.042120E+03 -1.084143E+03
        70   9 -1.723981E+05 -3.330012E+04 -6.070535E+03 -6.785842E+04 -3.373572E+02 -1.323584E+03
        70  10 -1.459360E+05 -2.413463E+04 -9.530529E+02 -6.047309E+04  2.222154E-10 -4.806767E-10
        70  11 -1.390459E+05 -1.853450E+04  2.237418E+03 -5.633278E+04 -1.653096E-09  1.199290E-10
        70  12 -1.291810E+05 -1.696800E+04  4.798787E+03 -5.583057E+04  1.918942E-09  5.619174E-10
        70  13 -1.508794E+05 -2.577139E+04 -2.170280E+03 -6.160563E+04 -1.069368E-09 -5.081416E-11
        70  14 -1.523243E+05 -2.343820E+04 -1.097655E+03 -5.990604E+04  6.350914E-10  9.658995E-11
        70  15 -1.507899E+05 -2.513411E+04 -6.358802E+02 -6.184461E+04  2.398034E-09  8.324711E-10
        70  16 -1.558228E+05 -2.740814E+04 -3.387507E+03 -6.273816E+04 -2.848766E-09  4.151481E-10
        70  17 -1.656024E+05 -2.834187E+04 -4.432725E+03 -6.347923E+04 -1.197688E-11 -8.836647E-11
        70  18 -1.723981E+05 -3.330012E+04 -6.070539E+03 -6.785842E+04  1.902486E-09  1.095941E-09
        70  19 -1.459360E+05 -2.413463E+04 -9.530493E+02 -6.047309E+04  1.188498E+03  6.730615E+02
        70  20 -1.390459E+05 -1.853450E+04  2.237420E+03 -5.633277E+04  4.500482E+02  8.621241E+02
        70  21 -1.291810E+05 -1.696800E+04  4.798790E+03 -5.583057E+04 -3.008277E+02  1.084269E+03
        70  22 -1.508794E+05 -2.577139E+04 -2.170275E+03 -6.160563E+04  1.461488E+03  7.754270E+02
        70  23 -1.523243E+05 -2.343820E+04 -1.097652E+03 -5.990604E+04  7.460882E+02  9.731351E+02
        70  24 -1.507899E+05 -2.513411E+04 -6.358774E+02 -6.184461E+04  1.827199E+01  1.203929E+03
        70  25 -1.558228E+05 -2.740814E+04 -3.387500E+03 -6.273816E+04  1.734476E+03  8.777916E+02
        70  26 -1.656024E+05 -2.834187E+04 -4.432720E+03 -6.347923E+04  1.042120E+03  1.084143E+03
        70  27 -1.723981E+05 -3.330012E+04 -6.070535E+03 -6.785842E+04  3.373572E+02  1.323584E+03
        71   1 -1.207571E+05 -1.400561E+04  7.085162E+03 -5.360589E+04  4.807008E+02 -1.317522E+03
        71   2 -1.139627E+05 -9.145232E+03  9.367892E+03 -4.940567E+04  8.067459E+02 -1.701518E+03
        71   3 -1.038948E+05 -7.657451E+03  1.151699E+04 -4.899452E+04  1.133321E+03 -2.086823E+03
        71   4 -1.507550E+05 -2.520584E+04 -5.035078E+02 -6.179655E+04  1.720266E+02 -1.433278E+03
        71   5 -1.523887E+05 -2.349596E+04 -3.163443E+02 -5.991089E+04  4.971484E+02 -1.817633E+03
        71   6 -1.507485E+05 -2.515850E+04 -2.620416E+02 -6.181435E+04  8.227970E+02 -2.203297E+03
        71   7 -1.807524E+05 -3.640610E+04 -8.092323E+03 -6.998692E+04 -1.366339E+02 -1.549028E+03
        71   8 -1.908135E+05 -3.784668E+04 -1.000077E+04 -7.041560E+04  1.875698E+02 -1.933741E+03
        71   9 -1.976003E+05 -4.265949E+04 -1.204131E+04 -7.463338E+04  5.122974E+02 -2.319763E+03
        71  10 -1.207571E+05 -1.400562E+04  7.085158E+03 -5.360588E+04  4.766381E-09  9.421662E-10
        71  11 -1.139627E+05 -9.145235E+03  9.367886E+03 -4.940567E+04  6.610320E-10 -8.732794E-11
        71  12 -1.038948E+05 -7.657456E+03  1.151698E+04 -4.899451E+04 -2.780827E-09 -6.039120E-10
        71  13 -1.507550E+05 -2.520584E+04 -5.035117E+02 -6.179655E+04  1.900987E-09  8.869261E-10
        71  14 -1.523887E+05 -2.349596E+04 -3.163510E+02 -5.991089E+04  7.079620E-11 -1.697187E-10
        71  15 -1.507485E+05 -2.515850E+04 -2.620519E+02 -6.181435E+04 -3.254524E-09 -9.987161E-10
        71  16 -1.807524E+05 -3.640610E+04 -8.092328E+03 -6.998692E+04  5.300810E-10  7.971189E-10
        71  17 -1.908135E+05 -3.784669E+04 -1.000078E+04 -7.041560E+04 -5.277373E-10 -2.641873E-10
        71  18 -1.976003E+05 -4.265950E+04 -1.204132E+04 -7.463338E+04 -4.871435E-09 -1.395764E-09
        71  19 -1.207571E+05 -1.400561E+04  7.085162E+03 -5.360589E+04 -4.807008E+02  1.317522E+03
        71  20 -1.139627E+05 -9.145232E+03  9.367892E+03 -4.940567E+04 -8.067459E+02  1.701518E+03
        71  21 -1.038948E+05 -7.657451E+03  1.151699E+04 -4.899452E+04 -1.133321E+03  2.086823E+03
        71  22 -1.507550E+05 -2.520584E+04 -5.035078E+02 -6.179655E+04 -1.720266E+02  1.433278E+03
        71  23 -1.523887E+05 -2.349596E+04 -3.163443E+02 -5.991089E+04 -4.971484E+02  1.817633E+03
        71  24 -1.507485E+05 -2.515850E+04 -2.620416E+02 -6.181435E+04 -8.227970E+02  2.203297E+03
        71  25 -1.807524E+05 -3.640610E+04 -8.092323E+03 -6.998692E+04  1.366339E+02  1.549028E+03
        71  26 -1.908135E+05 -3.784668E+04 -1.000077E+04 -7.041560E+04 -1.875698E+02  1.933741E+03
        71  27 -1.976003E+05 -4.265949E+04 -1.204131E+04 -7.463338E+04 -5.122974E+02  2.319763E+03
        72   1 -9.560099E+04 -4.561425E+03  1.365923E+04 -4.673494E+04  1.273850E+03 -2.329807E+03
        72   2 -8.882683E+04  2.320807E+02  1.565929E+04 -4.254053E+04  1.619231E+03 -2.707314E+03
        72   3 -7.877357E+04  1.705835E+03  1.752387E+04 -4.213626E+04  1.964494E+03 -3.084346E+03
        72   4 -1.507499E+05 -2.516189E+04 -2.702212E+02 -6.180910E+04  9.640731E+02 -2.446011E+03
        72   5 -1.523894E+05 -2.350224E+04 -3.591121E+02 -5.991397E+04  1.309755E+03 -2.823423E+03
        72   6 -1.507501E+05 -2.516239E+04 -5.837681E+02 -6.180899E+04  1.655317E+03 -3.200360E+03
        72   7 -2.058955E+05 -4.576201E+04 -1.419980E+04 -7.688194E+04  6.543290E+02 -2.562203E+03
        72   8 -2.159480E+05 -4.723623E+04 -1.637780E+04 -7.728577E+04  1.000315E+03 -2.939518E+03
        72   9 -2.227219E+05 -5.203035E+04 -1.869186E+04 -8.147971E+04  1.346179E+03 -3.316360E+03
        72  10 -9.560099E+04 -4.561431E+03  1.365921E+04 -4.673494E+04 -5.803646E-09 -8.546403E-10
        72  11 -8.882684E+04  2.320721E+02  1.565927E+04 -4.254052E+04 -9.666431E-10  2.972940E-10
        72  12 -7.877358E+04  1.705823E+03  1.752384E+04 -4.213625E+04  1.506495E-09 -1.496329E-10
        72  13 -1.507499E+05 -2.516190E+04 -2.702342E+02 -6.180910E+04 -3.005217E-09 -6.051914E-10
        72  14 -1.523894E+05 -2.350224E+04 -3.591303E+02 -5.991397E+04  2.060619E-09  2.651556E-10
        72  15 -1.507502E+05 -2.516240E+04 -5.837925E+02 -6.180898E+04  1.852426E-10 -4.947995E-10
        72  16 -2.058955E+05 -4.576202E+04 -1.419981E+04 -7.688194E+04  4.610890E-10 -4.048202E-10
        72  17 -2.159480E+05 -4.723624E+04 -1.637781E+04 -7.728576E+04  3.693043E-09  3.780453E-10
        72  18 -2.227219E+05 -5.203036E+04 -1.869189E+04 -8.147971E+04 -7.480604E-10 -1.068033E-09
        72  19 -9.560099E+04 -4.561425E+03  1.365923E+04 -4.673494E+04 -1.273850E+03  2.329807E+03
        72  20 -8.882683E+04  2.320807E+02  1.565929E+04 -4.254053E+04 -1.619231E+03  2.707314E+03
        72  21 -7.877357E+04  1.705835E+03  1.752387E+04 -4.213626E+04 -1.964494E+03  3.084346E+03
        72  22 -1.507499E+05 -2.516189E+04 -2.702212E+02 -6.180910E+04 -9.640731E+02  2.446011E+03
        72  23 -1.523894E+05 -2.350224E+04 -3.591121E+02 -5.991397E+04 -1.309755E+03  2.823423E+03
        72  24 -1.507501E+05 -2.516239E+04 -5.837681E+02 -6.180899E+04 -1.655317E+03  3.200360E+03
        72  25 -2.058955E+05 -4.576201E+04 -1.419980E+04 -7.688194E+04 -6.543290E+02  2.562203E+03
        72  26 -2.159480E+05 -4.723623E+04 -1.637780E+04 -7.728577E+04 -1.000315E+03  2.939518E+03
        72  27 -2.227219E+05 -5.203035E+04 -1.869186E+04 -8.147971E+04 -1.346179E+03  3.316360E+03
        73   1 -7.052216E+04  4.798716E+03  1.949101E+04 -3.989977E+04  2.172690E+03 -3.300837E+03
        73   2 -6.373379E+04  9.587931E+03  2.098297E+04 -3.570629E+04  3.011439E+03 -3.491327E+03
        73   3 -5.377522E+04  1.097016E+04  2.194807E+04 -3.528685E+04  3.849744E+03 -3.680408E+03
        73   4 -1.507711E+05 -2.515537E+04 -7.601769E+02 -6.181552E+04  1.863715E+03 -3.416790E+03
        73   5 -1.523615E+05 -2.348946E+04 -1.348830E+03 -5.991444E+04  2.703335E+03 -3.606978E+03
        73   6 -1.507820E+05 -2.523069E+04 -2.465093E+03 -6.178739E+04  3.542505E+03 -3.795760E+03
        73   7 -2.310134E+05 -5.510892E+04 -2.101179E+04 -8.372863E+04  1.554784E+03 -3.532726E+03
        73   8 -2.409815E+05 -5.656634E+04 -2.368126E+04 -8.411947E+04  2.395280E+03 -3.722611E+03
        73   9 -2.477799E+05 -6.143109E+04 -2.687911E+04 -8.828429E+04  3.235318E+03 -3.911093E+03
        73  10 -7.052217E+04  4.798703E+03  1.949098E+04 -3.989977E+04  1.922841E-10 -9.524851E-10
        73  11 -6.373380E+04  9.587916E+03  2.098293E+04 -3.570628E+04  1.289924E-09  9.398051E-11
        73  12 -5.377524E+04  1.097014E+04  2.194802E+04 -3.528683E+04  1.367495E-09  7.272463E-11
        73  13 -1.507711E+05 -2.515538E+04 -7.602053E+02 -6.181552E+04 -9.433057E-10 -4.866410E-10
        73  14 -1.523615E+05 -2.348947E+04 -1.348868E+03 -5.991443E+04  2.095683E-09  1.164092E-10
        73  15 -1.507820E+05 -2.523071E+04 -2.465144E+03 -6.178738E+04 -2.577535E-10 -6.998451E-11
        73  16 -2.310134E+05 -5.510894E+04 -2.101182E+04 -8.372862E+04  2.183231E-10 -2.164833E-10
        73  17 -2.409815E+05 -5.656636E+04 -2.368130E+04 -8.411946E+04 -3.494808E-09  7.205116E-10
        73  18 -2.477800E+05 -6.143111E+04 -2.687916E+04 -8.828428E+04 -2.282908E-09 -1.495457E-10
        73  19 -7.052216E+04  4.798716E+03  1.949101E+04 -3.989977E+04 -2.172690E+03  3.300837E+03
        73  20 -6.373379E+04  9.587931E+03  2.098297E+04 -3.570629E+04 -3.011439E+03  3.491327E+03
        73  21 -5.377522E+04  1.097016E+04  2.194807E+04 -3.528685E+04 -3.849744E+03  3.680408E+03
        73  22 -1.507711E+05 -2.515537E+04 -7.601769E+02 -6.181552E+04 -1.863715E+03  3.416790E+03
        73  23 -1.523615E+05 -2.348946E+04 -1.348830E+03 -5.991444E+04 -2.703335E+03  3.606978E+03
        73  24 -1.507820E+05 -2.523069E+04 -2.465093E+03 -6.178739E+04 -3.542505E+03  3.795760E+03
        73  25 -2.310134E+05 -5.510892E+04 -2.101179E+04 -8.372863E+04 -1.554784E+03  3.532726E+03
        73  26 -2.409815E+05 -5.656634E+04 -2.368126E+04 -8.411947E+04 -2.395280E+03  3.722611E+03
        73  27 -2.477799E+05 -6.143109E+04 -2.687911E+04 -8.828429E+04 -3.235318E+03  3.911093E+03
        74   1 -4.552322E+04  1.402670E+04  2.328225E+04 -3.330155E+04  4.421022E+03 -3.760785E+03
        74   2 -3.862414E+04  1.904216E+04  2.273339E+04 -2.886658E+04  7.533891E+03 -3.093103E+03
        74   3 -2.932228E+04  1.941690E+04  1.963502E+04 -2.796636E+04  1.064186E+04 -2.412079E+03
        74   4 -1.508980E+05 -2.511213E+04 -3.263882E+03 -6.188202E+04  4.110473E+03 -3.877398E+03
        74   5 -1.521787E+05 -2.335638E+04 -5.882705E+03 -5.990251E+04  7.232096E+03 -3.206463E+03
        74   6 -1.510584E+05 -2.624334E+04 -1.105831E+04 -6.145785E+04  1.034877E+04 -2.522206E+03
        74   7 -2.562619E+05 -6.425027E+04 -2.981089E+04 -9.045811E+04  3.799981E+03 -3.993989E+03
        74   8 -2.657203E+05 -6.575398E+04 -3.449975E+04 -9.093324E+04  6.930361E+03 -3.319800E+03
        74   9 -2.727795E+05 -7.190239E+04 -4.175268E+04 -9.494325E+04  1.005574E+04 -2.632308E+03
        74  10 -4.552324E+04  1.402667E+04  2.328219E+04 -3.330154E+04  4.495369E-11 -1.759323E-10
        74  11 -3.862420E+04  1.904213E+04  2.273326E+04 -2.886657E+04 -7.114481E-10 -3.079436E-10
        74  12 -2.932241E+04  1.941686E+04  1.963479E+04 -2.796634E+04 -1.293166E-09 -2.638443E-10
        74  13 -1.508980E+05 -2.511216E+04 -3.263942E+03 -6.188201E+04  2.280062E-09 -2.596627E-10
        74  14 -1.521787E+05 -2.335640E+04 -5.882822E+03 -5.990249E+04 -2.171758E-09  2.210326E-10
        74  15 -1.510585E+05 -2.624338E+04 -1.105852E+04 -6.145783E+04 -1.058926E-10 -5.007673E-11
        74  16 -2.562620E+05 -6.425029E+04 -2.981095E+04 -9.045810E+04  1.752035E-09 -2.438063E-10
        74  17 -2.657204E+05 -6.575401E+04 -3.449987E+04 -9.093322E+04 -1.881868E-10 -3.467206E-10
        74  18 -2.727796E+05 -7.190243E+04 -4.175289E+04 -9.494322E+04  7.426483E-10  4.991546E-10
        74  19 -4.552322E+04  1.402670E+04  2.328225E+04 -3.330155E+04 -4.421022E+03  3.760785E+03
        74  20 -3.862414E+04  1.904216E+04  2.273339E+04 -2.886658E+04 -7.533891E+03  3.093103E+03
        74  21 -2.932228E+04  1.941690E+04  1.963502E+04 -2.796636E+04 -1.064186E+04  2.412079E+03
        74  22 -1.508980E+05 -2.511213E+04 -3.263882E+03 -6.188202E+04 -4.110473E+03  3.877398E+03
        74  23 -1.521787E+05 -2.335638E+04 -5.882705E+03 -5.990251E+04 -7.232096E+03  3.206463E+03
        74  24 -1.510584E+05 -2.624334E+04 -1.105831E+04 -6.145785E+04 -1.034877E+04  2.522206E+03
        74  25 -2.562619E+05 -6.425027E+04 -2.981089E+04 -9.045811E+04 -3.799981E+03  3.993989E+03
        74  26 -2.657203E+05 -6.575398E+04 -3.449975E+04 -9.093324E+04 -6.930361E+03  3.319800E+03
        74  27 -2.727795E+05 -7.190239E+04 -4.175268E+04 -9.494325E+04 -1.005574E+04  2.632308E+03
        75   1 -2.012213E+04  2.232049E+04  1.837945E+04 -2.899802E+04  1.286155E+04 -1.902551E+03
        75   2 -1.326577E+04  3.061753E+04  9.187307E+03 -2.088304E+04  2.600738E+04  2.572517E+03
        75   3 -1.111334E+04  1.882883E+04 -1.422651E+04 -1.259569E+04  3.906367E+04  7.287088E+03
        75   4 -1.519172E+05 -2.452226E+04 -1.442125E+04 -6.257197E+04  1.249535E+04 -2.040097E+03
        75   5 -1.506154E+05 -2.202100E+04 -2.568230E+04 -5.981977E+04  2.580497E+04  2.496319E+03
        75   6 -1.540519E+05 -3.964079E+04 -5.129731E+04 -5.689523E+04  3.902489E+04  7.272014E+03
        75   7 -2.836959E+05 -7.136448E+04 -4.722344E+04 -9.613978E+04  1.212922E+04 -2.177614E+03
        75   8 -2.879469E+05 -7.465815E+04 -6.055352E+04 -9.874869E+04  2.560260E+04  2.420141E+03
        75   9 -2.969704E+05 -9.810796E+04 -8.836982E+04 -1.011851E+05  3.898611E+04  7.256944E+03
        75  10 -2.012231E+04  2.232044E+04  1.837913E+04 -2.899800E+04 -1.104121E-09  1.210396E-10
        75  11 -1.326649E+04  3.061734E+04  9.186023E+03 -2.088309E+04 -1.481126E-09  1.107141E-09
        75  12 -1.111499E+04  1.882836E+04 -1.422948E+04 -1.259592E+04 -4.889760E-10  4.038617E-10
        75  13 -1.519174E+05 -2.452230E+04 -1.442155E+04 -6.257195E+04  8.965129E-10  2.945165E-10
        75  14 -1.506161E+05 -2.202119E+04 -2.568357E+04 -5.981982E+04 -4.302714E-10  6.854436E-10
        75  15 -1.540536E+05 -3.964126E+04 -5.130027E+04 -5.689546E+04 -1.237782E-09 -1.028106E-09
        75  16 -2.836961E+05 -7.136453E+04 -4.722372E+04 -9.613976E+04  1.121770E-09  1.468344E-09
        75  17 -2.879476E+05 -7.465833E+04 -6.055476E+04 -9.874874E+04 -8.577997E-10  1.217160E-09
        75  18 -2.969721E+05 -9.810842E+04 -8.837278E+04 -1.011854E+05  1.260424E-09 -9.435415E-10
        75  19 -2.012213E+04  2.232049E+04  1.837945E+04 -2.899802E+04 -1.286155E+04  1.902551E+03
        75  20 -1.326577E+04  3.061753E+04  9.187307E+03 -2.088304E+04 -2.600738E+04 -2.572517E+03
        75  21 -1.111334E+04  1.882883E+04 -1.422651E+04 -1.259569E+04 -3.906367E+04 -7.287088E+03
        75  22 -1.519172E+05 -2.452226E+04 -1.442125E+04 -6.257197E+04 -1.249535E+04  2.040097E+03
        75  23 -1.506154E+05 -2.202100E+04 -2.568230E+04 -5.981977E+04 -2.580497E+04 -2.496319E+03
        75  24 -1.540519E+05 -3.964079E+04 -5.129731E+04 -5.689523E+04 -3.902489E+04 -7.272014E+03
        75  25 -2.836959E+05 -7.136448E+04 -4.722344E+04 -9.613978E+04 -1.212922E+04  2.177614E+03
        75  26 -2.879469E+05 -7.465815E+04 -6.055352E+04 -9.874869E+04 -2.560260E+04 -2.420141E+03
        75  27 -2.969704E+05 -9.810796E+04 -8.836982E+04 -1.011851E+05 -3.898611E+04 -7.256944E+03
        76   1  1.269903E+04  2.074622E+04 -2.504762E+04 -5.121545E+04  4.934375E+04  1.022184E+04
        76   2  1.113280E+04  7.142063E+04 -6.846679E+04  5.273165E+03  1.054336E+05  3.154072E+04
        76   3 -7.367200E+04 -9.124164E+04 -2.112397E+05  1.124310E+05  1.597865E+05  5.748854E+04
        76   4 -1.623387E+05 -1.683012E+04 -6.395751E+04 -7.042948E+04  4.787255E+04  9.671665E+03
        76   5 -1.341069E+05 -6.950552E+03 -1.096762E+05 -5.927382E+04  1.071674E+05  3.218699E+04
        76   6 -1.897778E+05 -2.110851E+05 -2.573068E+05  2.559299E+03  1.647274E+05  5.932085E+04
        76   7 -3.373450E+05 -5.440711E+04 -1.028687E+05 -8.964087E+04  4.640180E+04  9.121498E+03
        76   8 -2.793234E+05 -8.531194E+04 -1.508870E+05 -1.238044E+05  1.089008E+05  3.283292E+04
        76   9 -3.058545E+05 -3.308835E+05 -3.033720E+05 -1.072841E+05  1.696673E+05  6.115124E+04
        76  10  1.269639E+04  2.074546E+04 -2.505240E+04 -5.121585E+04  1.279535E-09  1.256898E-10
        76  11  1.112060E+04  7.141658E+04 -6.848955E+04  5.270487E+03  2.196586E-09 -1.681583E-09
        76  12 -7.370031E+04 -9.125204E+04 -2.112939E+05  1.124236E+05 -6.456397E-10 -1.632719E-09
        76  13 -1.623412E+05 -1.683084E+04 -6.396199E+04 -7.042985E+04  1.377957E-09 -4.777525E-10
        76  14 -1.341195E+05 -6.954750E+03 -1.096997E+05 -5.927660E+04  6.664833E-10 -1.971768E-09
        76  15 -1.898079E+05 -2.110961E+05 -2.573644E+05  2.551426E+03  6.863874E-10  4.410836E-10
        76  16 -3.373473E+05 -5.440778E+04 -1.028730E+05 -8.964121E+04 -5.547765E-10 -1.594031E-09
        76  17 -2.793364E+05 -8.531629E+04 -1.509113E+05 -1.238073E+05 -6.827068E-10 -1.374295E-09
        76  18 -3.058864E+05 -3.308953E+05 -3.034332E+05 -1.072924E+05  1.533623E-09 -6.717126E-10
        76  19  1.269903E+04  2.074622E+04 -2.504762E+04 -5.121545E+04 -4.934375E+04 -1.022184E+04
        76  20  1.113280E+04  7.142063E+04 -6.846679E+04  5.273165E+03 -1.054336E+05 -3.154072E+04
        76  21 -7.367200E+04 -9.124164E+04 -2.112397E+05  1.124310E+05 -1.597865E+05 -5.748854E+04
        76  22 -1.623387E+05 -1.683012E+04 -6.395751E+04 -7.042948E+04 -4.787255E+04 -9.671665E+03
        76  23 -1.341069E+05 -6.950552E+03 -1.096762E+05 -5.927382E+04 -1.071674E+05 -3.218699E+04
        76  24 -1.897778E+05 -2.110851E+05 -2.573068E+05  2.559299E+03 -1.647274E+05 -5.932085E+04
        76  25 -3.373450E+05 -5.440711E+04 -1.028687E+05 -8.964087E+04 -4.640180E+04 -9.121498E+03
        76  26 -2.793234E+05 -8.531194E+04 -1.508870E+05 -1.238044E+05 -1.089008E+05 -3.283292E+04
        76  27 -3.058545E+05 -3.308835E+05 -3.033720E+05 -1.072841E+05 -1.696673E+05 -6.115124E+04
        77   1  2.054340E+05  2.014666E+06  2.078350E+05 -4.606038E+04  7.906117E+03  1.015612E+05
        77   2  1.395085E+05  2.008788E+06  1.435022E+05 -1.989761E+04  2.734532E+04  5.864852E+04
        77   3  1.244006E+05  2.021205E+06  1.197601E+05  7.862442E+03  3.476079E+04  1.573764E+04
        77   4  7.898803E+04  1.501051E+06  8.821252E+04  3.326205E+03  7.915539E+03  5.929282E+04
        77   5  1.687351E+04  1.493654E+06  4.446499E+04  2.520321E+03  2.735191E+04  3.635300E+04
        77   6  2.135915E+03  1.501104E+06  2.747936E+04  3.312259E+03  3.476371E+04  1.341395E+04
        77   7 -4.746650E+04  9.876863E+05 -3.141974E+04  5.267178E+04  7.918262E+03  1.705905E+04
        77   8 -1.057751E+05  9.787767E+05 -5.458235E+04  2.491929E+04  2.735691E+04  1.407550E+04
        77   9 -1.201435E+05  9.812667E+05 -6.481145E+04 -1.234000E+03  3.476667E+04  1.109215E+04
        77  10  2.054312E+05  2.014655E+06  2.078155E+05 -4.606103E+04 -1.708278E-09 -1.081889E-10
        77  11  1.395068E+05  2.008784E+06  1.434944E+05 -1.989890E+04  1.497496E-09  4.537112E-10
        77  12  1.243992E+05  2.021205E+06  1.197574E+05  7.862002E+03  1.408061E-09  2.041055E-09
        77  13  7.898702E+04  1.501047E+06  8.820581E+04  3.325827E+03  9.579982E-10 -2.700240E-11
        77  14  1.687235E+04  1.493652E+06  4.446111E+04  2.519521E+03 -8.737631E-10 -3.346142E-14
        77  15  2.134568E+03  1.501104E+06  2.747675E+04  3.311884E+03  1.838735E-09  3.066653E-10
        77  16 -4.746664E+04  9.876859E+05 -3.142040E+04  5.267167E+04  5.427048E-10  1.731739E-10
        77  17 -1.057759E+05  9.787763E+05 -5.458413E+04  2.491898E+04  1.275671E-09 -7.276670E-10
        77  18 -1.201448E+05  9.812662E+05 -6.481395E+04 -1.234310E+03  1.023974E-09 -2.007739E-09
        77  19  2.054340E+05  2.014666E+06  2.078350E+05 -4.606038E+04 -7.906117E+03 -1.015612E+05
        77  20  1.395085E+05  2.008788E+06  1.435022E+05 -1.989761E+04 -2.734532E+04 -5.864852E+04
        77  21  1.244006E+05  2.021205E+06  1.197601E+05  7.862442E+03 -3.476079E+04 -1.573764E+04
        77  22  7.898803E+04  1.501051E+06  8.821252E+04  3.326205E+03 -7.915539E+03 -5.929282E+04
        77  23  1.687351E+04  1.493654E+06  4.446499E+04  2.520321E+03 -2.735191E+04 -3.635300E+04
        77  24  2.135915E+03  1.501104E+06  2.747936E+04  3.312259E+03 -3.476371E+04 -1.341395E+04
        77  25 -4.746650E+04  9.876863E+05 -3.141974E+04  5.267178E+04 -7.918262E+03 -1.705905E+04
        77  26 -1.057751E+05  9.787767E+05 -5.458235E+04  2.491929E+04 -2.735691E+04 -1.407550E+04
        77  27 -1.201435E+05  9.812667E+05 -6.481145E+04 -1.234000E+03 -3.476667E+04 -1.109215E+04
        78   1  1.259642E+05  2.020234E+06  1.153688E+05  1.027188E+03  3.543163E+04  1.342544E+04
        78   2  1.241165E+05  2.022366E+06  1.112441E+05  2.586546E+03  3.671647E+04  3.933449E+00
        78   3  1.278568E+05  2.027667E+06  1.172427E+05  5.000705E+03  3.586800E+04 -1.341836E+04
        78   4  3.399895E+03  1.498368E+06  2.337000E+04  3.148269E+03  3.543534E+04  9.522138E+03
        78   5  9.790399E+02  1.497089E+06  1.977606E+04  2.720621E+03  3.671935E+04 -3.499290E+02
        78   6  3.534019E+03  1.498367E+06  2.385042E+04  3.147807E+03  3.586925E+04 -1.022271E+04
        78   7 -1.191792E+05  9.767673E+05 -6.863875E+04  5.267537E+03  3.543902E+04  5.622008E+03
        78   8 -1.221733E+05  9.720815E+05 -7.170171E+04  2.854603E+03  3.672224E+04 -7.035019E+02
        78   9 -1.208040E+05  9.693395E+05 -6.955212E+04  1.296561E+03  3.587048E+04 -7.029685E+03
        78  10  1.259628E+05  2.020234E+06  1.153661E+05  1.026806E+03  1.189707E-09 -1.124528E-08
        78  11  1.241151E+05  2.022366E+06  1.112415E+05  2.586546E+03 -1.178248E-09  1.715108E-08
        78  12  1.278554E+05  2.027666E+06  1.172400E+05  5.001092E+03 -1.994325E-09  4.431505E-08
        78  13  3.398522E+03  1.498368E+06  2.336747E+04  3.147998E+03  5.525123E-10  2.445229E-10
        78  14  9.775911E+02  1.497089E+06  1.977352E+04  2.720631E+03 -6.189909E-10 -1.855582E-10
        78  15  3.532608E+03  1.498366E+06  2.384780E+04  3.148103E+03 -1.102443E-09  6.675801E-10
        78  16 -1.191806E+05  9.767669E+05 -6.864118E+04  5.267377E+03  2.259671E-09  1.113384E-08
        78  17 -1.221748E+05  9.720811E+05 -7.170425E+04  2.854623E+03 -6.401159E-10 -1.812852E-08
        78  18 -1.208054E+05  9.693391E+05 -6.955463E+04  1.296764E+03 -1.881441E-09 -4.448478E-08
        78  19  1.259642E+05  2.020234E+06  1.153688E+05  1.027188E+03 -3.543163E+04 -1.342544E+04
        78  20  1.241165E+05  2.022366E+06  1.112441E+05  2.586546E+03 -3.671647E+04 -3.933448E+00
        78  21  1.278568E+05  2.027667E+06  1.172427E+05  5.000705E+03 -3.586800E+04  1.341836E+04
        78  22  3.399895E+03  1.498368E+06  2.337000E+04  3.148269E+03 -3.543534E+04 -9.522138E+03
        78  23  9.790399E+02  1.497089E+06  1.977606E+04  2.720621E+03 -3.671935E+04  3.499290E+02
        78  24  3.534019E+03  1.498367E+06  2.385042E+04  3.147807E+03 -3.586925E+04  1.022271E+04
        78  25 -1.191792E+05  9.767673E+05 -6.863875E+04  5.267537E+03 -3.543902E+04 -5.622008E+03
        78  26 -1.221733E+05  9.720815E+05 -7.170171E+04  2.854603E+03 -3.672224E+04  7.035019E+02
        78  27 -1.208040E+05  9.693395E+05 -6.955212E+04  1.296561E+03 -3.587048E+04  7.029685E+03
        79   1  1.274042E+05  2.033647E+06  1.228134E+05 -2.074887E+03  3.548947E+04 -1.574153E+04
        79   2  1.448476E+05  2.028332E+06  1.490676E+05  2.590958E+04  2.823631E+04 -6.061051E+04
        79   3  2.151242E+05  2.042071E+06  2.176847E+05  5.399170E+04  8.274067E+03 -1.054914E+05
        79   4  2.212607E+03  1.501227E+06  2.823145E+04  2.972227E+03  3.549121E+04 -1.420141E+04
        79   5  1.752260E+04  1.493493E+06  4.603687E+04  2.946123E+03  2.822654E+04 -3.795941E+04
        79   6  8.202965E+04  1.501168E+06  9.158842E+04  3.016843E+03  8.251832E+03 -6.172772E+04
        79   7 -1.229945E+05  9.690823E+05 -6.636107E+04  8.014935E+03  3.549297E+04 -1.266256E+04
        79   8 -1.098170E+05  9.589305E+05 -5.700488E+04 -1.999712E+04  2.821510E+04 -1.532732E+04
        79   9 -5.107474E+04  9.605447E+05 -3.451908E+04 -4.791339E+04  8.222423E+03 -1.800175E+04
        79  10  1.274028E+05  2.033647E+06  1.228105E+05 -2.074437E+03 -1.595778E-09 -4.308728E-08
        79  11  1.448457E+05  2.028328E+06  1.490592E+05  2.591096E+04 -2.138413E-09 -1.970107E-08
        79  12  2.151212E+05  2.042059E+06  2.176637E+05  5.399240E+04 -2.164989E-09  9.036914E-09
        79  13  2.211199E+03  1.501226E+06  2.822870E+04  2.972633E+03 -1.203047E-09  4.587191E-10
        79  14  1.752136E+04  1.493491E+06  4.603267E+04  2.946986E+03  1.656592E-09 -1.013367E-10
        79  15  8.202856E+04  1.501164E+06  9.158115E+04  3.017253E+03  5.346682E-11  8.985667E-10
        79  16 -1.229959E+05  9.690818E+05 -6.636374E+04  8.015297E+03 -2.756312E-09  4.276474E-08
        79  17 -1.098180E+05  9.589301E+05 -5.700682E+04 -1.999677E+04 -8.345335E-10  1.816352E-08
        79  18 -5.107490E+04  9.605443E+05 -3.451982E+04 -4.791327E+04  9.464074E-10 -9.224239E-09
        79  19  1.274042E+05  2.033647E+06  1.228134E+05 -2.074887E+03 -3.548947E+04  1.574153E+04
        79  20  1.448476E+05  2.028332E+06  1.490676E+05  2.590958E+04 -2.823631E+04  6.061051E+04
        79  21  2.151242E+05  2.042071E+06  2.176847E+05  5.399170E+04 -8.274067E+03  1.054914E+05
        79  22  2.212607E+03  1.501227E+06  2.823145E+04  2.972227E+03 -3.549121E+04  1.420141E+04
        79  23  1.752260E+04  1.493493E+06  4.603687E+04  2.946123E+03 -2.822654E+04  3.795941E+04
        79  24  8.202965E+04  1.501168E+06  9.158842E+04  3.016843E+03 -8.251832E+03  6.172772E+04
        79  25 -1.229945E+05  9.690823E+05 -6.636107E+04  8.014935E+03 -3.549297E+04  1.266256E+04
        79  26 -1.098170E+05  9.589305E+05 -5.700488E+04 -1.999712E+04 -2.821510E+04  1.532732E+04
        79  27 -5.107474E+04  9.605447E+05 -3.451908E+04 -4.791339E+04 -8.222423E+03  1.800175E+04
        80   1 -2.203506E+06 -4.532859E+05 -4.033359E+05 -5.378381E+04  6.831292E+04  3.058807E+04
        80   2 -2.025832E+06 -5.723758E+05 -4.338783E+05 -4.857391E+04  6.653762E+04  9.398109E+04
        80   3 -1.801950E+06 -5.219763E+05 -4.202782E+05 -1.430877E+05  6.501461E+04  9.439317E+04
        80   4  2.787060E+05  1.643549E+05  2.031130E+05 -1.157568E+05  1.391015E+05  3.085781E+04
        80   5  2.517648E+05 -1.158945E+04  9.067539E+04 -6.560511E+04  9.045210E+04  9.402982E+04
        80   6  2.789643E+05 -1.023946E+04  5.480173E+04 -1.151451E+05  4.205864E+04  9.432375E+04
        80   7  2.766568E+06  7.815591E+05  8.091340E+05 -1.779840E+05  2.101723E+05  3.111289E+04
        80   8  2.534173E+06  5.488356E+05  6.148876E+05 -8.270296E+04  1.144534E+05  9.407717E+04
        80   9  2.363903E+06  5.011998E+05  5.296012E+05 -8.710970E+04  1.902604E+04  9.425238E+04
        80  10 -2.203512E+06 -4.532882E+05 -4.033464E+05 -5.378550E+04 -4.833654E-10  1.957807E-10
        80  11 -2.025840E+06 -5.723865E+05 -4.339033E+05 -4.857896E+04 -8.384873E-10  2.729112E-10
        80  12 -1.801957E+06 -5.219870E+05 -4.203030E+05 -1.430926E+05 -1.788557E-10 -2.242003E-10
        80  13  2.786849E+05  1.643487E+05  2.030749E+05 -1.157603E+05  5.709851E-10  9.200432E-11
        80  14  2.517536E+05 -1.160114E+04  9.064340E+04 -6.561196E+04 -5.463739E-10  7.461375E-11
        80  15  2.789600E+05 -1.024949E+04  5.478168E+04 -1.151483E+05  1.037789E-09 -1.154392E-10
        80  16  2.766520E+06  7.815462E+05  8.090496E+05 -1.779893E+05  9.775545E-10  4.756850E-11
        80  17  2.534156E+06  5.488226E+05  6.148464E+05 -8.271161E+04  7.556532E-10  2.290481E-11
        80  18  2.363900E+06  5.011901E+05  5.295838E+05 -8.711114E+04 -4.779414E-10 -1.830783E-11
        80  19 -2.203506E+06 -4.532859E+05 -4.033359E+05 -5.378381E+04 -6.831292E+04 -3.058807E+04
        80  20 -2.025832E+06 -5.723758E+05 -4.338783E+05 -4.857391E+04 -6.653762E+04 -9.398109E+04
        80  21 -1.801950E+06 -5.219763E+05 -4.202782E+05 -1.430877E+05 -6.501461E+04 -9.439317E+04
        80  22  2.787060E+05  1.643549E+05  2.031130E+05 -1.157568E+05 -1.391015E+05 -3.085781E+04
        80  23  2.517648E+05 -1.158945E+04  9.067539E+04 -6.560511E+04 -9.045210E+04 -9.402982E+04
        80  24  2.789643E+05 -1.023946E+04  5.480173E+04 -1.151451E+05 -4.205864E+04 -9.432375E+04
        80  25  2.766568E+06  7.815591E+05  8.091340E+05 -1.779840E+05 -2.101723E+05 -3.111289E+04
        80  26  2.534173E+06  5.488356E+05  6.148876E+05 -8.270296E+04 -1.144534E+05 -9.407717E+04
        80  27  2.363903E+06  5.011998E+05  5.296012E+05 -8.710970E+04 -1.902604E+04 -9.425238E+04
        81   1 -1.625522E+06 -4.552345E+05 -3.905599E+05 -1.140538E+05  3.765088E+04  8.131353E+04
        81   2 -1.429857E+06 -4.185205E+05 -3.647002E+05 -6.559218E+04  2.820828E+04  7.480016E+04
        81   3 -1.227952E+06 -3.691628E+05 -3.291191E+05 -1.179720E+05  1.874352E+04  6.528147E+04
        81   4  2.685715E+05  1.080483E+04  4.399664E+04 -1.155713E+05  3.401225E+04  8.128981E+04
        81   5  2.653722E+05 -1.647917E+03  2.319363E+04 -6.515155E+04  2.230552E+04  7.477966E+04
        81   6  2.687555E+05 -1.080984E+03  1.366390E+04 -1.155557E+05  1.057962E+04  6.526797E+04
        81   7  2.165992E+06  4.765941E+05  4.783169E+05 -1.170947E+05  3.036247E+04  8.126615E+04
        81   8  1.963268E+06  4.150249E+05  4.108992E+05 -6.471026E+04  1.638668E+04  7.475917E+04
        81   9  1.767540E+06  3.668450E+05  3.563000E+05 -1.131334E+05  2.396150E+03  6.525444E+04
        81  10 -1.625525E+06 -4.552420E+05 -3.905750E+05 -1.140563E+05 -1.180102E-11 -1.224014E-10
        81  11 -1.429859E+06 -4.185268E+05 -3.647122E+05 -6.559388E+04  3.674072E-10 -2.362239E-10
        81  12 -1.227953E+06 -3.691675E+05 -3.291277E+05 -1.179730E+05  1.718999E-09 -7.064970E-10
        81  13  2.685684E+05  1.079743E+04  4.398204E+04 -1.155736E+05  1.332717E-09 -1.686537E-10
        81  14  2.653702E+05 -1.654056E+03  2.318219E+04 -6.515289E+04 -1.715451E-11  2.371710E-10
        81  15  2.687542E+05 -1.085589E+03  1.365568E+04 -1.155562E+05 -9.077228E-10 -3.371141E-10
        81  16  2.165989E+06  4.765867E+05  4.783028E+05 -1.170966E+05  4.221964E-10  8.129377E-11
        81  17  1.963266E+06  4.150188E+05  4.108881E+05 -6.471124E+04  9.306583E-10  4.076397E-10
        81  18  1.767539E+06  3.668404E+05  3.562920E+05 -1.131335E+05  4.789075E-10  2.733920E-10
        81  19 -1.625522E+06 -4.552345E+05 -3.905599E+05 -1.140538E+05 -3.765088E+04 -8.131353E+04
        81  20 -1.429857E+06 -4.185205E+05 -3.647002E+05 -6.559218E+04 -2.820828E+04 -7.480016E+04
        81  21 -1.227952E+06 -3.691628E+05 -3.291191E+05 -1.179720E+05 -1.874352E+04 -6.528147E+04
        81  22  2.685715E+05  1.080483E+04  4.399664E+04 -1.155713E+05 -3.401225E+04 -8.128981E+04
        81  23  2.653722E+05 -1.647917E+03  2.319363E+04 -6.515155E+04 -2.230552E+04 -7.477966E+04
        81  24  2.687555E+05 -1.080984E+03  1.366390E+04 -1.155557E+05 -1.057962E+04 -6.526797E+04
        81  25  2.165992E+06  4.765941E+05  4.783169E+05 -1.170947E+05 -3.036247E+04 -8.126615E+04
        81  26  1.963268E+06  4.150249E+05  4.108992E+05 -6.471026E+04 -1.638668E+04 -7.475917E+04
        81  27  1.767540E+06  3.668450E+05  3.563000E+05 -1.131334E+05 -2.396150E+03 -6.525444E+04
        82   1 -1.043837E+06 -3.219189E+05 -2.888975E+05 -1.155190E+05  1.567819E+04  5.911755E+04
        82   2 -8.464678E+05 -2.740428E+05 -2.487277E+05 -6.504188E+04  1.285936E+04  4.930757E+04
        82   3 -6.478545E+05 -2.251174E+05 -2.063309E+05 -1.150547E+05  1.002271E+04  3.936449E+04
        82   4  2.676915E+05  3.983269E+02  1.050952E+04 -1.154832E+05  8.449813E+03  5.910894E+04
        82   5  2.671377E+05 -3.141218E+02  5.890996E+03 -6.524373E+04  5.525431E+03  4.930457E+04
        82   6  2.678108E+05  4.307518E+01  3.571452E+03 -1.154833E+05  2.584122E+03  3.936735E+04
        82   7  1.580817E+06  3.225962E+05  3.098044E+05 -1.154470E+05  1.206263E+03  5.910034E+04
        82   8  1.381893E+06  2.733284E+05  2.604286E+05 -6.544576E+04 -1.821563E+03  4.930158E+04
        82   9  1.184253E+06  2.251452E+05  2.134189E+05 -1.159123E+05 -4.865360E+03  3.937023E+04
        82  10 -1.043839E+06 -3.219227E+05 -2.889046E+05 -1.155198E+05 -2.541529E-09 -6.179303E-10
        82  11 -8.464686E+05 -2.740454E+05 -2.487325E+05 -6.504239E+04 -2.392166E-09  4.899544E-10
        82  12 -6.478551E+05 -2.251191E+05 -2.063340E+05 -1.150550E+05  8.805481E-10 -1.059658E-09
        82  13  2.676905E+05  3.945554E+02  1.050282E+04 -1.154836E+05  1.990603E-11 -5.251451E-11
        82  14  2.671370E+05 -3.167407E+02  5.886370E+03 -6.524395E+04  1.615794E-09  4.637853E-10
        82  15  2.678104E+05  4.140895E+01  3.568527E+03 -1.154834E+05 -6.270464E-10  1.812036E-11
        82  16  1.580816E+06  3.225924E+05  3.097979E+05 -1.154471E+05  1.473026E-09  2.719236E-10
        82  17  1.381893E+06  2.733258E+05  2.604241E+05 -6.544569E+04  2.136264E-09  5.177067E-10
        82  18  1.184253E+06  2.251436E+05  2.134159E+05 -1.159122E+05 -6.415533E-10  5.155771E-10
        82  19 -1.043837E+06 -3.219189E+05 -2.888975E+05 -1.155190E+05 -1.567819E+04 -5.911755E+04
        82  20 -8.464678E+05 -2.740428E+05 -2.487277E+05 -6.504188E+04 -1.285936E+04 -4.930757E+04
        82  21 -6.478545E+05 -2.251174E+05 -2.063309E+05 -1.150547E+05 -1.002271E+04 -3.936449E+04
        82  22  2.676915E+05  3.983269E+02  1.050952E+04 -1.154832E+05 -8.449813E+03 -5.910894E+04
        82  23  2.671377E+05 -3.141218E+02  5.890996E+03 -6.524373E+04 -5.525431E+03 -4.930457E+04
        82  24  2.678108E+05  4.307518E+01  3.571452E+03 -1.154833E+05 -2.584122E+03 -3.936735E+04
        82  25  1.580817E+06  3.225962E+05  3.098044E+05 -1.154470E+05 -1.206263E+03 -5.910034E+04
        82  26  1.381893E+06  2.733284E+05  2.604286E+05 -6.544576E+04  1.821563E+03 -4.930158E+04
        82  27  1.184253E+06  2.251452E+05  2.134189E+05 -1.159123E+05  4.865360E+03 -3.937023E+04
        83   1 -4.634234E+05 -1.794071E+05 -1.637495E+05 -1.149226E+05  9.393240E+03  3.355348E+04
        83   2 -2.659020E+05 -1.310121E+05 -1.201178E+05 -6.485514E+04  8.486653E+03  2.361442E+04
        83   3 -6.828880E+04 -8.233328E+04 -7.585889E+04 -1.150422E+05  7.571625E+03  1.367419E+04
        83   4  2.676237E+05  1.298400E+02  2.780524E+03 -1.154322E+05  2.003569E+03  3.355902E+04
        83   5  2.676258E+05  8.492139E+01  1.823562E+03 -6.530753E+04  1.094074E+03  2.362262E+04
        83   6  2.676805E+05  3.259193E+02  1.496230E+03 -1.154321E+05  1.764213E+02  1.368522E+04
        83   7  9.991668E+05  1.796298E+05  1.692760E+05 -1.159423E+05 -5.394731E+03  3.356457E+04
        83   8  8.014175E+05  1.311622E+05  1.237465E+05 -6.576020E+04 -6.304805E+03  2.363084E+04
        83   9  6.037544E+05  8.297725E+04  7.884407E+04 -1.158221E+05 -7.222753E+03  1.369625E+04
        83  10 -4.634238E+05 -1.794083E+05 -1.637518E+05 -1.149228E+05 -5.770272E-11 -7.460331E-10
        83  11 -2.659023E+05 -1.310127E+05 -1.201190E+05 -6.485530E+04  2.598044E-09  8.173442E-10
        83  12 -6.828891E+04 -8.233349E+04 -7.585935E+04 -1.150423E+05  1.367071E-09  4.053389E-11
        83  13  2.676234E+05  1.286294E+02  2.778400E+03 -1.154323E+05 -1.179674E-09 -5.636863E-10
        83  14  2.676256E+05  8.432177E+01  1.822511E+03 -6.530755E+04  1.070121E-09  1.082964E-09
        83  15  2.676805E+05  3.257182E+02  1.495878E+03 -1.154321E+05 -1.391086E-09  3.029859E-10
        83  16  9.991664E+05  1.796286E+05  1.692738E+05 -1.159421E+05  1.743489E-09  7.392915E-10
        83  17  8.014173E+05  1.311616E+05  1.237454E+05 -6.576008E+04  1.528358E-10  8.580632E-11
        83  18  6.037543E+05  8.297704E+04  7.884362E+04 -1.158220E+05 -1.275409E-09  5.501691E-11
        83  19 -4.634234E+05 -1.794071E+05 -1.637495E+05 -1.149226E+05 -9.393240E+03 -3.355348E+04
        83  20 -2.659020E+05 -1.310121E+05 -1.201178E+05 -6.485514E+04 -8.486653E+03 -2.361442E+04
        83  21 -6.828880E+04 -8.233328E+04 -7.585889E+04 -1.150422E+05 -7.571625E+03 -1.367419E+04
        83  22  2.676237E+05  1.298400E+02  2.780524E+03 -1.154322E+05 -2.003569E+03 -3.355902E+04
        83  23  2.676258E+05  8.492139E+01  1.823562E+03 -6.530753E+04 -1.094074E+03 -2.362262E+04
        83  24  2.676805E+05  3.259193E+02  1.496230E+03 -1.154321E+05 -1.764213E+02 -1.368522E+04
        83  25  9.991668E+05  1.796298E+05  1.692760E+05 -1.159423E+05  5.394731E+03 -3.356457E+04
        83  26  8.014175E+05  1.311622E+05  1.237465E+05 -6.576020E+04  6.304805E+03 -2.363084E+04
        83  27  6.037544E+05  8.297725E+04  7.884407E+04 -1.158221E+05  7.222753E+03 -1.369625E+04
        84   1  1.161011E+05 -3.679295E+04 -3.257067E+04 -1.152420E+05  7.288971E+03  7.889855E+03
        84   2  3.136560E+05  1.145821E+04  1.231944E+04 -6.534760E+04  6.368887E+03 -2.042383E+03
        84   3  5.110972E+05  6.002415E+04  5.780221E+04 -1.156230E+05  5.449225E+03 -1.196978E+04
        84   4  2.676572E+05  3.230441E+02  1.483072E+03 -1.154145E+05 -1.052188E+02  7.901685E+03
        84   5  2.677299E+05  1.773768E+02  1.826099E+03 -6.532941E+04 -1.022735E+03 -2.030867E+03
        84   6  2.676522E+05  3.485425E+02  2.761788E+03 -1.154145E+05 -1.939546E+03 -1.195843E+04
        84   7  4.192348E+05  3.743750E+04  3.553556E+04 -1.155871E+05 -7.501195E+03  7.913518E+03
        84   8  2.218060E+05 -1.110358E+04 -8.667178E+03 -6.531123E+04 -8.413816E+03 -2.019351E+03
        84   9  2.426242E+04 -5.933111E+04 -5.228224E+04 -1.152060E+05 -9.325449E+03 -1.194708E+04
        84  10  1.161010E+05 -3.679303E+04 -3.257088E+04 -1.152420E+05 -1.388324E-10 -3.902184E-10
        84  11  3.136559E+05  1.145820E+04  1.231936E+04 -6.534759E+04 -4.772771E-10 -3.442538E-10
        84  12  5.110971E+05  6.002398E+04  5.780189E+04 -1.156229E+05  2.256529E-09 -8.870545E-10
        84  13  2.676572E+05  3.229771E+02  1.482955E+03 -1.154145E+05 -2.218660E-10  4.070585E-10
        84  14  2.677299E+05  1.773721E+02  1.826089E+03 -6.532941E+04 -8.080631E-12  1.667532E-10
        84  15  2.676522E+05  3.483879E+02  2.761513E+03 -1.154145E+05 -1.538393E-09 -5.088895E-10
        84  16  4.192347E+05  3.743742E+04  3.553533E+04 -1.155871E+05  1.851896E-09 -3.924919E-11
        84  17  2.218059E+05 -1.110360E+04 -8.667319E+03 -6.531124E+04 -1.094835E-09 -1.826320E-10
        84  18  2.426228E+04 -5.933128E+04 -5.228267E+04 -1.152061E+05 -2.106427E-09 -9.408512E-10
        84  19  1.161011E+05 -3.679295E+04 -3.257067E+04 -1.152420E+05 -7.288971E+03 -7.889855E+03
        84  20  3.136560E+05  1.145821E+04  1.231944E+04 -6.534760E+04 -6.368887E+03  2.042383E+03
        84  21  5.110972E+05  6.002415E+04  5.780221E+04 -1.156230E+05 -5.449225E+03  1.196978E+04
        84  22  2.676572E+05  3.230441E+02  1.483072E+03 -1.154145E+05  1.052188E+02 -7.901685E+03
        84  23  2.677299E+05  1.773768E+02  1.826099E+03 -6.532941E+04  1.022735E+03  2.030867E+03
        84  24  2.676522E+05  3.485425E+02  2.761788E+03 -1.154145E+05  1.939546E+03  1.195843E+04
        84  25  4.192348E+05  3.743750E+04  3.553556E+04 -1.155871E+05  7.501195E+03 -7.913518E+03
        84  26  2.218060E+05 -1.110358E+04 -8.667178E+03 -6.531123E+04  8.413816E+03  2.019351E+03
        84  27  2.426242E+04 -5.933111E+04 -5.228224E+04 -1.152060E+05  9.325449E+03  1.194708E+04
        85   1  6.957764E+05  1.054738E+05  1.018568E+05 -1.157183E+05  4.911298E+03 -1.776476E+04
        85   2  8.932202E+05  1.536199E+05  1.488015E+05 -6.574251E+04  1.891865E+03 -2.768092E+04
        85   3  1.091323E+06  2.029298E+05  1.979770E+05 -1.160342E+05 -1.118858E+03 -3.748641E+04
        85   4  2.677915E+05  2.572417E+02  3.521554E+03 -1.154377E+05 -2.516716E+03 -1.775446E+04
        85   5  2.674522E+05 -3.543551E+01  5.872455E+03 -6.530049E+04 -5.452021E+03 -2.767401E+04
        85   6  2.677245E+05  8.250350E+02  1.040028E+04 -1.154369E+05 -8.377679E+03 -3.748270E+04
        85   7 -1.600238E+05 -1.049720E+05 -9.482561E+04 -1.151573E+05 -9.939655E+03 -1.774417E+04
        85   8 -3.579532E+05 -1.537179E+05 -1.370820E+05 -6.485879E+04 -1.278858E+04 -2.766712E+04
        85   9 -5.552452E+05 -2.013266E+05 -1.772204E+05 -1.148402E+05 -1.562696E+04 -3.747900E+04
        85  10  6.957763E+05  1.054734E+05  1.018562E+05 -1.157182E+05 -8.860868E-10 -9.616246E-10
        85  11  8.932200E+05  1.536191E+05  1.488001E+05 -6.574247E+04 -2.596351E-10  4.412204E-10
        85  12  1.091322E+06  2.029283E+05  1.979744E+05 -1.160342E+05  2.272977E-09 -2.531172E-10
        85  13  2.677915E+05  2.569014E+02  3.520950E+03 -1.154378E+05 -1.227404E-09 -9.616099E-10
        85  14  2.674519E+05 -3.626600E+01  5.870960E+03 -6.530061E+04 -1.052717E-09  1.711072E-10
        85  15  2.677240E+05  8.235072E+02  1.039751E+04 -1.154371E+05 -3.701593E-10 -5.680517E-10
        85  16 -1.600240E+05 -1.049724E+05 -9.482639E+04 -1.151574E+05  1.529541E-09 -4.456549E-10
        85  17 -3.579536E+05 -1.537188E+05 -1.370837E+05 -6.485908E+04 -7.832572E-10  1.940343E-10
        85  18 -5.552458E+05 -2.013282E+05 -1.772235E+05 -1.148406E+05 -9.768082E-10 -3.839716E-10
        85  19  6.957764E+05  1.054738E+05  1.018568E+05 -1.157183E+05 -4.911298E+03  1.776476E+04
        85  20  8.932202E+05  1.536199E+05  1.488015E+05 -6.574251E+04 -1.891865E+03  2.768092E+04
        85  21  1.091323E+06  2.029298E+05  1.979770E+05 -1.160342E+05  1.118858E+03  3.748641E+04
        85  22  2.677915E+05  2.572417E+02  3.521554E+03 -1.154377E+05  2.516716E+03  1.775446E+04
        85  23  2.674522E+05 -3.543551E+01  5.872455E+03 -6.530049E+04  5.452021E+03  2.767401E+04
        85  24  2.677245E+05  8.250350E+02  1.040028E+04 -1.154369E+05  8.377679E+03  3.748270E+04
        85  25 -1.600238E+05 -1.049720E+05 -9.482561E+04 -1.151573E+05  9.939655E+03  1.774417E+04
        85  26 -3.579532E+05 -1.537179E+05 -1.370820E+05 -6.485879E+04  1.278858E+04  2.766712E+04
        85  27 -5.552452E+05 -2.013266E+05 -1.772204E+05 -1.148402E+05  1.562696E+04  3.747900E+04
        86   1  1.277358E+06  2.470644E+05  2.443266E+05 -1.140201E+05 -2.472170E+03 -4.355665E+04
        86   2  1.472854E+06  2.951095E+05  2.987151E+05 -6.639022E+04 -1.594521E+04 -5.310778E+04
        86   3  1.674199E+06  3.564685E+05  3.653388E+05 -1.191991E+05 -2.940603E+04 -6.023176E+04
        86   4  2.687301E+05 -6.407261E+02  1.349958E+04 -1.154770E+05 -1.048933E+04 -4.355537E+04
        86   5  2.659118E+05 -1.172393E+03  2.301832E+04 -6.525158E+04 -2.213336E+04 -5.311353E+04
        86   6  2.685990E+05  1.130961E+04  4.352148E+04 -1.154761E+05 -3.376092E+04 -6.024236E+04
        86   7 -7.389566E+05 -2.484165E+05 -2.173940E+05 -1.169313E+05 -1.849359E+04 -4.355406E+04
        86   8 -9.396821E+05 -2.975553E+05 -2.527736E+05 -6.411501E+04 -2.830958E+04 -5.311930E+04
        86   9 -1.135175E+06 -3.339865E+05 -2.784254E+05 -1.117616E+05 -3.810598E+04 -6.025303E+04
        86  10  1.277357E+06  2.470623E+05  2.443230E+05 -1.140202E+05 -7.653168E-10 -8.733614E-10
        86  11  1.472853E+06  2.951064E+05  2.987094E+05 -6.639090E+04 -2.622648E-10 -2.202214E-10
        86  12  1.674197E+06  3.564643E+05  3.653303E+05 -1.192005E+05  3.888596E-10  1.384612E-10
        86  13  2.687294E+05 -6.427931E+02  1.349581E+04 -1.154774E+05 -1.168227E-09 -4.808950E-10
        86  14  2.659105E+05 -1.175554E+03  2.301210E+04 -6.525252E+04 -1.608047E-09 -5.986423E-12
        86  15  2.685968E+05  1.130541E+04  4.351252E+04 -1.154778E+05  1.208084E-09  5.246024E-10
        86  16 -7.389575E+05 -2.484186E+05 -2.173982E+05 -1.169319E+05  7.874279E-10 -5.983106E-10
        86  17 -9.396837E+05 -2.975585E+05 -2.527804E+05 -6.411622E+04 -3.738654E-10  6.310810E-10
        86  18 -1.135177E+06 -3.339908E+05 -2.784350E+05 -1.117634E+05 -1.090774E-09  9.843318E-10
        86  19  1.277358E+06  2.470644E+05  2.443266E+05 -1.140201E+05  2.472170E+03  4.355665E+04
        86  20  1.472854E+06  2.951095E+05  2.987151E+05 -6.639022E+04  1.594521E+04  5.310778E+04
        86  21  1.674199E+06  3.564685E+05  3.653388E+05 -1.191991E+05  2.940603E+04  6.023176E+04
        86  22  2.687301E+05 -6.407261E+02  1.349958E+04 -1.154770E+05  1.048933E+04  4.355537E+04
        86  23  2.659118E+05 -1.172393E+03  2.301832E+04 -6.525158E+04  2.213336E+04  5.311353E+04
        86  24  2.685990E+05  1.130961E+04  4.352148E+04 -1.154761E+05  3.376092E+04  6.024236E+04
        86  25 -7.389566E+05 -2.484165E+05 -2.173940E+05 -1.169313E+05  1.849359E+04  4.355406E+04
        86  26 -9.396821E+05 -2.975553E+05 -2.527736E+05 -6.411501E+04  2.830958E+04  5.311930E+04
        86  27 -1.135175E+06 -3.339865E+05 -2.784254E+05 -1.117616E+05  3.810598E+04  6.025303E+04
        87   1  1.870928E+06  3.811310E+05  4.169224E+05 -9.016474E+04 -2.172258E+04 -7.183617E+04
        87   2  2.041626E+06  4.286515E+05  5.009115E+05 -8.605617E+04 -1.076486E+05 -7.344935E+04
        87   3  2.270871E+06  6.577371E+05  6.865277E+05 -1.813019E+05 -1.937094E+05 -2.430045E+04
        87   4  2.788191E+05 -9.472313E+03  5.419346E+04 -1.151595E+05 -4.173320E+04 -7.185955E+04
        87   5  2.526745E+05 -1.080688E+04  8.981963E+04 -6.562327E+04 -8.966918E+04 -7.344382E+04
        87   6  2.786118E+05  1.631138E+05  2.008899E+05 -1.154408E+05 -1.377080E+05 -2.421342E+04
        87   7 -1.310942E+06 -4.002485E+05 -3.086988E+05 -1.400899E+05 -6.169297E+04 -7.188136E+04
        87   8 -1.533321E+06 -4.504866E+05 -3.214822E+05 -4.525039E+04 -7.174071E+04 -7.343711E+04
        87   9 -1.710020E+06 -3.317834E+05 -2.850220E+05 -4.979228E+04 -8.188479E+04 -2.411443E+04
        87  10  1.870926E+06  3.811253E+05  4.169119E+05 -9.016600E+04  1.461025E-09  5.913879E-10
        87  11  2.041613E+06  4.286426E+05  5.008796E+05 -8.606253E+04 -2.430062E-09  6.611619E-10
        87  12  2.270830E+06  6.577264E+05  6.864563E+05 -1.813057E+05 -1.385780E-09 -8.132881E-11
        87  13  2.788158E+05 -9.478326E+03  5.418048E+04 -1.151619E+05 -9.668789E-10  5.622042E-10
        87  14  2.526644E+05 -1.081483E+04  8.979439E+04 -6.562857E+04  5.314694E-10 -7.086159E-12
        87  15  2.785913E+05  1.631080E+05  2.008532E+05 -1.154434E+05  3.152889E-10  5.627399E-11
        87  16 -1.310948E+06 -4.002551E+05 -3.087156E+05 -1.400935E+05 -9.595500E-10  6.017255E-10
        87  17 -1.533328E+06 -4.504938E+05 -3.215020E+05 -4.525464E+04 -1.539395E-09  2.755819E-10
        87  18 -1.710027E+06 -3.317858E+05 -2.850358E+05 -4.979388E+04  3.490620E-10 -1.288016E-10
        87  19  1.870928E+06  3.811310E+05  4.169224E+05 -9.016474E+04  2.172258E+04  7.183617E+04
        87  20  2.041626E+06  4.286515E+05  5.009115E+05 -8.605617E+04  1.076486E+05  7.344935E+04
        87  21  2.270871E+06  6.577371E+05  6.865277E+05 -1.813019E+05  1.937094E+05  2.430045E+04
        87  22  2.788191E+05 -9.472313E+03  5.419346E+04 -1.151595E+05  4.173320E+04  7.185955E+04
        87  23  2.526745E+05 -1.080688E+04  8.981963E+04 -6.562327E+04  8.966918E+04  7.344382E+04
        87  24  2.786118E+05  1.631138E+05  2.008899E+05 -1.154408E+05  1.377080E+05  2.421342E+04
        87  25 -1.310942E+06 -4.002485E+05 -3.086988E+05 -1.400899E+05  6.169297E+04  7.188136E+04
        87  26 -1.533321E+06 -4.504866E+05 -3.214822E+05 -4.525039E+04  7.174071E+04  7.343711E+04
        87  27 -1.710020E+06 -3.317834E+05 -2.850220E+05 -4.979228E+04  8.188479E+04  2.411443E+04
        88   1  6.984591E+04 -2.662786E+05  8.892580E+04 -1.486995E+05 -2.973795E+03  6.704858E+04
        88   2 -7.091045E+04 -4.744379E+05 -1.490820E+04 -7.426210E+04 -1.218036E+04  4.176182E+04
        88   3 -1.184003E+05 -6.570078E+05 -7.920402E+04 -9.875725E+04 -2.172461E+04  1.648462E+04
        88   4  8.781547E+04 -1.916968E+05  1.062092E+05 -1.126826E+05 -3.001879E+03  7.387414E+04
        88   5 -4.682541E+03 -2.044748E+05  4.677587E+04 -6.342871E+04 -1.221133E+04  4.883518E+04
        88   6 -3.972345E+03 -1.917378E+05  2.671186E+04 -1.130967E+05 -2.175651E+04  2.379828E+04
        88   7  1.057896E+05 -1.171069E+05  1.234931E+05 -7.666128E+04 -3.029170E+03  8.070053E+04
        88   8  6.154081E+04  6.555629E+04  1.084554E+05 -5.259050E+04 -1.224204E+04  5.591159E+04
        88   9  1.104413E+05  2.737337E+05  1.326140E+05 -1.274467E+05 -2.178874E+04  3.111737E+04
        88  10  6.984469E+04 -2.662834E+05  8.891733E+04 -1.486994E+05  2.945368E-10  2.660631E-09
        88  11 -7.091108E+04 -4.744398E+05 -1.491175E+04 -7.426169E+04  2.493477E-09 -2.868995E-11
        88  12 -1.184009E+05 -6.570082E+05 -7.920542E+04 -9.875696E+04  1.119239E-09 -2.767403E-09
        88  13  8.781400E+04 -1.917026E+05  1.061989E+05 -1.126824E+05 -1.593891E-09 -5.603215E-11
        88  14 -4.683342E+03 -2.044774E+05  4.677110E+04 -6.342823E+04  3.467603E-09 -3.542067E-11
        88  15 -3.973005E+03 -1.917385E+05  2.670991E+04 -1.130962E+05  1.372389E-09  4.575885E-11
        88  16  1.057878E+05 -1.171139E+05  1.234809E+05 -7.666108E+04 -7.571214E-10 -2.534810E-09
        88  17  6.153981E+04  6.555289E+04  1.084493E+05 -5.258995E+04 -6.689122E-10  9.777897E-11
        88  18  1.104406E+05  2.737326E+05  1.326112E+05 -1.274461E+05  2.238917E-10  2.870311E-09
        88  19  6.984591E+04 -2.662786E+05  8.892580E+04 -1.486995E+05  2.973795E+03 -6.704858E+04
        88  20 -7.091045E+04 -4.744379E+05 -1.490820E+04 -7.426210E+04  1.218036E+04 -4.176182E+04
        88  21 -1.184003E+05 -6.570078E+05 -7.920402E+04 -9.875725E+04  2.172461E+04 -1.648462E+04
        88  22  8.781547E+04 -1.916968E+05  1.062092E+05 -1.126826E+05  3.001879E+03 -7.387414E+04
        88  23 -4.682541E+03 -2.044748E+05  4.677587E+04 -6.342871E+04  1.221133E+04 -4.883518E+04
        88  24 -3.972345E+03 -1.917378E+05  2.671186E+04 -1.130967E+05  2.175651E+04 -2.379828E+04
        88  25  1.057896E+05 -1.171069E+05  1.234931E+05 -7.666128E+04  3.029170E+03 -8.070053E+04
        88  26  6.154081E+04  6.555629E+04  1.084554E+05 -5.259050E+04  1.224204E+04 -5.591159E+04
        88  27  1.104413E+05  2.737337E+05  1.326140E+05 -1.274467E+05  2.178874E+04 -3.111737E+04
        89   1 -1.521207E+05 -8.452040E+05 -1.282655E+05 -1.125955E+05 -2.770940E+04  1.216200E+04
        89   2 -2.072881E+05 -1.040965E+06 -1.854403E+05 -6.174435E+04 -3.717432E+04  9.802821E+03
        89   3 -2.576380E+05 -1.235753E+06 -2.400150E+05 -1.099349E+05 -4.465217E+04  7.463535E+03
        89   4  7.295230E+03 -1.971894E+05  2.043868E+04 -1.129865E+05 -2.774118E+04  1.995798E+04
        89   5  5.627267E+01 -1.978325E+05  7.509808E+03 -6.348863E+04 -3.719576E+04  1.611917E+04
        89   6 -2.107356E+03 -1.972802E+05 -1.788545E+03 -1.130238E+05 -4.466461E+04  1.229955E+04
        89   7  1.666819E+05  4.512145E+05  1.691154E+05 -1.133774E+05 -2.777295E+04  2.776203E+04
        89   8  2.073512E+05  6.459592E+05  2.004134E+05 -6.523462E+04 -3.721721E+04  2.244402E+04
        89   9  2.533481E+05  8.421926E+05  2.363669E+05 -1.161169E+05 -4.467708E+04  1.714359E+04
        89  10 -1.521216E+05 -8.452043E+05 -1.282673E+05 -1.125953E+05  2.747652E-10  4.481572E-10
        89  11 -2.072897E+05 -1.040965E+06 -1.854431E+05 -6.174406E+04 -2.764655E-10 -3.816962E-10
        89  12 -2.576402E+05 -1.235753E+06 -2.400188E+05 -1.099346E+05  5.149678E-10 -9.686662E-10
        89  13  7.294297E+03 -1.971901E+05  2.043649E+04 -1.129860E+05  1.587844E-09  1.124050E-10
        89  14  5.471748E+01 -1.978332E+05  7.506720E+03 -6.348814E+04  7.719885E-10  2.774085E-11
        89  15 -2.109538E+03 -1.972809E+05 -1.792578E+03 -1.130233E+05  1.509378E-09  5.035612E-11
        89  16  1.666809E+05  4.512135E+05  1.691126E+05 -1.133768E+05  3.028800E-10 -4.740681E-10
        89  17  2.073496E+05  6.459583E+05  2.004098E+05 -6.523395E+04  8.887196E-11  4.216216E-10
        89  18  2.533459E+05  8.421917E+05  2.363626E+05 -1.161163E+05 -1.313646E-09  1.063454E-09
        89  19 -1.521207E+05 -8.452040E+05 -1.282655E+05 -1.125955E+05  2.770940E+04 -1.216200E+04
        89  20 -2.072881E+05 -1.040965E+06 -1.854403E+05 -6.174435E+04  3.717432E+04 -9.802821E+03
        89  21 -2.576380E+05 -1.235753E+06 -2.400150E+05 -1.099349E+05  4.465217E+04 -7.463535E+03
        89  22  7.295230E+03 -1.971894E+05  2.043868E+04 -1.129865E+05  2.774118E+04 -1.995798E+04
        89  23  5.627267E+01 -1.978325E+05  7.509808E+03 -6.348863E+04  3.719576E+04 -1.611917E+04
        89  24 -2.107356E+03 -1.972802E+05 -1.788545E+03 -1.130238E+05  4.466461E+04 -1.229955E+04
        89  25  1.666819E+05  4.512145E+05  1.691154E+05 -1.133774E+05  2.777295E+04 -2.776203E+04
        89  26  2.073512E+05  6.459592E+05  2.004134E+05 -6.523462E+04  3.721721E+04 -2.244402E+04
        89  27  2.533481E+05  8.421926E+05  2.363669E+05 -1.161169E+05  4.467708E+04 -1.714359E+04
        90   1 -2.976068E+05 -1.420911E+06 -2.845306E+05 -1.047859E+05 -5.507180E+04 -4.832507E+03
        90   2 -3.463426E+05 -1.608934E+06 -3.413370E+05 -6.538444E+04 -5.803596E+04  3.451661E+04
        90   3 -4.335066E+05 -1.811270E+06 -4.333297E+05 -1.233325E+05 -1.928835E+04  7.394563E+04
        90   4  2.722156E+03 -1.996317E+05 -5.589250E+03 -1.126082E+05 -5.512369E+04  1.277867E+04
        90   5  1.827915E+03 -1.952374E+05 -1.560086E+04 -6.398216E+04 -5.798967E+04  2.118165E+04
        90   6 -3.206567E+04 -1.997827E+05 -3.925131E+04 -1.126962E+05 -1.918501E+04  2.967827E+04
        90   7  3.029478E+05  1.023033E+06  2.732558E+05 -1.204448E+05 -5.517597E+04  3.042423E+04
        90   8  3.498585E+05  1.220311E+06  3.100033E+05 -6.257530E+04 -5.794351E+04  7.816461E+03
        90   9  3.691846E+05  1.414081E+06  3.546449E+05 -1.020306E+05 -1.908334E+04 -1.470409E+04
        90  10 -2.976101E+05 -1.420912E+06 -2.845364E+05 -1.047861E+05 -4.494570E-10  1.112615E-09
        90  11 -3.463465E+05 -1.608936E+06 -3.413456E+05 -6.538282E+04 -6.438733E-10  4.975361E-10
        90  12 -4.335084E+05 -1.811276E+06 -4.333407E+05 -1.233313E+05  3.997611E-11 -2.965736E-10
        90  13  2.718849E+03 -1.996327E+05 -5.595266E+03 -1.126076E+05 -7.262847E-10 -1.998806E-11
        90  14  1.824184E+03 -1.952388E+05 -1.560802E+04 -6.398117E+04  1.579208E-10  1.506875E-12
        90  15 -3.206630E+04 -1.997837E+05 -3.925365E+04 -1.126957E+05 -1.200347E-10 -3.221511E-11
        90  16  3.029443E+05  1.023032E+06  2.732483E+05 -1.204434E+05 -4.504523E-10 -1.147067E-09
        90  17  3.498549E+05  1.220310E+06  3.099969E+05 -6.257494E+04 -1.006499E-09 -4.284148E-10
        90  18  3.691841E+05  1.414081E+06  3.546438E+05 -1.020308E+05  7.104157E-10  2.269385E-10
        90  19 -2.976068E+05 -1.420911E+06 -2.845306E+05 -1.047859E+05  5.507180E+04  4.832507E+03
        90  20 -3.463426E+05 -1.608934E+06 -3.413370E+05 -6.538444E+04  5.803596E+04 -3.451661E+04
        90  21 -4.335066E+05 -1.811270E+06 -4.333297E+05 -1.233325E+05  1.928835E+04 -7.394563E+04
        90  22  2.722156E+03 -1.996317E+05 -5.589250E+03 -1.126082E+05  5.512369E+04 -1.277867E+04
        90  23  1.827915E+03 -1.952374E+05 -1.560086E+04 -6.398216E+04  5.798967E+04 -2.118165E+04
        90  24 -3.206567E+04 -1.997827E+05 -3.925131E+04 -1.126962E+05  1.918501E+04 -2.967827E+04
        90  25  3.029478E+05  1.023033E+06  2.732558E+05 -1.204448E+05  5.517597E+04 -3.042423E+04
        90  26  3.498585E+05  1.220311E+06  3.100033E+05 -6.257530E+04  5.794351E+04 -7.816461E+03
        90  27  3.691846E+05  1.414081E+06  3.546449E+05 -1.020306E+05  1.908334E+04  1.470409E+04
        91   1 -3.998479E+06 -1.436453E+06 -8.835130E+05 -1.408045E+06 -3.018891E+05 -8.652992E+04
        91   2 -3.860014E+06 -1.001863E+06 -6.028550E+05 -1.374478E+06 -1.989997E+05  1.119323E+04
        91   3 -3.804045E+06 -9.337651E+05 -4.997470E+05 -1.317806E+06 -7.655896E+04  5.754010E+04
        91   4 -2.208712E+06 -6.436340E+05 -3.774672E+05 -8.020237E+05 -2.490408E+05 -6.653542E+04
        91   5 -2.150479E+06 -3.219452E+05 -1.610565E+05 -8.673523E+05 -1.815002E+05  1.779069E+04
        91   6 -2.167358E+06 -3.591922E+05 -9.369010E+04 -9.096764E+05 -9.445949E+04  5.076409E+04
        91   7 -4.158060E+05  1.497242E+05  1.282817E+05 -1.943001E+05 -1.960233E+05 -4.645250E+04
        91   8 -4.380651E+05  3.582599E+05  2.804987E+05 -3.589184E+05 -1.639471E+05  2.441102E+04
        91   9 -5.280327E+05  2.154778E+05  3.121636E+05 -5.006005E+05 -1.124118E+05  4.397151E+04
        91  10 -3.998579E+06 -1.436486E+06 -8.836997E+05 -1.408066E+06 -7.632566E-11 -4.019743E-10
        91  11 -3.860057E+06 -1.001873E+06 -6.029301E+05 -1.374477E+06  8.119584E-09  3.273968E-09
        91  12 -3.804052E+06 -9.337702E+05 -4.997643E+05 -1.317803E+06  1.086032E-08  6.333913E-09
        91  13 -2.208780E+06 -6.436555E+05 -3.775926E+05 -8.020371E+05  5.020401E-11 -9.199859E-12
        91  14 -2.150514E+06 -3.219544E+05 -1.611192E+05 -8.673497E+05  2.249153E-09  4.716410E-10
        91  15 -2.167368E+06 -3.591974E+05 -9.371173E+04 -9.096725E+05  2.197116E-09  2.210137E-09
        91  16 -4.158479E+05  1.497116E+05  1.282054E+05 -1.943074E+05  2.824312E-09  3.852001E-10
        91  17 -4.380942E+05  3.582520E+05  2.804470E+05 -3.589152E+05 -2.906292E-09 -1.985280E-09
        91  18 -5.280467E+05  2.154724E+05  3.121362E+05 -5.005966E+05 -8.104005E-09 -1.421548E-09
        91  19 -3.998479E+06 -1.436453E+06 -8.835130E+05 -1.408045E+06  3.018891E+05  8.652992E+04
        91  20 -3.860014E+06 -1.001863E+06 -6.028550E+05 -1.374478E+06  1.989997E+05 -1.119323E+04
        91  21 -3.804045E+06 -9.337651E+05 -4.997470E+05 -1.317806E+06  7.655896E+04 -5.754010E+04
        91  22 -2.208712E+06 -6.436340E+05 -3.774672E+05 -8.020237E+05  2.490408E+05  6.653542E+04
        91  23 -2.150479E+06 -3.219452E+05 -1.610565E+05 -8.673523E+05  1.815002E+05 -1.779069E+04
        91  24 -2.167358E+06 -3.591922E+05 -9.369010E+04 -9.096764E+05  9.445949E+04 -5.076409E+04
        91  25 -4.158060E+05  1.497242E+05  1.282817E+05 -1.943001E+05  1.960233E+05  4.645250E+04
        91  26 -4.380651E+05  3.582599E+05  2.804987E+05 -3.589184E+05  1.639471E+05 -2.441102E+04
        91  27 -5.280327E+05  2.154778E+05  3.121636E+05 -5.006005E+05  1.124118E+05 -4.397151E+04
        92   1 -3.620223E+06 -9.522228E+05 -4.488880E+05 -1.301149E+06 -7.587635E+04  4.591648E+04
        92   2 -3.503751E+06 -8.426982E+05 -3.744117E+05 -1.232631E+06 -5.299239E+04  4.947745E+04
        92   3 -3.342220E+06 -8.140429E+05 -3.222763E+05 -1.221795E+06 -2.906332E+04  5.023386E+04
        92   4 -2.154350E+06 -3.937049E+05 -7.518820E+04 -8.910861E+05 -7.807151E+04  4.507379E+04
        92   5 -2.175392E+06 -3.421576E+05 -3.774932E+04 -8.664784E+05 -5.708449E+04  4.792473E+04
        92   6 -2.150990E+06 -3.710589E+05 -2.110002E+04 -8.995567E+05 -3.505856E+04  4.797175E+04
        92   7 -6.863698E+05  1.649694E+05  2.983350E+05 -4.801357E+05 -8.027225E+04  4.422896E+04
        92   8 -8.452974E+05  1.585037E+05  2.987710E+05 -4.996101E+05 -6.118615E+04  4.636839E+04
        92   9 -9.583632E+05  7.201405E+04  2.799640E+05 -5.767565E+05 -4.106646E+04  4.570499E+04
        92  10 -3.620229E+06 -9.522266E+05 -4.489028E+05 -1.301147E+06 -9.114615E-09 -1.393957E-09
        92  11 -3.503755E+06 -8.427016E+05 -3.744215E+05 -1.232629E+06 -7.422804E-09 -1.364321E-09
        92  12 -3.342221E+06 -8.140459E+05 -3.222826E+05 -1.221794E+06  1.953671E-09 -9.571044E-11
        92  13 -2.154357E+06 -3.937087E+05 -7.520349E+04 -8.910833E+05  2.309307E-09  2.435892E-09
        92  14 -2.175396E+06 -3.421609E+05 -3.775976E+04 -8.664762E+05 -1.520810E-09  2.216128E-10
        92  15 -2.150992E+06 -3.710617E+05 -2.110664E+04 -8.995553E+05  1.697846E-09 -9.735468E-10
        92  16 -6.863773E+05  1.649656E+05  2.983193E+05 -4.801328E+05  1.088759E-08  6.202321E-09
        92  17 -8.453020E+05  1.585004E+05  2.987599E+05 -4.996079E+05  7.554194E-09  2.470944E-09
        92  18 -9.583656E+05  7.201136E+04  2.799569E+05 -5.767550E+05 -4.117057E-10 -1.084270E-09
        92  19 -3.620223E+06 -9.522228E+05 -4.488880E+05 -1.301149E+06  7.587635E+04 -4.591648E+04
        92  20 -3.503751E+06 -8.426982E+05 -3.744117E+05 -1.232631E+06  5.299239E+04 -4.947745E+04
        92  21 -3.342220E+06 -8.140429E+05 -3.222763E+05 -1.221795E+06  2.906332E+04 -5.023386E+04
        92  22 -2.154350E+06 -3.937049E+05 -7.518820E+04 -8.910861E+05  7.807151E+04 -4.507379E+04
        92  23 -2.175392E+06 -3.421576E+05 -3.774932E+04 -8.664784E+05  5.708449E+04 -4.792473E+04
        92  24 -2.150990E+06 -3.710589E+05 -2.110002E+04 -8.995567E+05  3.505856E+04 -4.797175E+04
        92  25 -6.863698E+05  1.649694E+05  2.983350E+05 -4.801357E+05  8.027225E+04 -4.422896E+04
        92  26 -8.452974E+05  1.585037E+05  2.987710E+05 -4.996101E+05  6.118615E+04 -4.636839E+04
        92  27 -9.583632E+05  7.201405E+04  2.799640E+05 -5.767565E+05  4.106646E+04 -4.570499E+04
        93   1 -3.194030E+06 -7.657970E+05 -2.801062E+05 -1.184647E+06 -2.501124E+04  4.625779E+04
        93   2 -3.074276E+06 -6.783418E+05 -2.353662E+05 -1.110422E+06 -1.756239E+04  4.028114E+04
        93   3 -2.896597E+06 -6.515067E+05 -1.944248E+05 -1.102913E+06 -1.003408E+04  3.405745E+04
        93   4 -2.149212E+06 -3.742451E+05 -1.624251E+04 -8.986667E+05 -3.027188E+04  4.427537E+04
        93   5 -2.177997E+06 -3.429474E+05 -8.759109E+03 -8.656680E+05 -2.298601E+04  3.824204E+04
        93   6 -2.148849E+06 -3.722295E+05 -4.938771E+03 -8.993875E+05 -1.562196E+04  3.196150E+04
        93   7 -1.103321E+06  1.737878E+04  2.475339E+05 -6.122481E+05 -3.554225E+04  4.228930E+04
        93   8 -1.280932E+06 -7.501505E+03  2.177832E+05 -6.205933E+05 -2.841821E+04  3.619973E+04
        93   9 -1.400555E+06 -9.291791E+04  1.845016E+05 -6.956400E+05 -2.121721E+04  2.986280E+04
        93  10 -3.194032E+06 -7.657994E+05 -2.801114E+05 -1.184646E+06  6.720108E-10 -8.199772E-10
        93  11 -3.074277E+06 -6.783436E+05 -2.353698E+05 -1.110421E+06  7.468402E-10  2.772678E-10
        93  12 -2.896597E+06 -6.515079E+05 -1.944272E+05 -1.102913E+06  5.759875E-11  5.767575E-10
        93  13 -2.149214E+06 -3.742475E+05 -1.624791E+04 -8.986656E+05  4.251517E-09  1.341642E-10
        93  14 -2.177998E+06 -3.429492E+05 -8.762846E+03 -8.656673E+05  2.770180E-09  1.007465E-09
        93  15 -2.148849E+06 -3.722307E+05 -4.941146E+03 -8.993871E+05 -1.358875E-10  2.661359E-10
        93  16 -1.103323E+06  1.737652E+04  2.475282E+05 -6.122468E+05  1.190641E-09  1.850253E-10
        93  17 -1.280933E+06 -7.503127E+03  2.177792E+05 -6.205925E+05 -1.085797E-09  6.503859E-10
        93  18 -1.400556E+06 -9.291899E+04  1.844991E+05 -6.956395E+05  5.487523E-10  3.460869E-10
        93  19 -3.194030E+06 -7.657970E+05 -2.801062E+05 -1.184647E+06  2.501124E+04 -4.625779E+04
        93  20 -3.074276E+06 -6.783418E+05 -2.353662E+05 -1.110422E+06  1.756239E+04 -4.028114E+04
        93  21 -2.896597E+06 -6.515067E+05 -1.944248E+05 -1.102913E+06  1.003408E+04 -3.405745E+04
        93  22 -2.149212E+06 -3.742451E+05 -1.624251E+04 -8.986667E+05  3.027188E+04 -4.427537E+04
        93  23 -2.177997E+06 -3.429474E+05 -8.759109E+03 -8.656680E+05  2.298601E+04 -3.824204E+04
        93  24 -2.148849E+06 -3.722295E+05 -4.938771E+03 -8.993875E+05  1.562196E+04 -3.196150E+04
        93  25 -1.103321E+06  1.737878E+04  2.475339E+05 -6.122481E+05  3.554225E+04 -4.228930E+04
        93  26 -1.280932E+06 -7.501505E+03  2.177832E+05 -6.205933E+05  2.841821E+04 -3.619973E+04
        93  27 -1.400555E+06 -9.291791E+04  1.845016E+05 -6.956400E+05  2.121721E+04 -2.986280E+04
        94   1 -2.746400E+06 -5.961534E+05 -1.544382E+05 -1.062734E+06 -7.549045E+03  2.963271E+04
        94   2 -2.623123E+06 -5.085180E+05 -1.148153E+05 -9.862833E+05 -3.244706E+03  2.201974E+04
        94   3 -2.439652E+06 -4.813415E+05 -7.616325E+04 -9.790456E+05  1.075689E+03  1.434506E+04
        94   4 -2.148385E+06 -3.727983E+05 -3.874013E+03 -8.996970E+05 -1.314394E+04  2.753642E+04
        94   5 -2.178430E+06 -3.424294E+05 -2.471690E+03 -8.651323E+05 -8.881171E+03  1.991018E+04
        94   6 -2.148303E+06 -3.725105E+05 -2.006820E+03 -8.997867E+05 -4.602758E+03  1.222225E+04
        94   7 -1.550013E+06 -1.494184E+05  1.466629E+05 -7.365159E+05 -1.874478E+04  2.543792E+04
        94   8 -1.733543E+06 -1.763285E+05  1.098560E+05 -7.439026E+05 -1.452205E+04  1.779897E+04
        94   9 -1.856875E+06 -2.636754E+05  7.214194E+04 -8.204949E+05 -1.028407E+04  1.009838E+04
        94  10 -2.746401E+06 -5.961544E+05 -1.544400E+05 -1.062734E+06 -1.761871E-09 -4.643484E-10
        94  11 -2.623123E+06 -5.085186E+05 -1.148163E+05 -9.862833E+05 -3.282470E-11  1.162372E-10
        94  12 -2.439652E+06 -4.813418E+05 -7.616364E+04 -9.790456E+05  7.023332E-10 -6.414461E-11
        94  13 -2.148385E+06 -3.727991E+05 -3.875761E+03 -8.996967E+05  1.889282E-09 -2.050720E-10
        94  14 -2.178430E+06 -3.424299E+05 -2.472583E+03 -8.651321E+05  5.877501E-10  3.050450E-10
        94  15 -2.148304E+06 -3.725107E+05 -2.007140E+03 -8.997866E+05  4.975934E-10  1.348253E-10
        94  16 -1.550014E+06 -1.494192E+05  1.466611E+05 -7.365155E+05  1.975821E-09  5.076141E-10
        94  17 -1.733543E+06 -1.763289E+05  1.098550E+05 -7.439024E+05  2.329358E-09  2.767395E-11
        94  18 -1.856875E+06 -2.636755E+05  7.214155E+04 -8.204948E+05 -2.086459E-10  7.231486E-10
        94  19 -2.746400E+06 -5.961534E+05 -1.544382E+05 -1.062734E+06  7.549045E+03 -2.963271E+04
        94  20 -2.623123E+06 -5.085180E+05 -1.148153E+05 -9.862833E+05  3.244706E+03 -2.201974E+04
        94  21 -2.439652E+06 -4.813415E+05 -7.616325E+04 -9.790456E+05 -1.075689E+03 -1.434506E+04
        94  22 -2.148385E+06 -3.727983E+05 -3.874013E+03 -8.996970E+05  1.314394E+04 -2.753642E+04
        94  23 -2.178430E+06 -3.424294E+05 -2.471690E+03 -8.651323E+05  8.881171E+03 -1.991018E+04
        94  24 -2.148303E+06 -3.725105E+05 -2.006820E+03 -8.997867E+05  4.602758E+03 -1.222225E+04
        94  25 -1.550013E+06 -1.494184E+05  1.466629E+05 -7.365159E+05  1.874478E+04 -2.543792E+04
        94  26 -1.733543E+06 -1.763285E+05  1.098560E+05 -7.439026E+05  1.452205E+04 -1.779897E+04
        94  27 -1.856875E+06 -2.636754E+05  7.214194E+04 -8.204949E+05  1.028407E+04 -1.009838E+04
        95   1 -2.287042E+06 -4.244009E+05 -3.657018E+04 -9.378162E+05  3.209543E+03  9.706562E+03
        95   2 -2.162457E+06 -3.362580E+05  1.301348E+03 -8.606372E+05  7.635023E+03  2.019170E+03
        95   3 -1.977343E+06 -3.091280E+05  3.809295E+04 -8.533588E+05  1.205823E+04 -5.660019E+03
        95   4 -2.148213E+06 -3.726351E+05 -2.067593E+03 -8.999339E+05 -2.485209E+03  7.578423E+03
        95   5 -2.178475E+06 -3.421936E+05 -2.736140E+03 -8.649539E+05  1.945150E+03 -1.073225E+02
        95   6 -2.148232E+06 -3.727679E+05 -4.486932E+03 -8.998845E+05  6.372839E+03 -7.784915E+03
        95   7 -2.009365E+06 -3.208677E+05  3.243383E+04 -8.620436E+05 -8.181383E+03  5.449751E+03
        95   8 -2.194494E+06 -3.481291E+05 -6.773550E+03 -8.692705E+05 -3.744613E+03 -2.233775E+03
        95   9 -2.319095E+06 -4.364067E+05 -4.706958E+04 -9.463991E+05  6.890887E+02 -9.909199E+03
        95  10 -2.287042E+06 -4.244010E+05 -3.657038E+04 -9.378162E+05  1.134938E-09 -7.861011E-11
        95  11 -2.162457E+06 -3.362580E+05  1.301230E+03 -8.606372E+05 -2.933279E-09 -1.302805E-09
        95  12 -1.977344E+06 -3.091281E+05  3.809262E+04 -8.533588E+05 -4.190947E-09 -1.106973E-09
        95  13 -2.148213E+06 -3.726351E+05 -2.067712E+03 -8.999338E+05 -1.620043E-09  1.734133E-10
        95  14 -2.178475E+06 -3.421936E+05 -2.736147E+03 -8.649539E+05 -4.293353E-09 -1.291755E-09
        95  15 -2.148232E+06 -3.727680E+05 -4.487122E+03 -8.998845E+05 -4.235329E-09 -1.247495E-09
        95  16 -2.009365E+06 -3.208677E+05  3.243365E+04 -8.620436E+05 -3.416318E-09 -2.615383E-10
        95  17 -2.194494E+06 -3.481292E+05 -6.773586E+03 -8.692705E+05 -5.652910E-09 -1.164846E-09
        95  18 -2.319095E+06 -4.364068E+05 -4.706976E+04 -9.463991E+05 -4.333957E-09 -7.970842E-10
        95  19 -2.287042E+06 -4.244009E+05 -3.657018E+04 -9.378162E+05 -3.209543E+03 -9.706562E+03
        95  20 -2.162457E+06 -3.362580E+05  1.301348E+03 -8.606372E+05 -7.635023E+03 -2.019170E+03
        95  21 -1.977343E+06 -3.091280E+05  3.809295E+04 -8.533588E+05 -1.205823E+04  5.660019E+03
        95  22 -2.148213E+06 -3.726351E+05 -2.067593E+03 -8.999339E+05  2.485209E+03 -7.578423E+03
        95  23 -2.178475E+06 -3.421936E+05 -2.736140E+03 -8.649539E+05 -1.945150E+03  1.073225E+02
        95  24 -2.148232E+06 -3.727679E+05 -4.486932E+03 -8.998845E+05 -6.372839E+03  7.784915E+03
        95  25 -2.009365E+06 -3.208677E+05  3.243383E+04 -8.620436E+05  8.181383E+03 -5.449751E+03
        95  26 -2.194494E+06 -3.481291E+05 -6.773550E+03 -8.692705E+05  3.744613E+03  2.233775E+03
        95  27 -2.319095E+06 -4.364067E+05 -4.706958E+04 -9.463991E+05 -6.890887E+02  9.909199E+03
        96   1 -1.825029E+06 -2.519974E+05  7.637159E+04 -8.122580E+05  1.470307E+04 -1.011406E+04
        96   2 -1.701618E+06 -1.643277E+05  1.100191E+05 -7.352966E+05  2.279795E+04 -1.634373E+04
        96   3 -1.519386E+06 -1.392011E+05  1.393021E+05 -7.270555E+05  3.083907E+04 -2.240539E+04
        96   4 -2.148541E+06 -3.724215E+05 -5.802335E+03 -8.998907E+05  9.000553E+03 -1.224621E+04
        96   5 -2.178106E+06 -3.422183E+05 -1.028807E+04 -8.651309E+05  1.720633E+04 -1.843695E+04
        96   6 -2.148893E+06 -3.745853E+05 -1.922734E+04 -8.991030E+05  2.535698E+04 -2.446005E+04
        96   7 -2.471946E+06 -4.928377E+05 -8.798353E+04 -9.874811E+05  3.301356E+03 -1.437713E+04
        96   8 -2.654368E+06 -5.200931E+05 -1.306124E+05 -9.948737E+05  1.161945E+04 -2.052841E+04
        96   9 -2.778011E+06 -6.099432E+05 -1.777879E+05 -1.070992E+06  1.988098E+04 -2.651242E+04
        96  10 -1.825029E+06 -2.519975E+05  7.637100E+04 -8.122578E+05 -2.853970E-09 -4.480670E-10
        96  11 -1.701618E+06 -1.643281E+05  1.100176E+05 -7.352963E+05 -4.845720E-10 -2.382237E-10
        96  12 -1.519387E+06 -1.392019E+05  1.392993E+05 -7.270550E+05 -4.233713E-10 -3.984543E-10
        96  13 -2.148541E+06 -3.724217E+05 -5.802769E+03 -8.998906E+05 -3.661553E-09 -5.860435E-10
        96  14 -2.178106E+06 -3.422187E+05 -1.028926E+04 -8.651306E+05  1.423483E-09  2.809105E-10
        96  15 -2.148894E+06 -3.745862E+05 -1.922968E+04 -8.991025E+05  3.764069E-11 -2.583367E-10
        96  16 -2.471946E+06 -4.928379E+05 -8.798393E+04 -9.874810E+05 -3.442877E-09 -9.018686E-10
        96  17 -2.654368E+06 -5.200936E+05 -1.306134E+05 -9.948735E+05  5.025205E-10 -6.467258E-10
        96  18 -2.778011E+06 -6.099440E+05 -1.777899E+05 -1.070991E+06  9.542529E-10 -8.081504E-11
        96  19 -1.825029E+06 -2.519974E+05  7.637159E+04 -8.122580E+05 -1.470307E+04  1.011406E+04
        96  20 -1.701618E+06 -1.643277E+05  1.100191E+05 -7.352966E+05 -2.279795E+04  1.634373E+04
        96  21 -1.519386E+06 -1.392011E+05  1.393021E+05 -7.270555E+05 -3.083907E+04  2.240539E+04
        96  22 -2.148541E+06 -3.724215E+05 -5.802335E+03 -8.998907E+05 -9.000553E+03  1.224621E+04
        96  23 -2.178106E+06 -3.422183E+05 -1.028807E+04 -8.651309E+05 -1.720633E+04  1.843695E+04
        96  24 -2.148893E+06 -3.745853E+05 -1.922734E+04 -8.991030E+05 -2.535698E+04  2.446005E+04
        96  25 -2.471946E+06 -4.928377E+05 -8.798353E+04 -9.874811E+05 -3.301356E+03  1.437713E+04
        96  26 -2.654368E+06 -5.200931E+05 -1.306124E+05 -9.948737E+05 -1.161945E+04  2.052841E+04
        96  27 -2.778011E+06 -6.099432E+05 -1.777879E+05 -1.070992E+06 -1.988098E+04  2.651242E+04
        97   1 -1.368507E+06 -8.301155E+04  1.722244E+05 -6.914965E+05  3.682863E+04 -2.577565E+04
        97   2 -1.249224E+06  7.975531E+03  1.897186E+05 -6.101815E+05  6.100583E+04 -2.540247E+04
        97   3 -1.084483E+06  1.159353E+04  1.836117E+05 -5.888669E+05  8.435586E+04 -2.277287E+04
        97   4 -2.150712E+06 -3.711712E+05 -2.501644E+04 -9.005639E+05  3.073341E+04 -2.806214E+04
        97   5 -2.175210E+06 -3.406436E+05 -4.463617E+04 -8.655813E+05  5.644230E+04 -2.711999E+04
        97   6 -2.154596E+06 -3.978309E+05 -8.910310E+04 -8.906155E+05  8.131799E+04 -2.392226E+04
        97   7 -2.932322E+06 -6.592971E+05 -2.223067E+05 -1.109395E+06  2.464657E+04 -3.034560E+04
        97   8 -3.100357E+06 -6.892048E+05 -2.790603E+05 -1.120635E+06  5.188619E+04 -2.883470E+04
        97   9 -3.223587E+06 -8.071674E+05 -3.619110E+05 -1.191887E+06  7.828577E+04 -2.506943E+04
        97  10 -1.368509E+06 -8.301262E+04  1.722206E+05 -6.914957E+05 -1.490330E-09 -6.985719E-10
        97  11 -1.249228E+06  7.973840E+03  1.897104E+05 -6.101803E+05 -3.308110E-10  5.820461E-11
        97  12 -1.084491E+06  1.159106E+04  1.835973E+05 -5.888654E+05 -6.874724E-11  6.408187E-11
        97  13 -2.150714E+06 -3.711723E+05 -2.501969E+04 -9.005632E+05  1.096815E-09 -2.350491E-10
        97  14 -2.175214E+06 -3.406453E+05 -4.464354E+04 -8.655801E+05 -1.339877E-10  1.918412E-10
        97  15 -2.154603E+06 -3.978333E+05 -8.911663E+04 -8.906140E+05 -9.366904E-10 -4.063130E-10
        97  16 -2.932323E+06 -6.592982E+05 -2.223096E+05 -1.109394E+06 -2.356949E-11  4.734916E-10
        97  17 -3.100360E+06 -6.892064E+05 -2.790669E+05 -1.120633E+06  6.371415E-10  5.371598E-10
        97  18 -3.223593E+06 -8.071697E+05 -3.619238E+05 -1.191885E+06 -7.596571E-11 -1.023495E-09
        97  19 -1.368507E+06 -8.301155E+04  1.722244E+05 -6.914965E+05 -3.682863E+04  2.577565E+04
        97  20 -1.249224E+06  7.975531E+03  1.897186E+05 -6.101815E+05 -6.100583E+04  2.540247E+04
        97  21 -1.084483E+06  1.159353E+04  1.836117E+05 -5.888669E+05 -8.435586E+04  2.277287E+04
        97  22 -2.150712E+06 -3.711712E+05 -2.501644E+04 -9.005639E+05 -3.073341E+04  2.806214E+04
        97  23 -2.175210E+06 -3.406436E+05 -4.463617E+04 -8.655813E+05 -5.644230E+04  2.711999E+04
        97  24 -2.154596E+06 -3.978309E+05 -8.910310E+04 -8.906155E+05 -8.131799E+04  2.392226E+04
        97  25 -2.932322E+06 -6.592971E+05 -2.223067E+05 -1.109395E+06 -2.464657E+04  3.034560E+04
        97  26 -3.100357E+06 -6.892048E+05 -2.790603E+05 -1.120635E+06 -5.188619E+04  2.883470E+04
        97  27 -3.223587E+06 -8.071674E+05 -3.619110E+05 -1.191887E+06 -7.828577E+04  2.506943E+04
        98   1 -9.139027E+05  6.445476E+04  1.966001E+05 -6.190624E+05  1.154986E+05 -2.189624E+04
        98   2 -8.171289E+05  2.246004E+05  1.544190E+05 -4.583756E+05  1.905388E+05  4.355245E+03
        98   3 -8.100188E+05 -2.963275E+04 -4.161422E+04 -2.651314E+05  2.498841E+05  7.227763E+04
        98   4 -2.169655E+06 -3.573328E+05 -1.110507E+05 -9.131530E+05  9.966954E+04 -2.784758E+04
        98   5 -2.146043E+06 -3.158463E+05 -1.906985E+05 -8.659120E+05  2.034909E+05  9.208809E+03
        98   6 -2.218156E+06 -6.949994E+05 -4.473299E+05 -7.860573E+05  2.915847E+05  8.794771E+04
        98   7 -3.423856E+06 -7.790872E+05 -4.188164E+05 -1.206735E+06  8.387552E+04 -3.378886E+04
        98   8 -3.473217E+06 -8.560895E+05 -5.359633E+05 -1.272624E+06  2.164123E+05  1.404854E+04
        98   9 -3.624325E+06 -1.359898E+06 -8.532299E+05 -1.305803E+06  3.331807E+05  1.035558E+05
        98  10 -9.139171E+05  6.445066E+04  1.965741E+05 -6.190603E+05 -1.501924E-09 -4.256888E-10
        98  11 -8.171679E+05  2.245906E+05  1.543506E+05 -4.583763E+05 -1.450865E-09  3.939236E-10
        98  12 -8.100873E+05 -2.965516E+04 -4.174156E+04 -2.651459E+05 -1.223796E-10  6.353357E-10
        98  13 -2.169666E+06 -3.573363E+05 -1.110709E+05 -9.131508E+05 -1.273616E-09 -3.495408E-10
        98  14 -2.146088E+06 -3.158575E+05 -1.907767E+05 -8.659135E+05 -1.369010E-09  1.930237E-10
        98  15 -2.218250E+06 -6.950306E+05 -4.475049E+05 -7.860780E+05 -5.253390E-11  2.800993E-10
        98  16 -3.423864E+06 -7.790903E+05 -4.188318E+05 -1.206733E+06  1.433534E-09 -2.811533E-10
        98  17 -3.473267E+06 -8.561024E+05 -5.360522E+05 -1.272626E+06  1.663657E-09 -6.776269E-10
        98  18 -3.624447E+06 -1.359940E+06 -8.534602E+05 -1.305830E+06  6.216144E-10  1.415676E-10
        98  19 -9.139027E+05  6.445476E+04  1.966001E+05 -6.190624E+05 -1.154986E+05  2.189624E+04
        98  20 -8.171289E+05  2.246004E+05  1.544190E+05 -4.583756E+05 -1.905388E+05 -4.355245E+03
        98  21 -8.100188E+05 -2.963275E+04 -4.161422E+04 -2.651314E+05 -2.498841E+05 -7.227763E+04
        98  22 -2.169655E+06 -3.573328E+05 -1.110507E+05 -9.131530E+05 -9.966954E+04  2.784758E+04
        98  23 -2.146043E+06 -3.158463E+05 -1.906985E+05 -8.659120E+05 -2.034909E+05 -9.208809E+03
        98  24 -2.218156E+06 -6.949994E+05 -4.473299E+05 -7.860573E+05 -2.915847E+05 -8.794771E+04
        98  25 -3.423856E+06 -7.790872E+05 -4.188164E+05 -1.206735E+06 -8.387552E+04  3.378886E+04
        98  26 -3.473217E+06 -8.560895E+05 -5.359633E+05 -1.272624E+06 -2.164123E+05 -1.404854E+04
        98  27 -3.624325E+06 -1.359898E+06 -8.532299E+05 -1.305803E+06 -3.331807E+05 -1.035558E+05
        99   1 -1.452786E+06 -2.415665E+05 -2.098646E+05 -1.982687E+04  5.194461E+04  1.737296E+04
        99   2 -1.358361E+06 -3.268212E+05 -2.387882E+05 -2.309659E+04  4.632868E+04  5.355676E+04
        99   3 -1.233853E+06 -2.992597E+05 -2.356484E+05 -8.054437E+04  4.078920E+04  5.400849E+04
        99   4 -4.253351E+04  1.093771E+05  1.345968E+05 -6.352672E+04  9.223984E+04  1.745438E+04
        99   5 -5.981200E+04 -7.146464E+03  6.020304E+04 -3.633419E+04  6.003011E+04  5.357075E+04
        99   6 -4.246370E+04 -6.363221E+03  3.629240E+04 -6.331002E+04  2.789979E+04  5.398786E+04
        99   7  1.369543E+06  4.601820E+05  4.789204E+05 -1.073272E+05  1.326264E+05  1.753003E+04
        99   8  1.240300E+06  3.124111E+05  3.590833E+05 -4.960036E+04  7.375992E+04  5.358415E+04
        99   9  1.150244E+06  2.864358E+05  3.081413E+05 -4.604256E+04  1.498577E+04  5.396655E+04
        99  10 -1.452789E+06 -2.415675E+05 -2.098703E+05 -1.982759E+04  1.167505E-09  3.205320E-10
        99  11 -1.358364E+06 -3.268249E+05 -2.387976E+05 -2.309859E+04 -6.319958E-10 -9.218775E-10
        99  12 -1.233856E+06 -2.992632E+05 -2.356570E+05 -8.054614E+04  1.097798E-09 -8.661372E-10
        99  13 -4.254273E+04  1.093744E+05  1.345802E+05 -6.352802E+04  2.991399E-10 -6.835860E-10
        99  14 -5.981664E+04 -7.150513E+03  6.019088E+04 -3.633678E+04 -1.076674E-09 -1.541907E-10
        99  15 -4.246532E+04 -6.366560E+03  3.628546E+04 -6.331124E+04  2.808380E-10 -4.464431E-10
        99  16  1.369524E+06  4.601770E+05  4.788869E+05 -1.073290E+05 -6.711792E-10  8.077512E-10
        99  17  1.240294E+06  3.124066E+05  3.590677E+05 -4.960354E+04 -2.078388E-09 -6.836029E-10
        99  18  1.150243E+06  2.864327E+05  3.081354E+05 -4.604321E+04 -6.331569E-10 -1.813970E-10
        99  19 -1.452786E+06 -2.415665E+05 -2.098646E+05 -1.982687E+04 -5.194461E+04 -1.737296E+04
        99  20 -1.358361E+06 -3.268212E+05 -2.387882E+05 -2.309659E+04 -4.632868E+04 -5.355676E+04
        99  21 -1.233853E+06 -2.992597E+05 -2.356484E+05 -8.054437E+04 -4.078920E+04 -5.400849E+04
        99  22 -4.253351E+04  1.093771E+05  1.345968E+05 -6.352672E+04 -9.223984E+04 -1.745438E+04
        99  23 -5.981200E+04 -7.146464E+03  6.020304E+04 -3.633419E+04 -6.003011E+04 -5.357075E+04
        99  24 -4.246370E+04 -6.363221E+03  3.629240E+04 -6.331002E+04 -2.789979E+04 -5.398786E+04
        99  25  1.369543E+06  4.601820E+05  4.789204E+05 -1.073272E+05 -1.326264E+05 -1.753003E+04
        99  26  1.240300E+06  3.124111E+05  3.590833E+05 -4.960036E+04 -7.375992E+04 -5.358415E+04
        99  27  1.150244E+06  2.864358E+05  3.081413E+05 -4.604256E+04 -1.498577E+04 -5.396655E+04
       100   1 -1.138268E+06 -2.603629E+05 -2.206617E+05 -6.167521E+04  2.449946E+04  4.672300E+04
       100   2 -1.030873E+06 -2.417476E+05 -2.087500E+05 -3.566627E+04  1.800313E+04  4.322308E+04
       100   3 -9.199276E+05 -2.146945E+05 -1.903645E+05 -6.502653E+04  1.149934E+04  3.800516E+04
       100   4 -4.926706E+04  7.551810E+03  2.915685E+04 -6.363682E+04  2.256813E+04  4.671554E+04
       100   5 -5.111629E+04 -8.361617E+02  1.541411E+04 -3.595260E+04  1.478294E+04  4.321678E+04
       100   6 -4.921012E+04 -5.699493E+02  9.031954E+03 -6.363187E+04  6.991416E+03  3.800125E+04
       100   7  1.040834E+06  2.753838E+05  2.788972E+05 -6.560208E+04  2.063341E+04  4.670810E+04
       100   8  9.295309E+05  2.400085E+05  2.395153E+05 -3.623946E+04  1.155770E+04  4.321048E+04
       100   9  8.222105E+05  2.135018E+05  2.083787E+05 -6.223522E+04  2.477214E+03  3.799732E+04
       100  10 -1.138270E+06 -2.603654E+05 -2.206669E+05 -6.167614E+04 -2.354078E-10 -5.656472E-10
       100  11 -1.030874E+06 -2.417497E+05 -2.087541E+05 -3.566690E+04 -1.229894E-09  5.462585E-10
       100  12 -9.199281E+05 -2.146961E+05 -1.903675E+05 -6.502688E+04  1.351579E-09 -3.974430E-10
       100  13 -4.926819E+04  7.549330E+03  2.915179E+04 -6.363767E+04 -9.391924E-10 -6.265009E-10
       100  14 -5.111703E+04 -8.382259E+02  1.541019E+04 -3.595312E+04 -1.968478E-11  7.769991E-10
       100  15 -4.921056E+04 -5.715131E+02  9.029149E+03 -6.363209E+04 -2.106599E-09 -3.075299E-10
       100  16  1.040833E+06  2.753813E+05  2.788923E+05 -6.560285E+04 -9.083015E-10 -1.272825E-10
       100  17  9.295303E+05  2.400065E+05  2.395115E+05 -3.623987E+04 -1.509867E-09 -5.013349E-10
       100  18  8.222101E+05  2.135003E+05  2.083759E+05 -6.223529E+04 -5.949887E-10  6.632506E-10
       100  19 -1.138268E+06 -2.603629E+05 -2.206617E+05 -6.167521E+04 -2.449946E+04 -4.672300E+04
       100  20 -1.030873E+06 -2.417476E+05 -2.087500E+05 -3.566627E+04 -1.800313E+04 -4.322308E+04
       100  21 -9.199276E+05 -2.146945E+05 -1.903645E+05 -6.502653E+04 -1.149934E+04 -3.800516E+04
       100  22 -4.926706E+04  7.551810E+03  2.915685E+04 -6.363682E+04 -2.256813E+04 -4.671554E+04
       100  23 -5.111629E+04 -8.361617E+02  1.541411E+04 -3.595260E+04 -1.478294E+04 -4.321678E+04
       100  24 -4.921012E+04 -5.699493E+02  9.031954E+03 -6.363187E+04 -6.991416E+03 -3.800125E+04
       100  25  1.040834E+06  2.753838E+05  2.788972E+05 -6.560208E+04 -2.063341E+04 -4.670810E+04
       100  26  9.295309E+05  2.400085E+05  2.395153E+05 -3.623946E+04 -1.155770E+04 -4.321048E+04
       100  27  8.222105E+05  2.135018E+05  2.083787E+05 -6.223522E+04 -2.477214E+03 -3.799732E+04
       101   1 -8.185530E+05 -1.885053E+05 -1.685443E+05 -6.357187E+04  9.565860E+03  3.460663E+04
       101   2 -7.095865E+05 -1.622393E+05 -1.468692E+05 -3.580974E+04  7.683241E+03  2.920060E+04
       101   3 -6.000082E+05 -1.352921E+05 -1.237562E+05 -6.350906E+04  5.794738E+03  2.371112E+04
       101   4 -4.986818E+04  4.133002E+02  6.962904E+03 -6.365406E+04  5.583114E+03  3.460422E+04
       101   5 -5.015438E+04 -1.353878E+02  3.917840E+03 -3.592522E+04  3.635962E+03  2.920003E+04
       101   6 -4.982943E+04  8.556266E+00  2.354656E+03 -6.365422E+04  1.683253E+03  2.371248E+04
       101   7  7.193649E+05  1.892909E+05  1.824315E+05 -6.373629E+04  1.595471E+03  3.460180E+04
       101   8  6.096810E+05  1.619383E+05  1.546765E+05 -3.604077E+04 -4.155842E+02  2.919946E+04
       101   9  5.006299E+05  1.352882E+05  1.284457E+05 -6.379945E+04 -2.431849E+03  2.371384E+04
       101  10 -8.185534E+05 -1.885066E+05 -1.685467E+05 -6.357214E+04 -3.839884E-10 -6.872871E-10
       101  11 -7.095867E+05 -1.622402E+05 -1.468709E+05 -3.580992E+04 -1.085400E-09  5.224356E-11
       101  12 -6.000084E+05 -1.352928E+05 -1.237573E+05 -6.350917E+04 -2.692645E-10  8.416944E-11
       101  13 -4.986853E+04  4.120060E+02  6.960595E+03 -6.365421E+04 -1.082174E-09 -3.033895E-10
       101  14 -5.015462E+04 -1.363069E+02  3.916213E+03 -3.592531E+04  5.511779E-10 -5.485874E-11
       101  15 -4.982959E+04  7.951722E+00  2.353594E+03 -6.365425E+04 -1.247227E-09  6.303421E-10
       101  16  7.193646E+05  1.892896E+05  1.824293E+05 -6.373634E+04 -7.267062E-10  6.370394E-10
       101  17  6.096808E+05  1.619374E+05  1.546749E+05 -3.604076E+04 -1.597214E-09 -7.261060E-10
       101  18  5.006298E+05  1.352876E+05  1.284446E+05 -6.379941E+04 -3.901017E-10 -3.213022E-10
       101  19 -8.185530E+05 -1.885053E+05 -1.685443E+05 -6.357187E+04 -9.565860E+03 -3.460663E+04
       101  20 -7.095865E+05 -1.622393E+05 -1.468692E+05 -3.580974E+04 -7.683241E+03 -2.920060E+04
       101  21 -6.000082E+05 -1.352921E+05 -1.237562E+05 -6.350906E+04 -5.794738E+03 -2.371112E+04
       101  22 -4.986818E+04  4.133002E+02  6.962904E+03 -6.365406E+04 -5.583114E+03 -3.460422E+04
       101  23 -5.015438E+04 -1.353878E+02  3.917840E+03 -3.592522E+04 -3.635962E+03 -2.920003E+04
       101  24 -4.982943E+04  8.556266E+00  2.354656E+03 -6.365422E+04 -1.683253E+03 -2.371248E+04
       101  25  7.193649E+05  1.892909E+05  1.824315E+05 -6.373629E+04 -1.595471E+03 -3.460180E+04
       101  26  6.096810E+05  1.619383E+05  1.546765E+05 -3.604077E+04  4.155842E+02 -2.919946E+04
       101  27  5.006299E+05  1.352882E+05  1.284457E+05 -6.379945E+04  2.431849E+03 -2.371384E+04
       102   1 -4.980029E+05 -1.100002E+05 -1.002799E+05 -6.344292E+04  5.389537E+03  2.049826E+04
       102   2 -3.886849E+05 -8.322678E+04 -7.622352E+04 -3.571722E+04  4.788844E+03  1.499874E+04
       102   3 -2.792999E+05 -5.631567E+04 -5.175540E+04 -6.347860E+04  4.185191E+03  9.494753E+03
       102   4 -4.992760E+04  6.919412E+01  1.844452E+03 -6.366025E+04  1.302134E+03  2.050051E+04
       102   5 -4.994661E+04  2.660581E+01  1.215897E+03 -3.591763E+04  6.974429E+02  1.500194E+04
       102   6 -4.990764E+04  1.235333E+02  1.002581E+03 -6.366022E+04  8.989480E+01  9.498942E+03
       102   7  3.983341E+05  1.101247E+05  1.039558E+05 -6.387769E+04 -2.788195E+03  2.050277E+04
       102   8  2.888981E+05  8.327203E+04  7.864786E+04 -3.611812E+04 -3.396173E+03  1.500514E+04
       102   9  1.795334E+05  5.655907E+04  5.375714E+04 -6.384190E+04 -4.006903E+03  9.503132E+03
       102  10 -4.980031E+05 -1.100007E+05 -1.002807E+05 -6.344300E+04  9.795927E-10  1.101280E-10
       102  11 -3.886850E+05 -8.322703E+04 -7.622399E+04 -3.571728E+04  5.837675E-12 -3.230562E-10
       102  12 -2.793000E+05 -5.631577E+04 -5.175560E+04 -6.347863E+04 -4.988684E-10 -3.907665E-10
       102  13 -4.992771E+04  6.874238E+01  1.843659E+03 -6.366027E+04  9.791207E-10 -4.114986E-10
       102  14 -4.994667E+04  2.636401E+01  1.215473E+03 -3.591764E+04  5.463051E-10  1.677913E-10
       102  15 -4.990767E+04  1.234364E+02  1.002411E+03 -6.366022E+04 -1.117661E-09 -2.798287E-10
       102  16  3.983339E+05  1.101242E+05  1.039550E+05 -6.387764E+04 -9.195461E-10 -5.721193E-11
       102  17  2.888980E+05  8.327178E+04  7.864742E+04 -3.611808E+04  1.618232E-09 -1.165031E-10
       102  18  1.795333E+05  5.655896E+04  5.375694E+04 -6.384187E+04 -6.970905E-10 -3.879000E-10
       102  19 -4.980029E+05 -1.100002E+05 -1.002799E+05 -6.344292E+04 -5.389537E+03 -2.049826E+04
       102  20 -3.886849E+05 -8.322678E+04 -7.622352E+04 -3.571722E+04 -4.788844E+03 -1.499874E+04
       102  21 -2.792999E+05 -5.631567E+04 -5.175540E+04 -6.347860E+04 -4.185191E+03 -9.494753E+03
       102  22 -4.992760E+04  6.919412E+01  1.844452E+03 -6.366025E+04 -1.302134E+03 -2.050051E+04
       102  23 -4.994661E+04  2.660581E+01  1.215897E+03 -3.591763E+04 -6.974429E+02 -1.500194E+04
       102  24 -4.990764E+04  1.235333E+02  1.002581E+03 -6.366022E+04 -8.989480E+01 -9.498942E+03
       102  25  3.983341E+05  1.101247E+05  1.039558E+05 -6.387769E+04  2.788195E+03 -2.050277E+04
       102  26  2.888981E+05  8.327203E+04  7.864786E+04 -3.611812E+04  3.396173E+03 -1.500514E+04
       102  27  1.795334E+05  5.655907E+04  5.375714E+04 -6.384190E+04  4.006903E+03 -9.503132E+03
       103   1 -1.771383E+05 -3.107774E+04 -2.775685E+04 -6.355534E+04  3.999454E+03  6.290021E+03
       103   2 -6.774054E+04 -4.319092E+03 -2.823501E+03 -3.587641E+04  3.372419E+03  7.863899E+02
       103   3  4.164876E+04  2.259374E+04  2.252332E+04 -6.369640E+04  2.745117E+03 -4.714412E+03
       103   4 -4.991647E+04  1.223066E+02  1.003908E+03 -6.366326E+04 -9.611733E+01  6.294536E+03
       103   5 -4.990515E+04  6.359112E+01  1.252919E+03 -3.591383E+04 -7.214318E+02  7.909311E+02
       103   6 -4.991540E+04  1.591158E+02  1.914310E+03 -6.366320E+04 -1.346904E+03 -4.709799E+03
       103   7  7.732047E+04  3.132125E+04  2.976369E+04 -6.377119E+04 -4.192520E+03  6.299052E+03
       103   8 -3.206942E+04  4.446261E+03  5.329381E+03 -3.595124E+04 -4.815399E+03  7.954728E+02
       103   9 -1.414717E+05 -2.227607E+04 -1.869517E+04 -6.363001E+04 -5.438328E+03 -4.705187E+03
       103  10 -1.771384E+05 -3.107779E+04 -2.775696E+04 -6.355536E+04  2.112522E-09  4.291947E-10
       103  11 -6.774055E+04 -4.319095E+03 -2.823524E+03 -3.587642E+04  1.245439E-09  9.271112E-10
       103  12  4.164874E+04  2.259372E+04  2.252326E+04 -6.369639E+04  1.613594E-09 -1.217265E-09
       103  13 -4.991648E+04  1.222641E+02  1.003833E+03 -6.366326E+04 -1.380899E-10  2.081147E-10
       103  14 -4.990515E+04  6.359031E+01  1.252917E+03 -3.591383E+04  2.139985E-09 -7.076233E-10
       103  15 -4.991541E+04  1.590915E+02  1.914265E+03 -6.366321E+04 -5.907733E-10  1.490775E-10
       103  16  7.732044E+04  3.132120E+04  2.976358E+04 -6.377117E+04 -3.115556E-09  5.305165E-10
       103  17 -3.206945E+04  4.446254E+03  5.329337E+03 -3.595124E+04  4.221718E-10 -2.790555E-10
       103  18 -1.414718E+05 -2.227611E+04 -1.869527E+04 -6.363003E+04 -1.456802E-09  5.738257E-10
       103  19 -1.771383E+05 -3.107774E+04 -2.775685E+04 -6.355534E+04 -3.999454E+03 -6.290021E+03
       103  20 -6.774054E+04 -4.319092E+03 -2.823501E+03 -3.587641E+04 -3.372419E+03 -7.863899E+02
       103  21  4.164876E+04  2.259374E+04  2.252332E+04 -6.369640E+04 -2.745117E+03  4.714412E+03
       103  22 -4.991647E+04  1.223066E+02  1.003908E+03 -6.366326E+04  9.611733E+01 -6.294536E+03
       103  23 -4.990515E+04  6.359112E+01  1.252919E+03 -3.591383E+04  7.214318E+02 -7.909311E+02
       103  24 -4.991540E+04  1.591158E+02  1.914310E+03 -6.366320E+04  1.346904E+03  4.709799E+03
       103  25  7.732047E+04  3.132125E+04  2.976369E+04 -6.377119E+04  4.192520E+03 -6.299052E+03
       103  26 -3.206942E+04  4.446261E+03  5.329381E+03 -3.595124E+04  4.815399E+03 -7.954728E+02
       103  27 -1.414717E+05 -2.227607E+04 -1.869517E+04 -6.363001E+04  5.438328E+03  4.705187E+03
       104   1  1.439334E+05  4.776449E+04  4.704120E+04 -6.367930E+04  2.368048E+03 -7.924760E+03
       104   2  2.531340E+05  7.445622E+04  7.338318E+04 -3.606628E+04  2.762316E+02 -1.341608E+04
       104   3  3.627362E+05  1.019130E+05  1.012585E+05 -6.394021E+04 -1.813349E+03 -1.884442E+04
       104   4 -4.983267E+04  9.359184E+01  2.440043E+03 -6.366112E+04 -1.743136E+03 -7.920388E+03
       104   5 -5.003284E+04 -2.628813E+01  4.099547E+03 -3.591655E+04 -3.787493E+03 -1.341264E+04
       104   6 -4.985045E+04  6.117437E+02  7.260678E+03 -6.366057E+04 -5.829254E+03 -1.884186E+04
       104   7 -2.435639E+05 -4.757992E+04 -4.216354E+04 -6.364292E+04 -5.853047E+03 -7.916015E+03
       104   8 -3.531145E+05 -7.451517E+04 -6.519004E+04 -3.576686E+04 -7.849251E+03 -1.340920E+04
       104   9 -4.622792E+05 -1.007013E+05 -8.674818E+04 -6.338108E+04 -9.842514E+03 -1.883929E+04
       104  10  1.439333E+05  4.776442E+04  4.704107E+04 -6.367929E+04 -8.057337E-10 -1.036417E-09
       104  11  2.531340E+05  7.445602E+04  7.338284E+04 -3.606628E+04 -2.486455E-10  2.061253E-10
       104  12  3.627361E+05  1.019126E+05  1.012578E+05 -6.394024E+04  1.169330E-09 -3.870795E-10
       104  13 -4.983269E+04  9.352366E+01  2.439920E+03 -6.366113E+04 -1.184788E-10  3.676467E-10
       104  14 -5.003290E+04 -2.648516E+01  4.099182E+03 -3.591659E+04 -1.624751E-09 -4.233182E-10
       104  15 -4.985058E+04  6.113534E+02  7.259947E+03 -6.366066E+04 -2.540564E-09 -8.183807E-10
       104  16 -2.435640E+05 -4.758000E+04 -4.216372E+04 -6.364296E+04  4.251519E-10  7.054655E-10
       104  17 -3.531146E+05 -7.451538E+04 -6.519050E+04 -3.576695E+04 -2.539627E-09  9.663222E-10
       104  18 -4.622794E+05 -1.007017E+05 -8.674903E+04 -6.338123E+04 -8.001280E-10 -1.755606E-10
       104  19  1.439334E+05  4.776449E+04  4.704120E+04 -6.367930E+04 -2.368048E+03  7.924760E+03
       104  20  2.531340E+05  7.445622E+04  7.338318E+04 -3.606628E+04 -2.762316E+02  1.341608E+04
       104  21  3.627362E+05  1.019130E+05  1.012585E+05 -6.394021E+04  1.813349E+03  1.884442E+04
       104  22 -4.983267E+04  9.359184E+01  2.440043E+03 -6.366112E+04  1.743136E+03  7.920388E+03
       104  23 -5.003284E+04 -2.628813E+01  4.099547E+03 -3.591655E+04  3.787493E+03  1.341264E+04
       104  24 -4.985045E+04  6.117437E+02  7.260678E+03 -6.366057E+04  5.829254E+03  1.884186E+04
       104  25 -2.435639E+05 -4.757992E+04 -4.216354E+04 -6.364292E+04  5.853047E+03  7.916015E+03
       104  26 -3.531145E+05 -7.451517E+04 -6.519004E+04 -3.576686E+04  7.849251E+03  1.340920E+04
       104  27 -4.622792E+05 -1.007013E+05 -8.674818E+04 -6.338108E+04  9.842514E+03  1.883929E+04
       105   1  4.656248E+05  1.261020E+05  1.273273E+05 -6.251262E+04 -2.884864E+03 -2.219410E+04
       105   2  5.731776E+05  1.526444E+05  1.587773E+05 -3.683142E+04 -1.200435E+04 -2.747386E+04
       105   3  6.843846E+05  1.884283E+05  1.984998E+05 -6.656765E+04 -2.112010E+04 -3.145493E+04
       105   4 -4.918511E+04 -4.149089E+02  9.410099E+03 -6.364677E+04 -7.299342E+03 -2.219207E+04
       105   5 -5.094326E+04 -6.747825E+02  1.610862E+04 -3.593484E+04 -1.544464E+04 -2.747418E+04
       105   6 -4.922120E+04  8.144682E+03  3.041039E+04 -6.364345E+04 -2.358465E+04 -3.145703E+04
       105   7 -5.637496E+05 -1.269503E+05 -1.085244E+05 -6.477993E+04 -1.171019E+04 -2.219003E+04
       105   8 -6.747033E+05 -1.540210E+05 -1.265856E+05 -3.503912E+04 -1.888151E+04 -2.747452E+04
       105   9 -7.823289E+05 -1.721764E+05 -1.377144E+05 -6.072268E+04 -2.604629E+04 -3.145916E+04
       105  10  4.656246E+05  1.261015E+05  1.273263E+05 -6.251267E+04 -2.378910E-10  3.466338E-11
       105  11  5.731773E+05  1.526435E+05  1.587757E+05 -3.683169E+04 -1.233985E-09  1.856053E-10
       105  12  6.843839E+05  1.884271E+05  1.984971E+05 -6.656819E+04  5.858681E-10  1.089936E-10
       105  13 -4.918530E+04 -4.154520E+02  9.409074E+03 -6.364691E+04 -2.246059E-09  1.724497E-10
       105  14 -5.094372E+04 -6.756571E+02  1.610676E+04 -3.593518E+04 -1.056065E-09  1.113067E-09
       105  15 -4.922207E+04  8.143470E+03  3.040749E+04 -6.364405E+04 -2.867932E-09  1.055630E-10
       105  16 -5.637498E+05 -1.269509E+05 -1.085256E+05 -6.478013E+04  1.738560E-10  3.303090E-10
       105  17 -6.747039E+05 -1.540219E+05 -1.265877E+05 -3.503953E+04 -2.410457E-09  7.442657E-10
       105  18 -7.823299E+05 -1.721776E+05 -1.377175E+05 -6.072334E+04 -1.262849E-09  3.533894E-10
       105  19  4.656248E+05  1.261020E+05  1.273273E+05 -6.251262E+04  2.884864E+03  2.219410E+04
       105  20  5.731776E+05  1.526444E+05  1.587773E+05 -3.683142E+04  1.200435E+04  2.747386E+04
       105  21  6.843846E+05  1.884283E+05  1.984998E+05 -6.656765E+04  2.112010E+04  3.145493E+04
       105  22 -4.918511E+04 -4.149089E+02  9.410099E+03 -6.364677E+04  7.299342E+03  2.219207E+04
       105  23 -5.094326E+04 -6.747825E+02  1.610862E+04 -3.593484E+04  1.544464E+04  2.747418E+04
       105  24 -4.922120E+04  8.144682E+03  3.041039E+04 -6.364345E+04  2.358465E+04  3.145703E+04
       105  25 -5.637496E+05 -1.269503E+05 -1.085244E+05 -6.477993E+04  1.171019E+04  2.219003E+04
       105  26 -6.747033E+05 -1.540210E+05 -1.265856E+05 -3.503912E+04  1.888151E+04  2.747452E+04
       105  27 -7.823289E+05 -1.721764E+05 -1.377144E+05 -6.072268E+04  2.604629E+04  3.145916E+04
       106   1  7.940451E+05  1.989448E+05  2.285180E+05 -4.650693E+04 -1.838312E+04 -3.773285E+04
       106   2  8.841862E+05  2.249784E+05  2.799956E+05 -5.149962E+04 -7.207477E+04 -3.873273E+04
       106   3  1.013244E+06  3.766972E+05  3.979249E+05 -1.109497E+05 -1.257974E+05 -1.273967E+04
       106   4 -4.215281E+04 -6.353256E+03  3.784552E+04 -6.341569E+04 -2.915045E+04 -3.773535E+04
       106   5 -5.991000E+04 -7.163897E+03  6.284814E+04 -3.621904E+04 -6.269223E+04 -3.873528E+04
       106   6 -4.220243E+04  1.143141E+05  1.403745E+05 -6.347728E+04 -9.625370E+04 -1.272953E+04
       106   7 -8.777019E+05 -2.116986E+05 -1.528719E+05 -8.030146E+04 -3.990340E+04 -3.773728E+04
       106   8 -1.003181E+06 -2.393675E+05 -1.543578E+05 -2.096192E+04 -5.332377E+04 -3.873737E+04
       106   9 -1.096627E+06 -1.481422E+05 -1.172524E+05 -1.608577E+04 -6.675990E+04 -1.271488E+04
       106  10  7.940443E+05  1.989432E+05  2.285147E+05 -4.650749E+04 -2.094042E-09 -7.387187E-11
       106  11  8.841802E+05  2.249754E+05  2.799830E+05 -5.150186E+04  1.784546E-09 -1.985813E-10
       106  12  1.013227E+06  3.766928E+05  3.978949E+05 -1.109510E+05  2.886285E-10 -2.921761E-10
       106  13 -4.215410E+04 -6.355013E+03  3.784125E+04 -6.341658E+04 -3.241622E-09 -8.484959E-11
       106  14 -5.991463E+04 -7.166564E+03  6.283794E+04 -3.622100E+04 -4.076067E-11  5.176872E-10
       106  15 -4.221242E+04  1.143114E+05  1.403568E+05 -6.347826E+04  1.892294E-09 -1.612372E-10
       106  16 -8.777040E+05 -2.117006E+05 -1.528776E+05 -8.030268E+04 -1.241313E-09  1.517997E-11
       106  17 -1.003185E+06 -2.393699E+05 -1.543660E+05 -2.096358E+04 -1.722817E-09  1.118608E-10
       106  18 -1.096632E+06 -1.481435E+05 -1.172611E+05 -1.608646E+04 -5.687232E-10 -3.337712E-10
       106  19  7.940451E+05  1.989448E+05  2.285180E+05 -4.650693E+04  1.838312E+04  3.773285E+04
       106  20  8.841862E+05  2.249784E+05  2.799956E+05 -5.149962E+04  7.207477E+04  3.873273E+04
       106  21  1.013244E+06  3.766972E+05  3.979249E+05 -1.109497E+05  1.257974E+05  1.273967E+04
       106  22 -4.215281E+04 -6.353256E+03  3.784552E+04 -6.341569E+04  2.915045E+04  3.773535E+04
       106  23 -5.991000E+04 -7.163897E+03  6.284814E+04 -3.621904E+04  6.269223E+04  3.873528E+04
       106  24 -4.220243E+04  1.143141E+05  1.403745E+05 -6.347728E+04  9.625370E+04  1.272953E+04
       106  25 -8.777019E+05 -2.116986E+05 -1.528719E+05 -8.030146E+04  3.990340E+04  3.773728E+04
       106  26 -1.003181E+06 -2.393675E+05 -1.543578E+05 -2.096192E+04  5.332377E+04  3.873737E+04
       106  27 -1.096627E+06 -1.481422E+05 -1.172524E+05 -1.608577E+04  6.675990E+04  1.271488E+04
       107   1  4.235177E+05  1.204951E+06  4.295048E+05 -3.845784E+05  1.097813E+04  1.788187E+05
       107   2  2.224270E+05  9.007786E+05  2.448202E+05 -2.985381E+05  3.350614E+04  8.936147E+04
       107   3  1.235765E+05  6.335051E+05  1.438188E+05 -2.765391E+05  2.910224E+04 -1.189437E+02
       107   4  1.586003E+05  1.373224E+05  1.751143E+05 -2.843633E+05  1.118353E+04  1.194999E+05
       107   5  3.500531E+04  1.228328E+05  8.682344E+04 -2.525794E+05  3.356085E+04  7.475965E+04
       107   6  5.970796E+03  1.374745E+05  5.126051E+04 -2.848155E+05  2.900635E+04  2.995245E+04
       107   7 -1.063607E+05 -9.292333E+05 -7.933783E+04 -1.843201E+05  1.137003E+04  6.028241E+04
       107   8 -1.524463E+05 -6.545330E+05 -7.120302E+04 -2.066787E+05  3.361344E+04  6.017573E+04
       107   9 -1.116483E+05 -3.583160E+05 -4.130486E+04 -2.930849E+05  2.890962E+04  6.000045E+04
       107  10  4.235090E+05  1.204916E+06  4.294446E+05 -3.845800E+05  1.220907E-09  1.962175E-09
       107  11  2.224237E+05  9.007697E+05  2.448031E+05 -2.985405E+05  3.172207E-09  1.958005E-09
       107  12  1.235756E+05  6.335048E+05  1.438172E+05 -2.765391E+05  5.945436E-10 -2.527549E-09
       107  13  1.585963E+05  1.373070E+05  1.750872E+05 -2.843644E+05 -1.139924E-09 -6.069793E-10
       107  14  3.500260E+04  1.228265E+05  8.681082E+04 -2.525814E+05  1.182636E-09  6.822589E-10
       107  15  5.969651E+03  1.374733E+05  5.125724E+04 -2.848162E+05  2.216157E-09  7.100782E-10
       107  16 -1.063619E+05 -9.292373E+05 -7.934491E+04 -1.843207E+05 -3.799748E-10 -1.936841E-09
       107  17 -1.524485E+05 -6.545372E+05 -7.121195E+04 -2.066803E+05 -1.490063E-09 -8.805591E-10
       107  18 -1.116502E+05 -3.583201E+05 -4.131321E+04 -2.930863E+05 -3.625865E-10  2.759399E-09
       107  19  4.235177E+05  1.204951E+06  4.295048E+05 -3.845784E+05 -1.097813E+04 -1.788187E+05
       107  20  2.224270E+05  9.007786E+05  2.448202E+05 -2.985381E+05 -3.350614E+04 -8.936147E+04
       107  21  1.235765E+05  6.335051E+05  1.438188E+05 -2.765391E+05 -2.910224E+04  1.189437E+02
       107  22  1.586003E+05  1.373224E+05  1.751143E+05 -2.843633E+05 -1.118353E+04 -1.194999E+05
       107  23  3.500531E+04  1.228328E+05  8.682344E+04 -2.525794E+05 -3.356085E+04 -7.475965E+04
       107  24  5.970796E+03  1.374745E+05  5.126051E+04 -2.848155E+05 -2.900635E+04 -2.995245E+04
       107  25 -1.063607E+05 -9.292333E+05 -7.933783E+04 -1.843201E+05 -1.137003E+04 -6.028241E+04
       107  26 -1.524463E+05 -6.545330E+05 -7.120302E+04 -2.066787E+05 -3.361344E+04 -6.017573E+04
       107  27 -1.116483E+05 -3.583160E+05 -4.130486E+04 -2.930849E+05 -2.890962E+04 -6.000045E+04
       108   1  8.165797E+04  4.394151E+05  9.939991E+04 -2.893167E+05  1.793863E+04 -4.204714E+03
       108   2  8.287515E+03  1.518719E+05  3.477756E+04 -2.526074E+05  1.594207E+03 -1.985610E+04
       108   3 -5.690282E+04 -1.319635E+05 -1.774107E+04 -2.816499E+05 -1.484012E+04 -3.550115E+04
       108   4  8.622183E+03  1.318296E+05  4.185158E+04 -2.851400E+05  1.785004E+04  2.287812E+04
       108   5  3.155016E+03  1.300294E+05  3.096555E+04 -2.522694E+05  1.505005E+03  7.374536E+03
       108   6  5.847385E+03  1.318339E+05  3.208449E+04 -2.851491E+05 -1.492992E+04 -8.129494E+03
       108   7 -6.441862E+04 -1.756628E+05 -1.569807E+04 -2.809653E+05  1.776178E+04  4.994787E+04
       108   8 -1.977110E+03  1.081890E+05  2.715630E+04 -2.519314E+05  1.415830E+03  3.460424E+04
       108   9  6.859398E+04  3.957000E+05  8.190980E+04 -2.886497E+05 -1.502001E+04  1.925351E+04
       108  10  8.165762E+04  4.394150E+05  9.939927E+04 -2.893167E+05  7.901192E-10  1.535030E-09
       108  11  8.287406E+03  1.518715E+05  3.477681E+04 -2.526073E+05  3.029760E-09  2.155829E-09
       108  12 -5.690340E+04 -1.319649E+05 -1.774385E+04 -2.816504E+05  1.010288E-09 -1.800527E-09
       108  13  8.621700E+03  1.318290E+05  4.184999E+04 -2.851403E+05  2.167762E-09 -7.359192E-10
       108  14  3.154999E+03  1.300293E+05  3.096544E+04 -2.522694E+05  4.254759E-09  8.571909E-10
       108  15  5.847128E+03  1.318338E+05  3.208395E+04 -2.851492E+05  9.735105E-10  8.631925E-10
       108  16 -6.441963E+04 -1.756656E+05 -1.570335E+04 -2.809660E+05  3.319263E-10 -1.536617E-09
       108  17 -1.977434E+03  1.081877E+05  2.715405E+04 -2.519314E+05  1.804765E-10 -9.736091E-10
       108  18  6.859363E+04  3.956996E+05  8.190868E+04 -2.886494E+05  8.059317E-10  2.163459E-09
       108  19  8.165797E+04  4.394151E+05  9.939991E+04 -2.893167E+05 -1.793863E+04  4.204714E+03
       108  20  8.287515E+03  1.518719E+05  3.477756E+04 -2.526074E+05 -1.594207E+03  1.985610E+04
       108  21 -5.690282E+04 -1.319635E+05 -1.774107E+04 -2.816499E+05  1.484012E+04  3.550115E+04
       108  22  8.622183E+03  1.318296E+05  4.185158E+04 -2.851400E+05 -1.785004E+04 -2.287812E+04
       108  23  3.155016E+03  1.300294E+05  3.096555E+04 -2.522694E+05 -1.505005E+03 -7.374536E+03
       108  24  5.847385E+03  1.318339E+05  3.208449E+04 -2.851491E+05  1.492992E+04  8.129494E+03
       108  25 -6.441862E+04 -1.756628E+05 -1.569807E+04 -2.809653E+05 -1.776178E+04 -4.994787E+04
       108  26 -1.977110E+03  1.081890E+05  2.715630E+04 -2.519314E+05 -1.415830E+03 -3.460424E+04
       108  27  6.859398E+04  3.957000E+05  8.190980E+04 -2.886497E+05  1.502001E+04 -1.925351E+04
       109   1 -1.029873E+05 -3.170879E+05 -4.880809E+04 -2.891586E+05 -2.603920E+04 -4.367014E+04
       109   2 -1.552389E+05 -6.078643E+05 -9.475633E+04 -2.239277E+05 -3.139511E+04 -2.901803E+04
       109   3 -1.573224E+05 -8.882630E+05 -1.377889E+05 -2.228653E+05 -1.082693E+04 -1.430729E+04
       109   4  4.350266E+03  1.349458E+05  3.597422E+04 -2.848277E+05 -2.613672E+04 -1.344818E+04
       109   5  2.170552E+04  1.260144E+05  5.485937E+04 -2.526156E+05 -3.135149E+04 -4.171642E+04
       109   6  9.664528E+04  1.348049E+05  1.064540E+05 -2.845530E+05 -1.065777E+04 -6.991967E+04
       109   7  1.116766E+05  5.871791E+05  1.207511E+05 -2.804934E+05 -2.623376E+04  1.679524E+04
       109   8  1.986193E+05  8.604075E+05  2.044477E+05 -2.813376E+05 -3.130672E+04 -5.442953E+04
       109   9  3.505527E+05  1.158848E+06  3.506368E+05 -3.463420E+05 -1.047770E+04 -1.256233E+05
       109  10 -1.029886E+05 -3.170901E+05 -4.881295E+04 -2.891596E+05  3.515221E-10 -7.572248E-10
       109  11 -1.552402E+05 -6.078655E+05 -9.475976E+04 -2.239284E+05  8.570214E-10  1.403790E-09
       109  12 -1.573226E+05 -8.882632E+05 -1.377895E+05 -2.228654E+05  9.160131E-10 -8.651974E-11
       109  13  4.349484E+03  1.349454E+05  3.597259E+04 -2.848280E+05 -1.312772E-09 -7.192796E-10
       109  14  2.170400E+04  1.260123E+05  5.485425E+04 -2.526167E+05  1.302556E-10  6.063397E-10
       109  15  9.664384E+04  1.347996E+05  1.064446E+05 -2.845536E+05  3.244892E-10  6.409560E-10
       109  16  1.116758E+05  5.871787E+05  1.207493E+05 -2.804931E+05  8.858118E-10  8.305082E-10
       109  17  1.986174E+05  8.604041E+05  2.044403E+05 -2.813390E+05  1.126125E-09 -3.930094E-10
       109  18  3.505484E+05  1.158831E+06  3.506070E+05 -3.463431E+05  1.463185E-09  3.892284E-10
       109  19 -1.029873E+05 -3.170879E+05 -4.880809E+04 -2.891586E+05  2.603920E+04  4.367014E+04
       109  20 -1.552389E+05 -6.078643E+05 -9.475633E+04 -2.239277E+05  3.139511E+04  2.901803E+04
       109  21 -1.573224E+05 -8.882630E+05 -1.377889E+05 -2.228653E+05  1.082693E+04  1.430729E+04
       109  22  4.350266E+03  1.349458E+05  3.597422E+04 -2.848277E+05  2.613672E+04  1.344818E+04
       109  23  2.170552E+04  1.260144E+05  5.485937E+04 -2.526156E+05  3.135149E+04  4.171642E+04
       109  24  9.664528E+04  1.348049E+05  1.064540E+05 -2.845530E+05  1.065777E+04  6.991967E+04
       109  25  1.116766E+05  5.871791E+05  1.207511E+05 -2.804934E+05  2.623376E+04 -1.679524E+04
       109  26  1.986193E+05  8.604075E+05  2.044477E+05 -2.813376E+05  3.130672E+04  5.442953E+04
       109  27  3.505527E+05  1.158848E+06  3.506368E+05 -3.463420E+05  1.047770E+04  1.256233E+05
       110   1 -3.469534E+06 -1.201911E+06 -7.307217E+05 -1.249294E+06 -3.071953E+05 -9.896853E+04
       110   2 -3.367703E+06 -7.542660E+05 -4.475145E+05 -1.243199E+06 -1.996354E+05 -2.303750E+04
       110   3 -3.381634E+06 -6.905921E+05 -3.496545E+05 -1.183393E+06 -8.029343E+04  2.174884E+04
       110   4 -2.426753E+06 -6.813205E+05 -4.244299E+05 -8.357267E+05 -2.752499E+05 -8.698761E+04
       110   5 -2.348106E+06 -3.315086E+05 -1.808728E+05 -9.228471E+05 -1.891427E+05 -1.910371E+04
       110   6 -2.380727E+06 -3.610710E+05 -1.053722E+05 -9.563243E+05 -9.127262E+04  1.761631E+04
       110   7 -1.382869E+06 -1.603992E+05 -1.182382E+05 -4.214457E+05 -2.432449E+05 -7.496780E+04
       110   8 -1.327482E+06  9.138184E+04  8.568061E+04 -6.019925E+05 -1.786309E+05 -1.516098E+04
       110   9 -1.378838E+06 -3.153806E+04  1.388361E+05 -7.289474E+05 -1.022712E+05  1.347856E+04
       110  10 -3.469639E+06 -1.201947E+06 -7.309187E+05 -1.249319E+06  8.941999E-10 -2.557915E-10
       110  11 -3.367747E+06 -7.542774E+05 -4.475908E+05 -1.243203E+06 -1.378122E-09  5.740214E-11
       110  12 -3.381642E+06 -6.905943E+05 -3.496675E+05 -1.183392E+06 -5.979705E-10 -9.383961E-10
       110  13 -2.426837E+06 -6.813491E+05 -4.245872E+05 -8.357460E+05 -5.026865E-10 -6.583350E-10
       110  14 -2.348145E+06 -3.315187E+05 -1.809410E+05 -9.228500E+05  1.305905E-09  1.224945E-09
       110  15 -2.380736E+06 -3.610736E+05 -1.053884E+05 -9.563230E+05  5.240035E-10 -9.632322E-11
       110  16 -1.382934E+06 -1.604211E+05 -1.183603E+05 -4.214604E+05 -1.944658E-09  3.920835E-10
       110  17 -1.327516E+06  9.137300E+04  8.562007E+04 -6.019947E+05  1.101744E-09  3.195008E-10
       110  18 -1.378849E+06 -3.154107E+04  1.388160E+05 -7.289463E+05  1.299436E-10  7.512643E-10
       110  19 -3.469534E+06 -1.201911E+06 -7.307217E+05 -1.249294E+06  3.071953E+05  9.896853E+04
       110  20 -3.367703E+06 -7.542660E+05 -4.475145E+05 -1.243199E+06  1.996354E+05  2.303750E+04
       110  21 -3.381634E+06 -6.905921E+05 -3.496545E+05 -1.183393E+06  8.029343E+04 -2.174884E+04
       110  22 -2.426753E+06 -6.813205E+05 -4.244299E+05 -8.357267E+05  2.752499E+05  8.698761E+04
       110  23 -2.348106E+06 -3.315086E+05 -1.808728E+05 -9.228471E+05  1.891427E+05  1.910371E+04
       110  24 -2.380727E+06 -3.610710E+05 -1.053722E+05 -9.563243E+05  9.127262E+04 -1.761631E+04
       110  25 -1.382869E+06 -1.603992E+05 -1.182382E+05 -4.214457E+05  2.432449E+05  7.496780E+04
       110  26 -1.327482E+06  9.138184E+04  8.568061E+04 -6.019925E+05  1.786309E+05  1.516098E+04
       110  27 -1.378838E+06 -3.153806E+04  1.388361E+05 -7.289474E+05  1.022712E+05 -1.347856E+04
       111   1 -3.242503E+06 -7.362656E+05 -3.083954E+05 -1.183107E+06 -7.338016E+04  1.704962E+04
       111   2 -3.167100E+06 -6.539728E+05 -2.429407E+05 -1.141297E+06 -4.948158E+04  2.276966E+04
       111   3 -3.069554E+06 -6.348756E+05 -2.020325E+05 -1.133134E+06 -2.494410E+04  2.678514E+04
       111   4 -2.366507E+06 -3.993936E+05 -8.453124E+04 -9.347968E+05 -7.483457E+04  1.649676E+04
       111   5 -2.375875E+06 -3.553539E+05 -4.234120E+04 -9.226751E+05 -5.208784E+04  2.178636E+04
       111   6 -2.362863E+06 -3.742542E+05 -2.375404E+04 -9.442032E+05 -2.870610E+04  2.537062E+04
       111   7 -1.489753E+06 -6.245936E+04  1.392712E+05 -6.861627E+05 -7.629118E+04  1.594303E+04
       111   8 -1.584033E+06 -5.669096E+04  1.582083E+05 -7.037980E+05 -5.469773E+04  2.080168E+04
       111   9 -1.655681E+06 -1.136041E+05  1.544847E+05 -7.550780E+05 -3.247280E+04  2.395440E+04
       111  10 -3.242509E+06 -7.362674E+05 -3.084061E+05 -1.183106E+06  1.466693E-11 -4.650203E-10
       111  11 -3.167103E+06 -6.539740E+05 -2.429463E+05 -1.141296E+06 -1.034316E-09 -2.302939E-10
       111  12 -3.069555E+06 -6.348765E+05 -2.020350E+05 -1.133134E+06 -2.601226E-09 -5.133680E-10
       111  13 -2.366513E+06 -3.993954E+05 -8.454230E+04 -9.347958E+05 -4.089985E-11 -1.068569E-10
       111  14 -2.375879E+06 -3.553552E+05 -4.234720E+04 -9.226742E+05 -2.170787E-09 -2.958189E-10
       111  15 -2.362864E+06 -3.742551E+05 -2.375680E+04 -9.442026E+05  4.522074E-10  4.454062E-11
       111  16 -1.489759E+06 -6.246120E+04  1.392598E+05 -6.861617E+05 -7.393155E-10 -3.626444E-10
       111  17 -1.584037E+06 -5.669223E+04  1.582019E+05 -7.037971E+05  6.955561E-10 -7.966864E-10
       111  18 -1.655683E+06 -1.136050E+05  1.544816E+05 -7.550773E+05  5.081110E-10  2.742506E-10
       111  19 -3.242503E+06 -7.362656E+05 -3.083954E+05 -1.183107E+06  7.338016E+04 -1.704962E+04
       111  20 -3.167100E+06 -6.539728E+05 -2.429407E+05 -1.141297E+06  4.948158E+04 -2.276966E+04
       111  21 -3.069554E+06 -6.348756E+05 -2.020325E+05 -1.133134E+06  2.494410E+04 -2.678514E+04
       111  22 -2.366507E+06 -3.993936E+05 -8.453124E+04 -9.347968E+05  7.483457E+04 -1.649676E+04
       111  23 -2.375875E+06 -3.553539E+05 -4.234120E+04 -9.226751E+05  5.208784E+04 -2.178636E+04
       111  24 -2.362863E+06 -3.742542E+05 -2.375404E+04 -9.442032E+05  2.870610E+04 -2.537062E+04
       111  25 -1.489753E+06 -6.245936E+04  1.392712E+05 -6.861627E+05  7.629118E+04 -1.594303E+04
       111  26 -1.584033E+06 -5.669096E+04  1.582083E+05 -7.037980E+05  5.469773E+04 -2.080168E+04
       111  27 -1.655681E+06 -1.136041E+05  1.544847E+05 -7.550780E+05  3.247280E+04 -2.395440E+04
       112   1 -2.974120E+06 -6.071589E+05 -1.730299E+05 -1.110551E+06 -2.089930E+04  2.485027E+04
       112   2 -2.898244E+06 -5.511813E+05 -1.411108E+05 -1.063943E+06 -1.406261E+04  2.188623E+04
       112   3 -2.786715E+06 -5.343925E+05 -1.134901E+05 -1.059279E+06 -7.173781E+03  1.877146E+04
       112   4 -2.361090E+06 -3.775068E+05 -1.825327E+04 -9.428293E+05 -2.421820E+04  2.360326E+04
       112   5 -2.378763E+06 -3.569239E+05 -9.796051E+03 -9.222234E+05 -1.748101E+04  2.060355E+04
       112   6 -2.360774E+06 -3.755072E+05 -5.554259E+03 -9.435634E+05 -1.069252E+04  1.745291E+04
       112   7 -1.747692E+06 -1.478309E+05  1.364926E+05 -7.749570E+05 -2.754068E+04  2.235490E+04
       112   8 -1.859018E+06 -1.626491E+05  1.214971E+05 -7.803958E+05 -2.090255E+04  1.931971E+04
       112   9 -1.934653E+06 -2.166099E+05  1.023675E+05 -8.277750E+05 -1.421392E+04  1.613338E+04
       112  10 -2.974121E+06 -6.071597E+05 -1.730318E+05 -1.110551E+06 -6.130628E-10  3.546989E-11
       112  11 -2.898244E+06 -5.511819E+05 -1.411121E+05 -1.063943E+06 -2.748254E-10 -9.667901E-10
       112  12 -2.786716E+06 -5.343929E+05 -1.134908E+05 -1.059279E+06 -1.386667E-11 -4.779248E-10
       112  13 -2.361090E+06 -3.775076E+05 -1.825541E+04 -9.428288E+05  1.025721E-10 -1.979006E-10
       112  14 -2.378764E+06 -3.569245E+05 -9.797422E+03 -9.222231E+05 -1.134621E-10 -5.467189E-10
       112  15 -2.360774E+06 -3.755076E+05 -5.555046E+03 -9.435633E+05  1.707867E-09  8.287130E-10
       112  16 -1.747693E+06 -1.478316E+05  1.364903E+05 -7.749565E+05 -8.618991E-10 -5.215800E-10
       112  17 -1.859019E+06 -1.626496E+05  1.214956E+05 -7.803955E+05 -1.184037E-09 -7.767258E-10
       112  18 -1.934653E+06 -2.166102E+05  1.023666E+05 -8.277748E+05  1.430330E-10  5.317693E-10
       112  19 -2.974120E+06 -6.071589E+05 -1.730299E+05 -1.110551E+06  2.089930E+04 -2.485027E+04
       112  20 -2.898244E+06 -5.511813E+05 -1.411108E+05 -1.063943E+06  1.406261E+04 -2.188623E+04
       112  21 -2.786715E+06 -5.343925E+05 -1.134901E+05 -1.059279E+06  7.173781E+03 -1.877146E+04
       112  22 -2.361090E+06 -3.775068E+05 -1.825327E+04 -9.428293E+05  2.421820E+04 -2.360326E+04
       112  23 -2.378763E+06 -3.569239E+05 -9.796051E+03 -9.222234E+05  1.748101E+04 -2.060355E+04
       112  24 -2.360774E+06 -3.755072E+05 -5.554259E+03 -9.435634E+05  1.069252E+04 -1.745291E+04
       112  25 -1.747692E+06 -1.478309E+05  1.364926E+05 -7.749570E+05  2.754068E+04 -2.235490E+04
       112  26 -1.859018E+06 -1.626491E+05  1.214971E+05 -7.803958E+05  2.090255E+04 -1.931971E+04
       112  27 -1.934653E+06 -2.166099E+05  1.023675E+05 -8.277750E+05  1.421392E+04 -1.613338E+04
       113   1 -2.691922E+06 -4.997283E+05 -8.775160E+04 -1.034027E+06 -5.254093E+03  1.611929E+04
       113   2 -2.614255E+06 -4.445565E+05 -6.209258E+04 -9.859369E+05 -1.970296E+03  1.154317E+04
       113   3 -2.498866E+06 -4.275231E+05 -3.750461E+04 -9.814131E+05  1.324570E+03  6.931350E+03
       113   4 -2.360391E+06 -3.759337E+05 -4.322206E+03 -9.436696E+05 -8.776702E+03  1.480010E+04
       113   5 -2.379229E+06 -3.567777E+05 -2.712839E+03 -9.219160E+05 -5.516965E+03  1.021574E+04
       113   6 -2.360351E+06 -3.757541E+05 -2.154595E+03 -9.437304E+05 -2.246430E+03  5.595663E+03
       113   7 -2.028750E+06 -2.521318E+05  7.909872E+04 -8.532683E+05 -1.230138E+04  1.348014E+04
       113   8 -2.144151E+06 -2.689958E+05  5.666210E+04 -8.578735E+05 -9.065084E+03  8.887777E+03
       113   9 -2.221819E+06 -3.239846E+05  3.319331E+04 -9.060406E+05 -5.818249E+03  4.259669E+03
       113  10 -2.691922E+06 -4.997286E+05 -8.775214E+04 -1.034027E+06  5.642118E-10  1.291435E-10
       113  11 -2.614255E+06 -4.445567E+05 -6.209284E+04 -9.859369E+05 -4.405213E-10  7.411015E-11
       113  12 -2.498866E+06 -4.275232E+05 -3.750470E+04 -9.814131E+05  1.339019E-09 -5.928135E-10
       113  13 -2.360391E+06 -3.759340E+05 -4.322761E+03 -9.436695E+05  1.620134E-12  4.301805E-10
       113  14 -2.379229E+06 -3.567778E+05 -2.713092E+03 -9.219160E+05  1.803134E-10 -5.966308E-10
       113  15 -2.360351E+06 -3.757541E+05 -2.154663E+03 -9.437304E+05  1.994672E-09  1.116615E-09
       113  16 -2.028751E+06 -2.521320E+05  7.909809E+04 -8.532681E+05 -2.523649E-09  1.532980E-10
       113  17 -2.144151E+06 -2.689959E+05  5.666179E+04 -8.578735E+05  3.501654E-10 -6.564612E-10
       113  18 -2.221819E+06 -3.239847E+05  3.319321E+04 -9.060406E+05  3.402683E-11 -2.786339E-10
       113  19 -2.691922E+06 -4.997283E+05 -8.775160E+04 -1.034027E+06  5.254093E+03 -1.611929E+04
       113  20 -2.614255E+06 -4.445565E+05 -6.209258E+04 -9.859369E+05  1.970296E+03 -1.154317E+04
       113  21 -2.498866E+06 -4.275231E+05 -3.750461E+04 -9.814131E+05 -1.324570E+03 -6.931350E+03
       113  22 -2.360391E+06 -3.759337E+05 -4.322206E+03 -9.436696E+05  8.776702E+03 -1.480010E+04
       113  23 -2.379229E+06 -3.567777E+05 -2.712839E+03 -9.219160E+05  5.516965E+03 -1.021574E+04
       113  24 -2.360351E+06 -3.757541E+05 -2.154595E+03 -9.437304E+05  2.246430E+03 -5.595663E+03
       113  25 -2.028750E+06 -2.521318E+05  7.909872E+04 -8.532683E+05  1.230138E+04 -1.348014E+04
       113  26 -2.144151E+06 -2.689958E+05  5.666210E+04 -8.578735E+05  9.065084E+03 -8.887777E+03
       113  27 -2.221819E+06 -3.239846E+05  3.319331E+04 -9.060406E+05  5.818249E+03 -4.259669E+03
       114   1 -2.402886E+06 -3.916854E+05 -1.257990E+04 -9.554560E+05  2.810871E+03  4.069068E+03
       114   2 -2.324674E+06 -3.363355E+05  1.098455E+04 -9.070022E+05  6.125537E+03 -5.590307E+02
       114   3 -2.208547E+06 -3.193720E+05  3.345799E+04 -9.024149E+05  9.436647E+03 -5.175058E+03
       114   4 -2.360305E+06 -3.758102E+05 -2.173938E+03 -9.437966E+05 -7.674623E+02  2.730839E+03
       114   5 -2.379269E+06 -3.566854E+05 -2.799420E+03 -9.218354E+05  2.555058E+03 -1.894564E+03
       114   6 -2.360328E+06 -3.759503E+05 -4.522030E+03 -9.437455E+05  5.873766E+03 -6.507938E+03
       114   7 -2.317722E+06 -3.599346E+05  8.232103E+03 -9.321363E+05 -4.346111E+03  1.392492E+03
       114   8 -2.433861E+06 -3.770353E+05 -1.658374E+04 -9.366675E+05 -1.015117E+03 -3.229983E+03
       114   9 -2.512088E+06 -4.325277E+05 -4.250420E+04 -9.850673E+05  2.311807E+03 -7.840474E+03
       114  10 -2.402886E+06 -3.916855E+05 -1.257995E+04 -9.554560E+05  1.108086E-09 -1.067607E-09
       114  11 -2.324675E+06 -3.363356E+05  1.098448E+04 -9.070022E+05  2.112154E-09  1.827793E-09
       114  12 -2.208547E+06 -3.193720E+05  3.345777E+04 -9.024149E+05  9.804472E-10  4.709039E-10
       114  13 -2.360305E+06 -3.758102E+05 -2.173953E+03 -9.437966E+05  2.764197E-09 -6.048020E-10
       114  14 -2.379269E+06 -3.566854E+05 -2.799439E+03 -9.218354E+05  5.068801E-09 -4.924114E-11
       114  15 -2.360328E+06 -3.759504E+05 -4.522174E+03 -9.437455E+05  2.792481E-09  1.449643E-09
       114  16 -2.317722E+06 -3.599346E+05  8.232063E+03 -9.321363E+05  4.193217E-09  1.253724E-09
       114  17 -2.433861E+06 -3.770353E+05 -1.658377E+04 -9.366675E+05  4.014675E-09  1.506007E-09
       114  18 -2.512088E+06 -4.325277E+05 -4.250432E+04 -9.850673E+05  2.861959E-10  1.447674E-11
       114  19 -2.402886E+06 -3.916854E+05 -1.257990E+04 -9.554560E+05 -2.810871E+03 -4.069068E+03
       114  20 -2.324674E+06 -3.363355E+05  1.098455E+04 -9.070022E+05 -6.125537E+03  5.590307E+02
       114  21 -2.208547E+06 -3.193720E+05  3.345799E+04 -9.024149E+05 -9.436647E+03  5.175058E+03
       114  22 -2.360305E+06 -3.758102E+05 -2.173938E+03 -9.437966E+05  7.674623E+02 -2.730839E+03
       114  23 -2.379269E+06 -3.566854E+05 -2.799420E+03 -9.218354E+05 -2.555058E+03  1.894564E+03
       114  24 -2.360328E+06 -3.759503E+05 -4.522030E+03 -9.437455E+05 -5.873766E+03  6.507938E+03
       114  25 -2.317722E+06 -3.599346E+05  8.232103E+03 -9.321363E+05  4.346111E+03 -1.392492E+03
       114  26 -2.433861E+06 -3.770353E+05 -1.658374E+04 -9.366675E+05  1.015117E+03  3.229983E+03
       114  27 -2.512088E+06 -4.325277E+05 -4.250420E+04 -9.850673E+05 -2.311807E+03  7.840474E+03
       115   1 -2.113161E+06 -2.835445E+05  5.695631E+04 -8.767845E+05  1.141281E+04 -7.846885E+03
       115   2 -2.035885E+06 -2.285368E+05  7.633745E+04 -8.285045E+05  1.840890E+04 -1.102122E+04
       115   3 -1.922415E+06 -2.135335E+05  9.131324E+04 -8.230466E+05  2.536579E+04 -1.407925E+04
       115   4 -2.360629E+06 -3.756252E+05 -5.834420E+03 -9.437759E+05  7.842428E+03 -9.182992E+03
       115   5 -2.378871E+06 -3.566431E+05 -1.029540E+04 -9.219833E+05  1.491555E+04 -1.232963E+04
       115   6 -2.360944E+06 -3.776832E+05 -1.922434E+04 -9.430172E+05  2.194867E+04 -1.536023E+04
       115   7 -2.608032E+06 -4.677006E+05 -6.862897E+04 -1.010742E+06  4.273667E+03 -1.051850E+04
       115   8 -2.721740E+06 -4.847413E+05 -9.693717E+04 -1.015415E+06  1.142433E+04 -1.363725E+04
       115   9 -2.799287E+06 -5.418212E+05 -1.297780E+05 -1.062912E+06  1.853416E+04 -1.664023E+04
       115  10 -2.113161E+06 -2.835446E+05  5.695595E+04 -8.767845E+05  4.074802E-10  3.878893E-10
       115  11 -2.035886E+06 -2.285370E+05  7.633658E+04 -8.285043E+05  4.230599E-10 -4.637648E-10
       115  12 -1.922415E+06 -2.135339E+05  9.131165E+04 -8.230463E+05  3.948558E-09  9.300367E-10
       115  13 -2.360629E+06 -3.756253E+05 -5.834694E+03 -9.437758E+05  4.004470E-10  8.084735E-10
       115  14 -2.378871E+06 -3.566434E+05 -1.029610E+04 -9.219832E+05 -1.524747E-09 -3.636442E-10
       115  15 -2.360944E+06 -3.776835E+05 -1.922569E+04 -9.430170E+05 -4.335420E-11 -7.917320E-10
       115  16 -2.608032E+06 -4.677007E+05 -6.862921E+04 -1.010742E+06 -1.582915E-10  5.717254E-10
       115  17 -2.721740E+06 -4.847416E+05 -9.693776E+04 -1.015415E+06 -5.403773E-10 -3.803017E-10
       115  18 -2.799287E+06 -5.418216E+05 -1.297792E+05 -1.062911E+06 -3.882420E-09 -1.606819E-09
       115  19 -2.113161E+06 -2.835445E+05  5.695631E+04 -8.767845E+05 -1.141281E+04  7.846885E+03
       115  20 -2.035885E+06 -2.285368E+05  7.633745E+04 -8.285045E+05 -1.840890E+04  1.102122E+04
       115  21 -1.922415E+06 -2.135335E+05  9.131324E+04 -8.230466E+05 -2.536579E+04  1.407925E+04
       115  22 -2.360629E+06 -3.756252E+05 -5.834420E+03 -9.437759E+05 -7.842428E+03  9.182992E+03
       115  23 -2.378871E+06 -3.566431E+05 -1.029540E+04 -9.219833E+05 -1.491555E+04  1.232963E+04
       115  24 -2.360944E+06 -3.776832E+05 -1.922434E+04 -9.430172E+05 -2.194867E+04  1.536023E+04
       115  25 -2.608032E+06 -4.677006E+05 -6.862897E+04 -1.010742E+06 -4.273667E+03  1.051850E+04
       115  26 -2.721740E+06 -4.847413E+05 -9.693717E+04 -1.015415E+06 -1.142433E+04  1.363725E+04
       115  27 -2.799287E+06 -5.418212E+05 -1.297780E+05 -1.062912E+06 -1.853416E+04  1.664023E+04
       116   1 -1.827765E+06 -1.785591E+05  1.096482E+05 -8.029799E+05  3.044584E+04 -1.568468E+04
       116   2 -1.753420E+06 -1.196624E+05  1.131599E+05 -7.498836E+05  5.404652E+04 -1.223525E+04
       116   3 -1.656197E+06 -1.261987E+05  9.256986E+04 -7.315745E+05  7.710226E+04 -7.309777E+03
       116   4 -2.362700E+06 -3.743866E+05 -2.502761E+04 -9.446125E+05  2.663511E+04 -1.711397E+04
       116   5 -2.375936E+06 -3.547871E+05 -4.458446E+04 -9.222732E+05  5.123709E+04 -1.329158E+04
       116   6 -2.366514E+06 -4.008441E+05 -8.905830E+04 -9.347265E+05  7.529044E+04 -7.994214E+03
       116   7 -2.897355E+06 -5.701986E+05 -1.597260E+05 -1.086135E+06  2.282797E+04 -1.854198E+04
       116   8 -2.998070E+06 -5.898841E+05 -2.023596E+05 -1.094504E+06  4.843074E+04 -1.434672E+04
       116   9 -3.076332E+06 -6.754465E+05 -2.707269E+05 -1.137663E+06  7.348086E+04 -8.677749E+03
       116  10 -1.827766E+06 -1.785596E+05  1.096460E+05 -8.029796E+05  1.554622E-08  6.056535E-09
       116  11 -1.753423E+06 -1.196634E+05  1.131541E+05 -7.498831E+05 -1.603586E-09  2.459665E-09
       116  12 -1.656203E+06 -1.262004E+05  9.255856E+04 -7.315740E+05 -1.218309E-08 -4.123177E-09
       116  13 -2.362701E+06 -3.743871E+05 -2.502950E+04 -9.446121E+05 -2.180150E-10  4.843876E-10
       116  14 -2.375939E+06 -3.547880E+05 -4.458974E+04 -9.222726E+05  1.113579E-09  2.684308E-09
       116  15 -2.366520E+06 -4.008457E+05 -8.906911E+04 -9.347261E+05  3.178172E-09  1.704158E-09
       116  16 -2.897356E+06 -5.701991E+05 -1.597277E+05 -1.086135E+06 -1.571134E-08 -5.573058E-09
       116  17 -2.998073E+06 -5.898850E+05 -2.023644E+05 -1.094504E+06  9.739501E-10  2.100777E-09
       116  18 -3.076338E+06 -6.754480E+05 -2.707373E+05 -1.137663E+06  1.730812E-08  7.228231E-09
       116  19 -1.827765E+06 -1.785591E+05  1.096482E+05 -8.029799E+05 -3.044584E+04  1.568468E+04
       116  20 -1.753420E+06 -1.196624E+05  1.131599E+05 -7.498836E+05 -5.404652E+04  1.223525E+04
       116  21 -1.656197E+06 -1.261987E+05  9.256986E+04 -7.315745E+05 -7.710226E+04  7.309777E+03
       116  22 -2.362700E+06 -3.743866E+05 -2.502761E+04 -9.446125E+05 -2.663511E+04  1.711397E+04
       116  23 -2.375936E+06 -3.547871E+05 -4.458446E+04 -9.222732E+05 -5.123709E+04  1.329158E+04
       116  24 -2.366514E+06 -4.008441E+05 -8.905830E+04 -9.347265E+05 -7.529044E+04  7.994214E+03
       116  25 -2.897355E+06 -5.701986E+05 -1.597260E+05 -1.086135E+06 -2.282797E+04  1.854198E+04
       116  26 -2.998070E+06 -5.898841E+05 -2.023596E+05 -1.094504E+06 -4.843074E+04  1.434672E+04
       116  27 -3.076332E+06 -6.754465E+05 -2.707269E+05 -1.137663E+06 -7.348086E+04  8.677749E+03
       117   1 -1.540302E+06 -9.410554E+04  9.217790E+04 -7.772710E+05  1.024669E+05 -4.672011E+03
       117   2 -1.485734E+06  3.514870E+04  3.585032E+04 -6.434673E+05  1.871543E+05  2.615623E+04
       117   3 -1.544589E+06 -2.315024E+05 -1.825561E+05 -4.535529E+05  2.616436E+05  8.413220E+04
       117   4 -2.381376E+06 -3.605997E+05 -1.110201E+05 -9.575648E+05  9.234266E+04 -8.470156E+03
       117   5 -2.346833E+06 -3.294164E+05 -1.905206E+05 -9.222206E+05  1.957521E+05  2.937028E+04
       117   6 -2.429665E+06 -6.982260E+05 -4.471575E+05 -8.307241E+05  2.889487E+05  9.434372E+04
       117   7 -3.221760E+06 -6.270935E+05 -3.142693E+05 -1.137659E+06  8.223334E+04 -1.226468E+04
       117   8 -3.207196E+06 -6.938730E+05 -4.169540E+05 -1.200601E+06  2.043366E+05  3.257787E+04
       117   9 -3.313923E+06 -1.164645E+06 -7.118277E+05 -1.207330E+06  3.162105E+05  1.045242E+05
       117  10 -1.540313E+06 -9.410839E+04  9.215809E+04 -7.772706E+05  1.955313E-09 -7.915614E-10
       117  11 -1.485772E+06  3.513852E+04  3.578303E+04 -6.434712E+05 -1.591656E-09 -1.697301E-09
       117  12 -1.544664E+06 -2.315284E+05 -1.826985E+05 -4.535706E+05 -1.865623E-09 -1.403413E-09
       117  13 -2.381386E+06 -3.606021E+05 -1.110363E+05 -9.575642E+05  9.364851E-10  5.313504E-11
       117  14 -2.346875E+06 -3.294277E+05 -1.905946E+05 -9.222252E+05 -1.464123E-09 -6.980315E-10
       117  15 -2.429757E+06 -6.982581E+05 -4.473319E+05 -8.307461E+05 -1.102579E-09 -2.187811E-10
       117  16 -3.221768E+06 -6.270955E+05 -3.142823E+05 -1.137658E+06  2.542006E-09  3.980616E-10
       117  17 -3.207241E+06 -6.938854E+05 -4.170349E+05 -1.200606E+06 -4.101011E-10 -7.162500E-10
       117  18 -3.314033E+06 -1.164683E+06 -7.120374E+05 -1.207356E+06  1.438200E-09 -1.079814E-10
       117  19 -1.540302E+06 -9.410554E+04  9.217790E+04 -7.772710E+05 -1.024669E+05  4.672011E+03
       117  20 -1.485734E+06  3.514870E+04  3.585032E+04 -6.434673E+05 -1.871543E+05 -2.615623E+04
       117  21 -1.544589E+06 -2.315024E+05 -1.825561E+05 -4.535529E+05 -2.616436E+05 -8.413220E+04
       117  22 -2.381376E+06 -3.605997E+05 -1.110201E+05 -9.575648E+05 -9.234266E+04  8.470156E+03
       117  23 -2.346833E+06 -3.294164E+05 -1.905206E+05 -9.222206E+05 -1.957521E+05 -2.937028E+04
       117  24 -2.429665E+06 -6.982260E+05 -4.471575E+05 -8.307241E+05 -2.889487E+05 -9.434372E+04
       117  25 -3.221760E+06 -6.270935E+05 -3.142693E+05 -1.137659E+06 -8.223334E+04  1.226468E+04
       117  26 -3.207196E+06 -6.938730E+05 -4.169540E+05 -1.200601E+06 -2.043366E+05 -3.257787E+04
       117  27 -3.313923E+06 -1.164645E+06 -7.118277E+05 -1.207330E+06 -3.162105E+05 -1.045242E+05
       118   1 -4.413929E+05  2.521471E+03  3.703316E+04  3.128352E+04  1.028307E+05  6.870054E+03
       118   2 -4.145827E+05 -1.337608E+05 -3.952921E+04  3.249689E+03  7.199309E+04  2.096214E+04
       118   3 -3.463719E+05 -1.212844E+05 -5.877527E+04 -4.835666E+04  4.116379E+04  2.091789E+04
       118   4  1.156491E+05  1.410168E+05  1.730115E+05 -2.747991E+04  1.186627E+05  6.873112E+03
       118   5  9.406248E+04 -8.630452E+03  7.751788E+04 -1.564139E+04  7.727846E+04  2.096210E+04
       118   6  1.156661E+05 -7.760262E+03  4.662877E+04 -2.737309E+04  3.590579E+04  2.091597E+04
       118   7  6.729822E+05  2.795024E+05  3.089700E+05 -8.629626E+04  1.345089E+05  6.873173E+03
       118   8  6.029480E+05  1.164831E+05  1.945481E+05 -3.454812E+04  8.256811E+04  2.096174E+04
       118   9  5.779031E+05  1.057508E+05  1.520192E+05 -6.373785E+03  3.064391E+04  2.091369E+04
       118  10 -4.414043E+05  2.518579E+03  3.701318E+04  3.128295E+04 -5.318189E-11  2.468911E-10
       118  11 -4.145884E+05 -1.337626E+05 -3.953978E+04  3.248473E+03 -1.178685E-09 -2.902216E-10
       118  12 -3.463739E+05 -1.212853E+05 -5.877928E+04 -4.835735E+04 -8.893667E-10 -2.799701E-11
       118  13  1.156340E+05  1.410129E+05  1.729849E+05 -2.748056E+04 -9.576666E-10  2.130692E-11
       118  14  9.405595E+04 -8.632527E+03  7.750584E+04 -1.564270E+04  2.110979E-09 -9.956327E-10
       118  15  1.156646E+05 -7.761078E+03  4.662553E+04 -2.737370E+04 -7.896691E-10  2.330562E-11
       118  16  6.729628E+05  2.794975E+05  3.089359E+05 -8.629700E+04  1.083488E-09 -1.878439E-10
       118  17  6.029406E+05  1.164808E+05  1.945345E+05 -3.454951E+04 -2.591173E-10 -3.385463E-10
       118  18  5.779020E+05  1.057500E+05  1.520166E+05 -6.374301E+03 -1.409428E-10 -1.523307E-10
       118  19 -4.413929E+05  2.521471E+03  3.703316E+04  3.128352E+04 -1.028307E+05 -6.870054E+03
       118  20 -4.145827E+05 -1.337608E+05 -3.952921E+04  3.249689E+03 -7.199309E+04 -2.096214E+04
       118  21 -3.463719E+05 -1.212844E+05 -5.877527E+04 -4.835666E+04 -4.116379E+04 -2.091789E+04
       118  22  1.156491E+05  1.410168E+05  1.730115E+05 -2.747991E+04 -1.186627E+05 -6.873112E+03
       118  23  9.406248E+04 -8.630452E+03  7.751788E+04 -1.564139E+04 -7.727846E+04 -2.096210E+04
       118  24  1.156661E+05 -7.760262E+03  4.662877E+04 -2.737309E+04 -3.590579E+04 -2.091597E+04
       118  25  6.729822E+05  2.795024E+05  3.089700E+05 -8.629626E+04 -1.345089E+05 -6.873173E+03
       118  26  6.029480E+05  1.164831E+05  1.945481E+05 -3.454812E+04 -8.256811E+04 -2.096174E+04
       118  27  5.779031E+05  1.057508E+05  1.520192E+05 -6.373785E+03 -3.064391E+04 -2.091369E+04
       119   1 -3.106989E+05 -9.261094E+04 -5.828386E+04 -2.412065E+04  2.996625E+04  1.791789E+04
       119   2 -2.655123E+05 -9.184216E+04 -6.485006E+04 -1.471228E+04  2.044071E+04  1.633047E+04
       119   3 -2.162434E+05 -8.005605E+04 -6.243883E+04 -2.923717E+04  1.091365E+04  1.406551E+04
       119   4  1.070018E+05  1.009011E+04  3.747848E+04 -2.748371E+04  2.905293E+04  1.791659E+04
       119   5  1.049237E+05 -8.052599E+02  1.985945E+04 -1.551641E+04  1.901726E+04  1.632951E+04
       119   6  1.070119E+05 -5.985475E+02  1.156775E+04 -2.748132E+04  8.980806E+03  1.406500E+04
       119   7  5.248643E+05  1.127791E+05  1.332294E+05 -3.084906E+04  2.813900E+04  1.791531E+04
       119   8  4.754869E+05  9.022210E+04  1.045600E+05 -1.632103E+04  1.759298E+04  1.632856E+04
       119   9  4.303641E+05  7.885169E+04  8.556749E+04 -2.572455E+04  7.046962E+03  1.406448E+04
       119  10 -3.107000E+05 -9.261153E+04 -5.828615E+04 -2.412109E+04 -3.672815E-10 -6.039051E-10
       119  11 -2.655128E+05 -9.184256E+04 -6.485135E+04 -1.471255E+04 -1.848897E-09 -7.998418E-10
       119  12 -2.162435E+05 -8.005629E+04 -6.243942E+04 -2.923730E+04  9.031358E-10 -5.291582E-10
       119  13  1.070008E+05  1.008954E+04  3.747629E+04 -2.748413E+04 -2.106654E-09 -1.240718E-10
       119  14  1.049232E+05 -8.056434E+02  1.985827E+04 -1.551666E+04 -3.231051E-09 -3.085800E-10
       119  15  1.070118E+05 -5.987815E+02  1.156723E+04 -2.748143E+04 -1.346121E-09 -4.139311E-10
       119  16  5.248633E+05  1.127785E+05  1.332273E+05 -3.084946E+04 -6.413473E-10  4.538181E-10
       119  17  4.754865E+05  9.022173E+04  1.045589E+05 -1.632126E+04  1.083562E-09  1.305101E-10
       119  18  4.303640E+05  7.885147E+04  8.556702E+04 -2.572463E+04  1.056556E-09 -2.908492E-10
       119  19 -3.106989E+05 -9.261094E+04 -5.828386E+04 -2.412065E+04 -2.996625E+04 -1.791789E+04
       119  20 -2.655123E+05 -9.184216E+04 -6.485006E+04 -1.471228E+04 -2.044071E+04 -1.633047E+04
       119  21 -2.162434E+05 -8.005605E+04 -6.243883E+04 -2.923717E+04 -1.091365E+04 -1.406551E+04
       119  22  1.070018E+05  1.009011E+04  3.747848E+04 -2.748371E+04 -2.905293E+04 -1.791659E+04
       119  23  1.049237E+05 -8.052599E+02  1.985945E+04 -1.551641E+04 -1.901726E+04 -1.632951E+04
       119  24  1.070119E+05 -5.985475E+02  1.156775E+04 -2.748132E+04 -8.980806E+03 -1.406500E+04
       119  25  5.248643E+05  1.127791E+05  1.332294E+05 -3.084906E+04 -2.813900E+04 -1.791531E+04
       119  26  4.754869E+05  9.022210E+04  1.045600E+05 -1.632103E+04 -1.759298E+04 -1.632856E+04
       119  27  4.303641E+05  7.885169E+04  8.556749E+04 -2.572455E+04 -7.046962E+03 -1.406448E+04
       120   1 -1.729646E+05 -6.790961E+04 -5.476951E+04 -2.743736E+04  8.901305E+03  1.260555E+04
       120   2 -1.260884E+05 -5.711284E+04 -4.802645E+04 -1.557003E+04  6.436214E+03  1.027016E+04
       120   3 -7.866036E+04 -4.549258E+04 -3.946726E+04 -2.762706E+04  3.970068E+03  7.903172E+03
       120   4  1.062153E+05  6.676636E+02  8.922581E+03 -2.748005E+04  7.177859E+03  1.260525E+04
       120   5  1.059419E+05 -9.901569E+01  5.007173E+03 -1.551821E+04  4.688172E+03  1.027014E+04
       120   6  1.062214E+05 -3.827169E+01  2.924184E+03 -2.748016E+04  2.197613E+03  7.903446E+03
       120   7  3.854676E+05  6.923953E+04  7.260960E+04 -2.752276E+04  5.453644E+03  1.260495E+04
       120   8  3.380221E+05  5.691107E+04  5.803728E+04 -1.546636E+04  2.939481E+03  1.027012E+04
       120   9  2.911348E+05  4.541366E+04  4.531339E+04 -2.733322E+04  4.246338E+02  7.903719E+03
       120  10 -1.729648E+05 -6.790980E+04 -5.476996E+04 -2.743745E+04 -6.232124E-10  6.006992E-11
       120  11 -1.260885E+05 -5.711296E+04 -4.802673E+04 -1.557008E+04 -3.867899E-10  8.572054E-10
       120  12 -7.866040E+04 -4.549265E+04 -3.946741E+04 -2.762708E+04 -2.094866E-09  1.223624E-09
       120  13  1.062152E+05  6.674791E+02  8.922186E+03 -2.748012E+04  3.354499E-12 -1.646657E-10
       120  14  1.059418E+05 -9.913486E+01  5.006934E+03 -1.551824E+04  1.096040E-09  4.514820E-10
       120  15  1.062214E+05 -3.834006E+01  2.924058E+03 -2.748017E+04  2.099504E-09  8.561546E-10
       120  16  3.854675E+05  6.923935E+04  7.260924E+04 -2.752282E+04 -1.010047E-09 -4.427535E-10
       120  17  3.380220E+05  5.691095E+04  5.803707E+04 -1.546639E+04  4.189022E-10  1.472473E-10
       120  18  2.911348E+05  4.541359E+04  4.531327E+04 -2.733322E+04  1.467122E-09  8.755520E-10
       120  19 -1.729646E+05 -6.790961E+04 -5.476951E+04 -2.743736E+04 -8.901305E+03 -1.260555E+04
       120  20 -1.260884E+05 -5.711284E+04 -4.802645E+04 -1.557003E+04 -6.436214E+03 -1.027016E+04
       120  21 -7.866036E+04 -4.549258E+04 -3.946726E+04 -2.762706E+04 -3.970068E+03 -7.903172E+03
       120  22  1.062153E+05  6.676636E+02  8.922581E+03 -2.748005E+04 -7.177859E+03 -1.260525E+04
       120  23  1.059419E+05 -9.901569E+01  5.007173E+03 -1.551821E+04 -4.688172E+03 -1.027014E+04
       120  24  1.062214E+05 -3.827169E+01  2.924184E+03 -2.748016E+04 -2.197613E+03 -7.903446E+03
       120  25  3.854676E+05  6.923953E+04  7.260960E+04 -2.752276E+04 -5.453644E+03 -1.260495E+04
       120  26  3.380221E+05  5.691107E+04  5.803728E+04 -1.546636E+04 -2.939481E+03 -1.027012E+04
       120  27  2.911348E+05  4.541366E+04  4.531339E+04 -2.733322E+04 -4.246338E+02 -7.903719E+03
       121   1 -3.473908E+04 -3.453998E+04 -2.980133E+04 -2.749799E+04  3.493267E+03  6.519137E+03
       121   2  1.233086E+04 -2.304197E+04 -2.005890E+04 -1.553833E+04  2.818090E+03  4.149939E+03
       121   3  5.949755E+04 -1.146982E+04 -9.861236E+03 -2.748208E+04  2.142523E+03  1.779620E+03
       121   4  1.061231E+05  4.271542E+01  2.254785E+03 -2.747555E+04  1.731145E+03  6.519536E+03
       121   5  1.060769E+05 -9.049532E+00  1.365571E+03 -1.552396E+04  1.054935E+03  4.150449E+03
       121   6  1.061255E+05  1.362373E+01  9.322999E+02 -2.747557E+04  3.783835E+02  1.780249E+03
       121   7  2.470036E+05  3.462404E+04  3.430962E+04 -2.745310E+04 -3.137357E+01  6.519935E+03
       121   8  1.998310E+05  2.302326E+04  2.278948E+04 -1.550959E+04 -7.084853E+02  4.150958E+03
       121   9  1.527554E+05  1.149691E+04  1.172570E+04 -2.746905E+04 -1.385887E+03  1.780878E+03
       121  10 -3.473910E+04 -3.454003E+04 -2.980143E+04 -2.749801E+04  7.593780E-10  4.361757E-10
       121  11  1.233085E+04 -2.304199E+04 -2.005894E+04 -1.553834E+04 -1.044655E-09 -6.108305E-10
       121  12  5.949755E+04 -1.146982E+04 -9.861250E+03 -2.748209E+04 -5.711306E-10 -1.817432E-10
       121  13  1.061230E+05  4.266897E+01  2.254699E+03 -2.747556E+04 -7.179105E-11  6.735033E-10
       121  14  1.060769E+05 -9.068330E+00  1.365537E+03 -1.552396E+04  1.094875E-09 -8.950416E-10
       121  15  1.061255E+05  1.362029E+01  9.322937E+02 -2.747557E+04 -2.640504E-09 -6.263375E-10
       121  16  2.470036E+05  3.462399E+04  3.430954E+04 -2.745310E+04 -6.735067E-10  1.275646E-10
       121  17  1.998310E+05  2.302325E+04  2.278944E+04 -1.550958E+04 -3.315348E-10 -5.178780E-10
       121  18  1.527554E+05  1.149691E+04  1.172569E+04 -2.746905E+04  3.162602E-09 -8.138037E-10
       121  19 -3.473908E+04 -3.453998E+04 -2.980133E+04 -2.749799E+04 -3.493267E+03 -6.519137E+03
       121  20  1.233086E+04 -2.304197E+04 -2.005890E+04 -1.553833E+04 -2.818090E+03 -4.149939E+03
       121  21  5.949755E+04 -1.146982E+04 -9.861236E+03 -2.748208E+04 -2.142523E+03 -1.779620E+03
       121  22  1.061231E+05  4.271542E+01  2.254785E+03 -2.747555E+04 -1.731145E+03 -6.519536E+03
       121  23  1.060769E+05 -9.049532E+00  1.365571E+03 -1.552396E+04 -1.054935E+03 -4.150449E+03
       121  24  1.061255E+05  1.362373E+01  9.322999E+02 -2.747557E+04 -3.783835E+02 -1.780249E+03
       121  25  2.470036E+05  3.462404E+04  3.430962E+04 -2.745310E+04  3.137357E+01 -6.519935E+03
       121  26  1.998310E+05  2.302326E+04  2.278948E+04 -1.550959E+04  7.084853E+02 -4.150958E+03
       121  27  1.527554E+05  1.149691E+04  1.172570E+04 -2.746905E+04  1.385887E+03 -1.780878E+03
       122   1  1.034906E+05 -6.019321E+02  3.673825E+02 -2.748182E+04  1.982328E+03  3.997310E+02
       122   2  1.505834E+05  1.093090E+04  1.097826E+04 -1.553075E+04  1.579547E+03 -1.970275E+03
       122   3  1.977235E+05  2.250516E+04  2.185732E+04 -2.748004E+04  1.176904E+03 -4.339118E+03
       122   4  1.061151E+05  1.531970E+01  8.294549E+02 -2.747496E+04  2.182151E+02  4.003792E+02
       122   5  1.060917E+05  3.983004E-01  8.110306E+02 -1.552472E+04 -1.837321E+02 -1.969686E+03
       122   6  1.061140E+05  2.708383E+01  1.060504E+03 -2.747495E+04 -5.855111E+02 -4.338579E+03
       122   7  1.087396E+05  6.325728E+02  1.291539E+03 -2.746809E+04 -1.545905E+03  4.010273E+02
       122   8  6.160175E+04 -1.093024E+04 -9.356314E+03 -1.551869E+04 -1.946886E+03 -1.969097E+03
       122   9  1.451225E+04 -2.245157E+04 -1.973684E+04 -2.746986E+04 -2.347669E+03 -4.338041E+03
       122  10  1.034906E+05 -6.019333E+02  3.673748E+02 -2.748182E+04 -1.194516E-09  6.733190E-11
       122  11  1.505834E+05  1.093089E+04  1.097825E+04 -1.553075E+04  6.173066E-10 -1.483775E-11
       122  12  1.977235E+05  2.250514E+04  2.185728E+04 -2.748004E+04  7.023502E-11  1.240472E-10
       122  13  1.061151E+05  1.531951E+01  8.294546E+02 -2.747496E+04 -8.617476E-11  3.199524E-10
       122  14  1.060916E+05  3.941250E-01  8.110233E+02 -1.552472E+04 -1.115213E-09  4.915779E-10
       122  15  1.061140E+05  2.706352E+01  1.060468E+03 -2.747495E+04  6.409024E-10 -3.425618E-11
       122  16  1.087396E+05  6.325720E+02  1.291534E+03 -2.746809E+04  2.286089E-09 -1.894496E-10
       122  17  6.160175E+04 -1.093024E+04 -9.356328E+03 -1.551870E+04 -1.702736E-09  4.817111E-10
       122  18  1.451224E+04 -2.245159E+04 -1.973689E+04 -2.746987E+04  1.080815E-09  6.283144E-10
       122  19  1.034906E+05 -6.019321E+02  3.673825E+02 -2.748182E+04 -1.982328E+03 -3.997310E+02
       122  20  1.505834E+05  1.093090E+04  1.097826E+04 -1.553075E+04 -1.579547E+03  1.970275E+03
       122  21  1.977235E+05  2.250516E+04  2.185732E+04 -2.748004E+04 -1.176904E+03  4.339118E+03
       122  22  1.061151E+05  1.531970E+01  8.294549E+02 -2.747496E+04 -2.182151E+02 -4.003792E+02
       122  23  1.060917E+05  3.983004E-01  8.110306E+02 -1.552472E+04  1.837321E+02  1.969686E+03
       122  24  1.061140E+05  2.708383E+01  1.060504E+03 -2.747495E+04  5.855111E+02  4.338579E+03
       122  25  1.087396E+05  6.325728E+02  1.291539E+03 -2.746809E+04  1.545905E+03 -4.010273E+02
       122  26  6.160175E+04 -1.093024E+04 -9.356314E+03 -1.551869E+04  1.946886E+03  1.969097E+03
       122  27  1.451225E+04 -2.245157E+04 -1.973684E+04 -2.746986E+04  2.347669E+03  4.338041E+03
       123   1  2.417813E+05  3.334023E+04  3.242476E+04 -2.743905E+04  9.736554E+02 -5.722300E+03
       123   2  2.888131E+05  4.486207E+04  4.385509E+04 -1.552208E+04 -8.765550E+01 -8.088501E+03
       123   3  3.360785E+05  5.672885E+04  5.606336E+04 -2.751551E+04 -1.148395E+03 -1.042555E+04
       123   4  1.061518E+05 -5.997603E+00  1.295795E+03 -2.747727E+04 -7.983082E+02 -5.721848E+03
       123   5  1.060359E+05 -3.819888E+01  2.089170E+03 -1.552183E+04 -1.837720E+03 -8.088283E+03
       123   6  1.061471E+05  2.707923E+02  3.645375E+03 -2.747721E+04 -2.876481E+03 -1.042555E+04
       123   7 -2.946064E+04 -3.335351E+04 -2.983437E+04 -2.751549E+04 -2.569888E+03 -5.721396E+03
       123   8 -7.671032E+04 -4.494078E+04 -3.967893E+04 -1.552157E+04 -3.587273E+03 -8.088064E+03
       123   9 -1.237352E+05 -5.619093E+04 -4.877604E+04 -2.743891E+04 -4.603932E+03 -1.042556E+04
       123  10  2.417813E+05  3.334019E+04  3.242469E+04 -2.743904E+04 -3.230183E-10  5.654336E-10
       123  11  2.888131E+05  4.486200E+04  4.385497E+04 -1.552208E+04 -7.211267E-10  1.717183E-10
       123  12  3.360785E+05  5.672873E+04  5.606315E+04 -2.751552E+04  2.710991E-10 -4.926069E-10
       123  13  1.061518E+05 -6.032933E+00  1.295732E+03 -2.747728E+04  6.230774E-12  1.601801E-10
       123  14  1.060359E+05 -3.827004E+01  2.089041E+03 -1.552184E+04  2.750848E-09 -2.996195E-10
       123  15  1.061471E+05  2.706733E+02  3.645156E+03 -2.747723E+04 -1.854917E-10 -3.661263E-10
       123  16 -2.946066E+04 -3.335354E+04 -2.983444E+04 -2.751550E+04  8.203230E-10  7.069695E-10
       123  17 -7.671035E+04 -4.494086E+04 -3.967907E+04 -1.552159E+04  7.495335E-10 -4.078254E-10
       123  18 -1.237353E+05 -5.619105E+04 -4.877628E+04 -2.743895E+04  2.088523E-09 -2.684974E-10
       123  19  2.417813E+05  3.334023E+04  3.242476E+04 -2.743905E+04 -9.736554E+02  5.722300E+03
       123  20  2.888131E+05  4.486207E+04  4.385509E+04 -1.552208E+04  8.765550E+01  8.088501E+03
       123  21  3.360785E+05  5.672885E+04  5.606336E+04 -2.751551E+04  1.148395E+03  1.042555E+04
       123  22  1.061518E+05 -5.997603E+00  1.295795E+03 -2.747727E+04  7.983082E+02  5.721848E+03
       123  23  1.060359E+05 -3.819888E+01  2.089170E+03 -1.552183E+04  1.837720E+03  8.088283E+03
       123  24  1.061471E+05  2.707923E+02  3.645375E+03 -2.747721E+04  2.876481E+03  1.042555E+04
       123  25 -2.946064E+04 -3.335351E+04 -2.983437E+04 -2.751549E+04  2.569888E+03  5.721396E+03
       123  26 -7.671032E+04 -4.494078E+04 -3.967893E+04 -1.552157E+04  3.587273E+03  8.088064E+03
       123  27 -1.237352E+05 -5.619093E+04 -4.877604E+04 -2.743891E+04  4.603932E+03  1.042556E+04
       124   1  3.804776E+05  6.708990E+04  6.743605E+04 -2.679074E+04 -1.691793E+03 -1.187747E+04
       124   2  4.267993E+05  7.856612E+04  8.146378E+04 -1.585113E+04 -6.221787E+03 -1.414776E+04
       124   3  4.749138E+05  9.461501E+04  9.959464E+04 -2.883212E+04 -1.075114E+04 -1.579734E+04
       124   4  1.064716E+05 -2.413274E+02  4.707442E+03 -2.747947E+04 -3.611849E+03 -1.187765E+04
       124   5  1.056116E+05 -3.351803E+02  8.044948E+03 -1.551901E+04 -7.677914E+03 -1.414834E+04
       124   6  1.064631E+05  4.064689E+03  1.516517E+04 -2.747985E+04 -1.174300E+04 -1.579818E+04
       124   7 -1.674648E+05 -6.757778E+04 -5.802608E+04 -2.816789E+04 -5.531064E+03 -1.187783E+04
       124   8 -2.154804E+05 -7.924364E+04 -6.538063E+04 -1.518707E+04 -9.133294E+03 -1.414893E+04
       124   9 -2.618619E+05 -8.649507E+04 -6.927323E+04 -2.612839E+04 -1.273428E+04 -1.579903E+04
       124  10  3.804775E+05  6.708975E+04  6.743578E+04 -2.679076E+04 -6.426976E-10 -1.144896E-09
       124  11  4.267992E+05  7.856590E+04  8.146333E+04 -1.585120E+04  2.267753E-10 -7.975996E-10
       124  12  4.749136E+05  9.461471E+04  9.959396E+04 -2.883226E+04 -1.471387E-09  9.562459E-10
       124  13  1.064716E+05 -2.414824E+02  4.707153E+03 -2.747951E+04  2.151193E-09 -6.738388E-10
       124  14  1.056115E+05 -3.354111E+02  8.044461E+03 -1.551910E+04 -5.196622E-10 -5.467643E-10
       124  15  1.064629E+05  4.064384E+03  1.516444E+04 -2.748000E+04  1.266996E-09  6.414006E-10
       124  16 -1.674649E+05 -6.757794E+04 -5.802640E+04 -2.816795E+04  1.415526E-10 -2.532598E-10
       124  17 -2.154806E+05 -7.924388E+04 -6.538117E+04 -1.518717E+04 -1.142292E-09 -3.099606E-10
       124  18 -2.618622E+05 -8.649538E+04 -6.927401E+04 -2.612855E+04  8.054651E-10  4.791606E-10
       124  19  3.804776E+05  6.708990E+04  6.743605E+04 -2.679074E+04  1.691793E+03  1.187747E+04
       124  20  4.267993E+05  7.856612E+04  8.146378E+04 -1.585113E+04  6.221787E+03  1.414776E+04
       124  21  4.749138E+05  9.461501E+04  9.959464E+04 -2.883212E+04  1.075114E+04  1.579734E+04
       124  22  1.064716E+05 -2.413274E+02  4.707442E+03 -2.747947E+04  3.611849E+03  1.187765E+04
       124  23  1.056116E+05 -3.351803E+02  8.044948E+03 -1.551901E+04  7.677914E+03  1.414834E+04
       124  24  1.064631E+05  4.064689E+03  1.516517E+04 -2.747985E+04  1.174300E+04  1.579818E+04
       124  25 -1.674648E+05 -6.757778E+04 -5.802608E+04 -2.816789E+04  5.531064E+03  1.187783E+04
       124  26 -2.154804E+05 -7.924364E+04 -6.538063E+04 -1.518707E+04  9.133294E+03  1.414893E+04
       124  27 -2.618619E+05 -8.649507E+04 -6.927323E+04 -2.612839E+04  1.273428E+04  1.579903E+04
       125   1  5.227702E+05  9.820342E+04  1.129917E+05 -1.886812E+04 -9.545042E+03 -1.865386E+04
       125   2  5.606217E+05  1.094555E+05  1.370134E+05 -2.322095E+04 -3.591579E+04 -1.888045E+04
       125   3  6.176728E+05  1.832458E+05  1.938562E+05 -5.110592E+04 -6.229676E+04 -6.172717E+03
       125   4  1.099726E+05 -3.156690E+03  1.886479E+04 -2.738459E+04 -1.451591E+04 -1.865589E+04
       125   5  1.011960E+05 -3.520050E+03  3.134237E+04 -1.563461E+04 -3.124591E+04 -1.887974E+04
       125   6  1.099585E+05  5.700619E+04  6.996300E+04 -2.741647E+04 -4.798387E+04 -6.166355E+03
       125   7 -3.026669E+05 -1.045283E+05 -7.527316E+04 -3.589537E+04 -1.948349E+04 -1.865779E+04
       125   8 -3.580342E+05 -1.165101E+05 -7.434253E+04 -8.053937E+03 -2.657944E+04 -1.887891E+04
       125   9 -3.975193E+05 -6.925018E+04 -5.394789E+04 -3.746460E+03 -3.368264E+04 -6.158901E+03
       125  10  5.227700E+05  9.820302E+04  1.129909E+05 -1.886826E+04  3.245721E-10  1.076658E-09
       125  11  5.606202E+05  1.094547E+05  1.370103E+05 -2.322150E+04  1.922120E-09 -2.803587E-10
       125  12  6.176686E+05  1.832447E+05  1.938488E+05 -5.110623E+04 -2.879688E-10  1.041952E-12
       125  13  1.099723E+05 -3.157120E+03  1.886374E+04 -2.738481E+04 -3.209502E-11  3.311540E-10
       125  14  1.011949E+05 -3.520695E+03  3.133987E+04 -1.563508E+04 -1.071517E-09  7.855885E-13
       125  15  1.099560E+05  5.700553E+04  6.995861E+04 -2.741671E+04  1.415069E-09 -3.958521E-10
       125  16 -3.026674E+05 -1.045288E+05 -7.527452E+04 -3.589566E+04 -1.506483E-09  5.660867E-10
       125  17 -3.580351E+05 -1.165106E+05 -7.434453E+04 -8.054341E+03 -2.733643E-09 -1.008730E-10
       125  18 -3.975205E+05 -6.925053E+04 -5.395009E+04 -3.746627E+03  1.678438E-10  5.272488E-10
       125  19  5.227702E+05  9.820342E+04  1.129917E+05 -1.886812E+04  9.545042E+03  1.865386E+04
       125  20  5.606217E+05  1.094555E+05  1.370134E+05 -2.322095E+04  3.591579E+04  1.888045E+04
       125  21  6.176728E+05  1.832458E+05  1.938562E+05 -5.110592E+04  6.229676E+04  6.172717E+03
       125  22  1.099726E+05 -3.156690E+03  1.886479E+04 -2.738459E+04  1.451591E+04  1.865589E+04
       125  23  1.011960E+05 -3.520050E+03  3.134237E+04 -1.563461E+04  3.124591E+04  1.887974E+04
       125  24  1.099585E+05  5.700619E+04  6.996300E+04 -2.741647E+04  4.798387E+04  6.166355E+03
       125  25 -3.026669E+05 -1.045283E+05 -7.527316E+04 -3.589537E+04  1.948349E+04  1.865779E+04
       125  26 -3.580342E+05 -1.165101E+05 -7.434253E+04 -8.053937E+03  2.657944E+04  1.887891E+04
       125  27 -3.975193E+05 -6.925018E+04 -5.394789E+04 -3.746460E+03  3.368264E+04  6.158901E+03
       126   1  5.382662E+05  1.494662E+06  5.356095E+05 -2.845261E+05  2.220770E+04  7.539635E+04
       126   2  3.856970E+05  1.019212E+06  3.786089E+05 -1.590829E+05  6.337880E+04  2.585320E+04
       126   3  2.726744E+05  5.605149E+05  2.637554E+05 -2.680165E+05  4.939274E+04 -2.374863E+04
       126   4  2.936320E+04 -5.506948E+05  3.539742E+04 -2.698823E+05  2.229757E+04  2.417721E+04
       126   5 -1.665919E+03 -5.552332E+05  1.585193E+04 -1.527060E+05  6.341208E+04  1.578623E+04
       126   6 -2.154773E+02 -5.503096E+05  9.960580E+03 -2.699367E+05  4.930844E+04  7.298953E+03
       126   7 -4.798472E+05 -2.592238E+06 -4.651105E+05 -2.552844E+05  2.238520E+04 -2.687396E+04
       126   8 -3.892022E+05 -2.127387E+06 -3.470693E+05 -1.463439E+05  6.344520E+04  5.744523E+03
       126   9 -2.731905E+05 -1.659988E+06 -2.439113E+05 -2.718523E+05  4.922387E+04  3.829148E+04
       126  10  5.382641E+05  1.494656E+06  5.355979E+05 -2.845274E+05 -2.830237E-10  5.207837E-10
       126  11  3.856925E+05  1.019210E+06  3.786001E+05 -1.590842E+05  5.120136E-10 -1.505919E-09
       126  12  2.726716E+05  5.605136E+05  2.637497E+05 -2.680156E+05 -6.368913E-10 -1.251410E-09
       126  13  2.936251E+04 -5.506956E+05  3.539539E+04 -2.698827E+05  1.998174E-10  5.859243E-10
       126  14 -1.670303E+03 -5.552346E+05  1.584391E+04 -1.527068E+05  8.677080E-10 -2.004624E-09
       126  15 -2.181020E+02 -5.503103E+05  9.955911E+03 -2.699370E+05  1.250517E-09  5.726854E-10
       126  16 -4.798479E+05 -2.592239E+06 -4.651128E+05 -2.552839E+05 -1.256223E-09 -5.384148E-10
       126  17 -3.892065E+05 -2.127388E+06 -3.470769E+05 -1.463442E+05 -4.504481E-10  3.505207E-10
       126  18 -2.731935E+05 -1.659991E+06 -2.439187E+05 -2.718538E+05 -8.623686E-10 -1.193043E-10
       126  19  5.382662E+05  1.494662E+06  5.356095E+05 -2.845261E+05 -2.220770E+04 -7.539635E+04
       126  20  3.856970E+05  1.019212E+06  3.786089E+05 -1.590829E+05 -6.337880E+04 -2.585320E+04
       126  21  2.726744E+05  5.605149E+05  2.637554E+05 -2.680165E+05 -4.939274E+04  2.374863E+04
       126  22  2.936320E+04 -5.506948E+05  3.539742E+04 -2.698823E+05 -2.229757E+04 -2.417721E+04
       126  23 -1.665919E+03 -5.552332E+05  1.585193E+04 -1.527060E+05 -6.341208E+04 -1.578623E+04
       126  24 -2.154773E+02 -5.503096E+05  9.960580E+03 -2.699367E+05 -4.930844E+04 -7.298953E+03
       126  25 -4.798472E+05 -2.592238E+06 -4.651105E+05 -2.552844E+05 -2.238520E+04  2.687396E+04
       126  26 -3.892022E+05 -2.127387E+06 -3.470693E+05 -1.463439E+05 -6.344520E+04 -5.744523E+03
       126  27 -2.731905E+05 -1.659988E+06 -2.439113E+05 -2.718523E+05 -4.922387E+04 -3.829148E+04
       127   1  1.689878E+05  1.208930E+05  1.623534E+05 -2.727094E+05  2.913261E+04 -8.991475E+03
       127   2  5.131922E+04 -3.463714E+05  5.191998E+04 -1.526147E+05  9.096848E+03 -1.185188E+04
       127   3 -6.240508E+04 -8.136685E+05 -5.605307E+04 -2.694183E+05 -1.142593E+04 -1.471832E+04
       127   4  3.466134E+03 -5.522877E+05  8.118983E+03 -2.704713E+05  2.908867E+04  5.736591E+03
       127   5  7.332889E+02 -5.521139E+05  4.846815E+03 -1.520227E+05  9.049961E+03  3.235858E+03
       127   6  1.897726E+03 -5.522368E+05  3.798096E+03 -2.704763E+05 -1.147657E+04  7.270158E+02
       127   7 -1.620870E+05 -1.225048E+06 -1.461444E+05 -2.682353E+05  2.904480E+04  2.044882E+04
       127   8 -4.985546E+04 -7.578166E+05 -4.222827E+04 -1.514310E+05  9.003095E+03  1.831864E+04
       127   9  6.619590E+04 -2.907412E+05  6.364567E+04 -2.715347E+05 -1.152724E+04  1.617881E+04
       127  10  1.689869E+05  1.208927E+05  1.623516E+05 -2.727092E+05 -2.862065E-10  1.018922E-08
       127  11  5.131909E+04 -3.463716E+05  5.191956E+04 -1.526146E+05 -3.480957E-10  2.816305E-09
       127  12 -6.240528E+04 -8.136687E+05 -5.605372E+04 -2.694184E+05 -2.878752E-10 -4.145614E-09
       127  13  3.465216E+03 -5.522880E+05  8.117331E+03 -2.704714E+05  8.225476E-10  1.495416E-09
       127  14  7.331982E+02 -5.521139E+05  4.846642E+03 -1.520228E+05 -5.192153E-10 -3.043602E-09
       127  15  1.897584E+03 -5.522368E+05  3.797848E+03 -2.704763E+05 -1.766825E-09  5.540863E-10
       127  16 -1.620880E+05 -1.225049E+06 -1.461468E+05 -2.682357E+05 -2.291413E-09 -1.017305E-08
       127  17 -4.985564E+04 -7.578170E+05 -4.222905E+04 -1.514311E+05 -3.208258E-10 -4.648285E-09
       127  18  6.619569E+04 -2.907416E+05  6.364493E+04 -2.715345E+05 -2.034224E-09  2.537902E-09
       127  19  1.689878E+05  1.208930E+05  1.623534E+05 -2.727094E+05 -2.913261E+04  8.991475E+03
       127  20  5.131922E+04 -3.463714E+05  5.191998E+04 -1.526147E+05 -9.096848E+03  1.185188E+04
       127  21 -6.240508E+04 -8.136685E+05 -5.605307E+04 -2.694183E+05  1.142593E+04  1.471832E+04
       127  22  3.466134E+03 -5.522877E+05  8.118983E+03 -2.704713E+05 -2.908867E+04 -5.736591E+03
       127  23  7.332889E+02 -5.521139E+05  4.846815E+03 -1.520227E+05 -9.049961E+03 -3.235858E+03
       127  24  1.897726E+03 -5.522368E+05  3.798096E+03 -2.704763E+05  1.147657E+04 -7.270158E+02
       127  25 -1.620870E+05 -1.225048E+06 -1.461444E+05 -2.682353E+05 -2.904480E+04 -2.044882E+04
       127  26 -4.985546E+04 -7.578166E+05 -4.222827E+04 -1.514310E+05 -9.003095E+03 -1.831864E+04
       127  27  6.619590E+04 -2.907412E+05  6.364567E+04 -2.715347E+05  1.152724E+04 -1.617881E+04
       128   1 -1.704654E+05 -1.250510E+06 -1.563749E+05 -2.692581E+05 -3.053048E+04 -2.849743E+04
       128   2 -2.863614E+05 -1.715163E+06 -2.647209E+05 -1.495692E+05 -4.642126E+04  3.043244E+03
       128   3 -4.004694E+05 -2.183883E+06 -3.933675E+05 -2.649678E+05 -1.711194E+04  3.466359E+04
       128   4  1.395483E+03 -5.519251E+05  3.618895E+03 -2.700694E+05 -3.061895E+04  1.530944E+01
       128   5  1.153391E+02 -5.528527E+05  3.760612E+03 -1.525338E+05 -4.640202E+04 -2.004855E+03
       128   6  6.469575E+03 -5.522154E+05  6.951765E+03 -2.700573E+05 -1.702291E+04 -3.921064E+03
       128   7  1.732228E+05  1.471141E+05  1.635836E+05 -2.708811E+05 -3.070744E+04  2.855991E+04
       128   8  2.864973E+05  6.107094E+05  2.721521E+05 -1.555031E+05 -4.638276E+04 -7.062350E+03
       128   9  4.132116E+05  1.081887E+06  4.070811E+05 -2.751584E+05 -1.693339E+04 -4.260720E+04
       128  10 -1.704666E+05 -1.250511E+06 -1.563781E+05 -2.692588E+05 -1.220475E-09 -5.736187E-09
       128  11 -2.863638E+05 -1.715163E+06 -2.647250E+05 -1.495691E+05  9.482007E-10 -5.042940E-09
       128  12 -4.004700E+05 -2.183885E+06 -3.933704E+05 -2.649673E+05 -2.001771E-10 -1.238927E-09
       128  13  1.394476E+03 -5.519254E+05  3.617134E+03 -2.700694E+05 -2.829970E-09  1.440870E-09
       128  14  1.130265E+02 -5.528532E+05  3.756560E+03 -1.525339E+05  1.592314E-10 -2.699206E-09
       128  15  6.469260E+03 -5.522155E+05  6.951191E+03 -2.700573E+05 -6.854418E-10  3.622313E-10
       128  16  1.732216E+05  1.471130E+05  1.635803E+05 -2.708804E+05 -1.281229E-09  5.681802E-09
       128  17  2.864949E+05  6.107087E+05  2.721480E+05 -1.555034E+05 -5.131114E-10  3.456600E-09
       128  18  4.132108E+05  1.081885E+06  4.070772E+05 -2.751590E+05  2.348282E-10  3.811026E-11
       128  19 -1.704654E+05 -1.250510E+06 -1.563749E+05 -2.692581E+05  3.053048E+04  2.849743E+04
       128  20 -2.863614E+05 -1.715163E+06 -2.647209E+05 -1.495692E+05  4.642126E+04 -3.043244E+03
       128  21 -4.004694E+05 -2.183883E+06 -3.933675E+05 -2.649678E+05  1.711194E+04 -3.466359E+04
       128  22  1.395483E+03 -5.519251E+05  3.618895E+03 -2.700694E+05  3.061895E+04 -1.530944E+01
       128  23  1.153391E+02 -5.528527E+05  3.760612E+03 -1.525338E+05  4.640202E+04  2.004855E+03
       128  24  6.469575E+03 -5.522154E+05  6.951765E+03 -2.700573E+05  1.702291E+04  3.921064E+03
       128  25  1.732228E+05  1.471141E+05  1.635836E+05 -2.708811E+05  3.070744E+04 -2.855991E+04
       128  26  2.864973E+05  6.107094E+05  2.721521E+05 -1.555031E+05  4.638276E+04  7.062350E+03
       128  27  4.132116E+05  1.081887E+06  4.070811E+05 -2.751584E+05  1.693339E+04  4.260720E+04
       129   1 -1.838570E+06 -5.586674E+05 -3.062936E+05 -6.732981E+05 -1.354398E+05 -4.458849E+04
       129   2 -1.793134E+06 -3.578949E+05 -1.803880E+05 -6.704184E+05 -8.757995E+04 -1.354999E+04
       129   3 -1.799557E+06 -3.294614E+05 -1.365950E+05 -6.435891E+05 -3.528441E+04  5.703004E+03
       129   4 -1.451069E+06 -3.560955E+05 -1.908240E+05 -5.097980E+05 -1.234495E+05 -4.009607E+04
       129   5 -1.415733E+06 -1.987284E+05 -8.131742E+04 -5.488155E+05 -8.375698E+04 -1.211733E+04
       129   6 -1.430597E+06 -2.120262E+05 -4.740187E+04 -5.638953E+05 -3.963159E+04  4.070839E+03
       129   7 -1.063414E+06 -1.534684E+05 -7.536856E+04 -3.461922E+05 -1.114511E+05 -3.559782E+04
       129   8 -1.038191E+06 -3.954150E+04  1.774114E+04 -4.271414E+05 -7.993144E+04 -1.068344E+04
       129   9 -1.061501E+06 -9.459000E+04  4.178205E+04 -4.841624E+05 -4.398163E+04  2.437969E+03
       129  10 -1.838590E+06 -5.586745E+05 -3.063319E+05 -6.733029E+05 -1.071816E-09  4.895399E-10
       129  11 -1.793143E+06 -3.578971E+05 -1.804028E+05 -6.704193E+05 -5.693686E-11  3.512355E-11
       129  12 -1.799559E+06 -3.294618E+05 -1.365974E+05 -6.435889E+05 -4.821644E-10  1.629330E-10
       129  13 -1.451085E+06 -3.561013E+05 -1.908558E+05 -5.098020E+05 -1.801738E-10  1.443083E-10
       129  14 -1.415741E+06 -1.987304E+05 -8.133091E+04 -5.488163E+05  1.953856E-09 -7.252789E-10
       129  15 -1.430598E+06 -2.120266E+05 -4.740486E+04 -5.638952E+05 -6.206282E-10  1.982060E-10
       129  16 -1.063428E+06 -1.534731E+05 -7.539433E+04 -3.461954E+05 -3.094020E-10  3.558298E-10
       129  17 -1.038198E+06 -3.954334E+04  1.772890E+04 -4.271421E+05 -1.280144E-10  5.758863E-12
       129  18 -1.061503E+06 -9.459053E+04  4.177840E+04 -4.841623E+05  2.923541E-10  2.185767E-10
       129  19 -1.838570E+06 -5.586674E+05 -3.062936E+05 -6.732981E+05  1.354398E+05  4.458849E+04
       129  20 -1.793134E+06 -3.578949E+05 -1.803880E+05 -6.704184E+05  8.757995E+04  1.354999E+04
       129  21 -1.799557E+06 -3.294614E+05 -1.365950E+05 -6.435891E+05  3.528441E+04 -5.703004E+03
       129  22 -1.451069E+06 -3.560955E+05 -1.908240E+05 -5.097980E+05  1.234495E+05  4.009607E+04
       129  23 -1.415733E+06 -1.987284E+05 -8.131742E+04 -5.488155E+05  8.375698E+04  1.211733E+04
       129  24 -1.430597E+06 -2.120262E+05 -4.740187E+04 -5.638953E+05  3.963159E+04 -4.070839E+03
       129  25 -1.063414E+06 -1.534684E+05 -7.536856E+04 -3.461922E+05  1.114511E+05  3.559782E+04
       129  26 -1.038191E+06 -3.954150E+04  1.774114E+04 -4.271414E+05  7.993144E+04  1.068344E+04
       129  27 -1.061501E+06 -9.459000E+04  4.178205E+04 -4.841624E+05  4.398163E+04 -2.437969E+03
       130   1 -1.738169E+06 -3.503138E+05 -1.182132E+05 -6.437147E+05 -3.161944E+04  4.132548E+03
       130   2 -1.705530E+06 -3.144235E+05 -8.929724E+04 -6.258047E+05 -2.093516E+04  6.621052E+03
       130   3 -1.663747E+06 -3.062428E+05 -7.137074E+04 -6.222878E+05 -1.001588E+04  8.482857E+03
       130   4 -1.424307E+06 -2.291151E+05 -3.802334E+04 -5.540552E+05 -3.233885E+04  3.861628E+03
       130   5 -1.428119E+06 -2.096823E+05 -1.904523E+04 -5.489645E+05 -2.208521E+04  6.188914E+03
       130   6 -1.422702E+06 -2.178690E+05 -1.071004E+04 -5.582673E+05 -1.159730E+04  7.889285E+03
       130   7 -1.110348E+06 -1.079084E+05  4.215848E+04 -4.643539E+05 -3.305866E+04  3.590548E+03
       130   8 -1.150634E+06 -1.049358E+05  5.120044E+04 -4.720933E+05 -2.323582E+04  5.756562E+03
       130   9 -1.181601E+06 -1.294923E+05  4.994579E+04 -4.942248E+05 -1.317939E+04  7.295475E+03
       130  10 -1.738170E+06 -3.503141E+05 -1.182151E+05 -6.437146E+05 -1.386057E-09 -5.276178E-11
       130  11 -1.705530E+06 -3.144237E+05 -8.929815E+04 -6.258045E+05 -1.445669E-09 -3.739081E-10
       130  12 -1.663747E+06 -3.062430E+05 -7.137107E+04 -6.222877E+05  1.204538E-10 -2.964588E-10
       130  13 -1.424308E+06 -2.291154E+05 -3.802533E+04 -5.540551E+05  5.685945E-10 -2.325036E-10
       130  14 -1.428120E+06 -2.096824E+05 -1.904622E+04 -5.489644E+05 -1.990057E-09 -3.468384E-10
       130  15 -1.422702E+06 -2.178691E+05 -1.071041E+04 -5.582672E+05  1.131081E-09 -3.375558E-10
       130  16 -1.110350E+06 -1.079087E+05  4.215640E+04 -4.643538E+05  1.463883E-11  1.196438E-10
       130  17 -1.150635E+06 -1.049360E+05  5.119936E+04 -4.720931E+05  4.198367E-10 -4.140311E-10
       130  18 -1.181601E+06 -1.294924E+05  4.994537E+04 -4.942247E+05 -1.002733E-09 -4.946852E-10
       130  19 -1.738169E+06 -3.503138E+05 -1.182132E+05 -6.437147E+05  3.161944E+04 -4.132548E+03
       130  20 -1.705530E+06 -3.144235E+05 -8.929724E+04 -6.258047E+05  2.093516E+04 -6.621052E+03
       130  21 -1.663747E+06 -3.062428E+05 -7.137074E+04 -6.222878E+05  1.001588E+04 -8.482857E+03
       130  22 -1.424307E+06 -2.291151E+05 -3.802334E+04 -5.540552E+05  3.233885E+04 -3.861628E+03
       130  23 -1.428119E+06 -2.096823E+05 -1.904523E+04 -5.489645E+05  2.208521E+04 -6.188914E+03
       130  24 -1.422702E+06 -2.178690E+05 -1.071004E+04 -5.582673E+05  1.159730E+04 -7.889285E+03
       130  25 -1.110348E+06 -1.079084E+05  4.215848E+04 -4.643539E+05  3.305866E+04 -3.590548E+03
       130  26 -1.150634E+06 -1.049358E+05  5.120044E+04 -4.720933E+05  2.323582E+04 -5.756562E+03
       130  27 -1.181601E+06 -1.294923E+05  4.994579E+04 -4.942248E+05  1.317939E+04 -7.295475E+03
       131   1 -1.623244E+06 -2.945871E+05 -5.894746E+04 -6.126689E+05 -8.200825E+03  7.711299E+03
       131   2 -1.591372E+06 -2.711079E+05 -4.534180E+04 -5.931528E+05 -5.175628E+03  6.518639E+03
       131   3 -1.544668E+06 -2.641250E+05 -3.368393E+04 -5.912055E+05 -2.134596E+03  5.282501E+03
       131   4 -1.421994E+06 -2.192281E+05 -8.234353E+03 -5.575338E+05 -9.605161E+03  7.184326E+03
       131   5 -1.429348E+06 -2.105547E+05 -4.440010E+03 -5.489083E+05 -6.609473E+03  5.980809E+03
       131   6 -1.421867E+06 -2.183717E+05 -2.569632E+03 -5.578522E+05 -3.598115E+03  4.733768E+03
       131   7 -1.220702E+06 -1.438660E+05  4.247576E+04 -5.023822E+05 -1.101000E+04  6.657163E+03
       131   8 -1.267297E+06 -1.499997E+05  3.645979E+04 -5.046533E+05 -8.043731E+03  5.442825E+03
       131   9 -1.299051E+06 -1.726175E+05  2.854347E+04 -5.244928E+05 -5.061951E+03  4.184917E+03
       131  10 -1.623244E+06 -2.945872E+05 -5.894769E+04 -6.126689E+05  1.823853E-09 -3.352376E-10
       131  11 -1.591372E+06 -2.711079E+05 -4.534193E+04 -5.931528E+05 -6.996345E-10 -9.665667E-10
       131  12 -1.544668E+06 -2.641250E+05 -3.368399E+04 -5.912055E+05 -2.877668E-09  4.006741E-10
       131  13 -1.421994E+06 -2.192281E+05 -8.234624E+03 -5.575337E+05 -4.298585E-10 -3.710294E-10
       131  14 -1.429348E+06 -2.105548E+05 -4.440160E+03 -5.489083E+05  2.058592E-09 -7.444722E-10
       131  15 -1.421867E+06 -2.183717E+05 -2.569699E+03 -5.578522E+05 -1.831545E-09 -1.080915E-10
       131  16 -1.220703E+06 -1.438661E+05  4.247545E+04 -5.023821E+05 -9.334169E-10 -7.637885E-10
       131  17 -1.267298E+06 -1.499998E+05  3.645961E+04 -5.046532E+05  5.164924E-10 -4.522974E-10
       131  18 -1.299051E+06 -1.726175E+05  2.854339E+04 -5.244928E+05  2.094058E-09  8.507355E-12
       131  19 -1.623244E+06 -2.945871E+05 -5.894746E+04 -6.126689E+05  8.200825E+03 -7.711299E+03
       131  20 -1.591372E+06 -2.711079E+05 -4.534180E+04 -5.931528E+05  5.175628E+03 -6.518639E+03
       131  21 -1.544668E+06 -2.641250E+05 -3.368393E+04 -5.912055E+05  2.134596E+03 -5.282501E+03
       131  22 -1.421994E+06 -2.192281E+05 -8.234353E+03 -5.575338E+05  9.605161E+03 -7.184326E+03
       131  23 -1.429348E+06 -2.105547E+05 -4.440010E+03 -5.489083E+05  6.609473E+03 -5.980809E+03
       131  24 -1.421867E+06 -2.183717E+05 -2.569632E+03 -5.578522E+05  3.598115E+03 -4.733768E+03
       131  25 -1.220702E+06 -1.438660E+05  4.247576E+04 -5.023822E+05  1.101000E+04 -6.657163E+03
       131  26 -1.267297E+06 -1.499997E+05  3.645979E+04 -5.046533E+05  8.043731E+03 -5.442825E+03
       131  27 -1.299051E+06 -1.726175E+05  2.854347E+04 -5.244928E+05  5.061951E+03 -4.184917E+03
       132   1 -1.505395E+06 -2.497132E+05 -2.299887E+04 -5.806574E+05 -1.302175E+03  4.197641E+03
       132   2 -1.473365E+06 -2.269764E+05 -1.244528E+04 -5.608304E+05  1.760251E+02  2.355593E+03
       132   3 -1.425814E+06 -2.199813E+05 -2.429687E+03 -5.589419E+05  1.656034E+03  5.082985E+02
       132   4 -1.421754E+06 -2.184964E+05 -2.032605E+03 -5.578242E+05 -2.760986E+03  3.650765E+03
       132   5 -1.429509E+06 -2.105975E+05 -1.377249E+03 -5.488651E+05 -1.286381E+03  1.807429E+03
       132   6 -1.421744E+06 -2.184397E+05 -1.256988E+03 -5.578450E+05  1.899782E+02 -4.116228E+01
       132   7 -1.338106E+06 -1.872792E+05  1.893309E+04 -5.349883E+05 -4.220010E+03  3.103809E+03
       132   8 -1.385651E+06 -1.942187E+05  9.690585E+03 -5.368990E+05 -2.748894E+03  1.259225E+03
       132   9 -1.417675E+06 -2.168982E+05 -8.429104E+01 -5.567481E+05 -1.276077E+03 -5.906228E+02
       132  10 -1.505395E+06 -2.497132E+05 -2.299891E+04 -5.806574E+05 -2.350840E-09  7.045667E-10
       132  11 -1.473365E+06 -2.269764E+05 -1.244529E+04 -5.608304E+05 -2.336690E-10 -4.162883E-10
       132  12 -1.425814E+06 -2.199813E+05 -2.429692E+03 -5.589419E+05 -1.885367E-09 -1.977854E-10
       132  13 -1.421754E+06 -2.184964E+05 -2.032645E+03 -5.578242E+05 -8.058763E-10  7.867062E-10
       132  14 -1.429509E+06 -2.105975E+05 -1.377259E+03 -5.488651E+05  4.254940E-10  2.682633E-10
       132  15 -1.421744E+06 -2.184397E+05 -1.256989E+03 -5.578450E+05  9.241826E-10  1.042567E-09
       132  16 -1.338106E+06 -1.872792E+05  1.893303E+04 -5.349882E+05  1.004135E-10 -6.787408E-11
       132  17 -1.385651E+06 -1.942187E+05  9.690568E+03 -5.368990E+05  3.705975E-10  5.177558E-10
       132  18 -1.417675E+06 -2.168982E+05 -8.429476E+01 -5.567481E+05  2.189285E-09  1.641840E-09
       132  19 -1.505395E+06 -2.497132E+05 -2.299887E+04 -5.806574E+05  1.302175E+03 -4.197641E+03
       132  20 -1.473365E+06 -2.269764E+05 -1.244528E+04 -5.608304E+05 -1.760251E+02 -2.355593E+03
       132  21 -1.425814E+06 -2.199813E+05 -2.429687E+03 -5.589419E+05 -1.656034E+03 -5.082985E+02
       132  22 -1.421754E+06 -2.184964E+05 -2.032605E+03 -5.578242E+05  2.760986E+03 -3.650765E+03
       132  23 -1.429509E+06 -2.105975E+05 -1.377249E+03 -5.488651E+05  1.286381E+03 -1.807429E+03
       132  24 -1.421744E+06 -2.184397E+05 -1.256988E+03 -5.578450E+05 -1.899782E+02  4.116228E+01
       132  25 -1.338106E+06 -1.872792E+05  1.893309E+04 -5.349883E+05  4.220010E+03 -3.103809E+03
       132  26 -1.385651E+06 -1.942187E+05  9.690585E+03 -5.368990E+05  2.748894E+03 -1.259225E+03
       132  27 -1.417675E+06 -2.168982E+05 -8.429104E+01 -5.567481E+05  1.276077E+03  5.906228E+02
       133   1 -1.386544E+06 -2.052741E+05  7.671784E+03 -5.482657E+05  2.331943E+03 -6.382420E+02
       133   2 -1.354554E+06 -1.826262E+05  1.695948E+04 -5.284412E+05  4.086980E+03 -2.379450E+03
       133   3 -1.307123E+06 -1.757488E+05  2.549039E+04 -5.265224E+05  5.839415E+03 -4.112651E+03
       133   4 -1.421760E+06 -2.184313E+05 -1.358496E+03 -5.578436E+05  8.665820E+02 -1.187457E+03
       133   5 -1.429488E+06 -2.105964E+05 -1.947811E+03 -5.488717E+05  2.626987E+03 -2.926768E+03
       133   6 -1.421777E+06 -2.185333E+05 -3.297975E+03 -5.578063E+05  4.384718E+03 -4.658090E+03
       133   7 -1.456976E+06 -2.315885E+05 -1.038896E+04 -5.674211E+05 -5.987009E+02 -1.736642E+03
       133   8 -1.504418E+06 -2.385664E+05 -2.085569E+04 -5.693001E+05  1.167178E+03 -3.474018E+03
       133   9 -1.536419E+06 -2.613171E+05 -3.208753E+04 -5.890851E+05  2.930308E+03 -5.203421E+03
       133  10 -1.386544E+06 -2.052741E+05  7.671773E+03 -5.482657E+05 -6.496906E-11  9.093927E-10
       133  11 -1.354554E+06 -1.826262E+05  1.695944E+04 -5.284412E+05 -1.134377E-10 -6.952849E-10
       133  12 -1.307123E+06 -1.757489E+05  2.549029E+04 -5.265224E+05 -4.251872E-11 -7.390394E-10
       133  13 -1.421760E+06 -2.184313E+05 -1.358500E+03 -5.578436E+05 -1.711605E-10  5.571111E-10
       133  14 -1.429488E+06 -2.105964E+05 -1.947840E+03 -5.488717E+05  2.872752E-09 -2.525770E-10
       133  15 -1.421777E+06 -2.185333E+05 -3.298052E+03 -5.578063E+05  2.102183E-09 -5.663550E-10
       133  16 -1.456976E+06 -2.315885E+05 -1.038896E+04 -5.674211E+05  3.013514E-10  8.186380E-10
       133  17 -1.504418E+06 -2.385664E+05 -2.085571E+04 -5.693001E+05  2.835853E-10 -2.379548E-10
       133  18 -1.536419E+06 -2.613171E+05 -3.208760E+04 -5.890851E+05  1.324574E-09  4.313814E-10
       133  19 -1.386544E+06 -2.052741E+05  7.671784E+03 -5.482657E+05 -2.331943E+03  6.382420E+02
       133  20 -1.354554E+06 -1.826262E+05  1.695948E+04 -5.284412E+05 -4.086980E+03  2.379450E+03
       133  21 -1.307123E+06 -1.757488E+05  2.549039E+04 -5.265224E+05 -5.839415E+03  4.112651E+03
       133  22 -1.421760E+06 -2.184313E+05 -1.358496E+03 -5.578436E+05 -8.665820E+02  1.187457E+03
       133  23 -1.429488E+06 -2.105964E+05 -1.947811E+03 -5.488717E+05 -2.626987E+03  2.926768E+03
       133  24 -1.421777E+06 -2.185333E+05 -3.297975E+03 -5.578063E+05 -4.384718E+03  4.658090E+03
       133  25 -1.456976E+06 -2.315885E+05 -1.038896E+04 -5.674211E+05  5.987009E+02  1.736642E+03
       133  26 -1.504418E+06 -2.385664E+05 -2.085569E+04 -5.693001E+05 -1.167178E+03  3.474018E+03
       133  27 -1.536419E+06 -2.613171E+05 -3.208753E+04 -5.890851E+05 -2.930308E+03  5.203421E+03
       134   1 -1.268205E+06 -1.611437E+05  3.459862E+04 -5.161977E+05  6.925216E+03 -5.097738E+03
       134   2 -1.236496E+06 -1.384852E+05  4.098711E+04 -4.962991E+05  1.151413E+04 -5.741807E+03
       134   3 -1.190501E+06 -1.329897E+05  4.407818E+04 -4.937567E+05  1.608609E+04 -6.337678E+03
       134   4 -1.421967E+06 -2.183338E+05 -4.300347E+03 -5.578770E+05  5.466258E+03 -5.644890E+03
       134   5 -1.429213E+06 -2.104913E+05 -7.650300E+03 -5.489216E+05  1.008727E+04 -6.277181E+03
       134   6 -1.422184E+06 -2.198190E+05 -1.432407E+04 -5.573235E+05  1.469109E+04 -6.861360E+03
       134   7 -1.575704E+06 -2.755220E+05 -4.320088E+04 -5.995466E+05  4.007706E+03 -6.191890E+03
       134   8 -1.621894E+06 -2.824948E+05 -5.629054E+04 -6.015292E+05  8.660904E+03 -6.812372E+03
       134   9 -1.653815E+06 -3.066450E+05 -7.273077E+04 -6.208688E+05  1.329665E+04 -7.384828E+03
       134  10 -1.268205E+06 -1.611438E+05  3.459848E+04 -5.161977E+05  1.220282E-09 -5.279771E-11
       134  11 -1.236496E+06 -1.384853E+05  4.098680E+04 -4.962990E+05  1.262446E-09  7.586913E-11
       134  12 -1.190502E+06 -1.329898E+05  4.407762E+04 -4.937567E+05  6.955079E-10 -5.712273E-10
       134  13 -1.421967E+06 -2.183339E+05 -4.300463E+03 -5.578770E+05  7.819196E-11  9.377460E-11
       134  14 -1.429213E+06 -2.104914E+05 -7.650565E+03 -5.489216E+05  1.909329E-09  3.616968E-11
       134  15 -1.422184E+06 -2.198191E+05 -1.432457E+04 -5.573234E+05 -1.341449E-09 -6.615949E-10
       134  16 -1.575704E+06 -2.755221E+05 -4.320098E+04 -5.995466E+05 -1.756219E-09 -1.315824E-10
       134  17 -1.621894E+06 -2.824949E+05 -5.629077E+04 -6.015292E+05 -1.829178E-09 -7.258720E-10
       134  18 -1.653815E+06 -3.066451E+05 -7.273121E+04 -6.208688E+05 -1.894187E-09 -7.462643E-10
       134  19 -1.268205E+06 -1.611437E+05  3.459862E+04 -5.161977E+05 -6.925216E+03  5.097738E+03
       134  20 -1.236496E+06 -1.384852E+05  4.098711E+04 -4.962991E+05 -1.151413E+04  5.741807E+03
       134  21 -1.190501E+06 -1.329897E+05  4.407818E+04 -4.937567E+05 -1.608609E+04  6.337678E+03
       134  22 -1.421967E+06 -2.183338E+05 -4.300347E+03 -5.578770E+05 -5.466258E+03  5.644890E+03
       134  23 -1.429213E+06 -2.104913E+05 -7.650300E+03 -5.489216E+05 -1.008727E+04  6.277181E+03
       134  24 -1.422184E+06 -2.198190E+05 -1.432407E+04 -5.573235E+05 -1.469109E+04  6.861360E+03
       134  25 -1.575704E+06 -2.755220E+05 -4.320088E+04 -5.995466E+05 -4.007706E+03  6.191890E+03
       134  26 -1.621894E+06 -2.824948E+05 -5.629054E+04 -6.015292E+05 -8.660904E+03  6.812372E+03
       134  27 -1.653815E+06 -3.066450E+05 -7.273077E+04 -6.208688E+05 -1.329665E+04  7.384828E+03
       135   1 -1.151108E+06 -1.187936E+05  4.961249E+04 -4.874696E+05  1.938785E+04 -6.546879E+03
       135   2 -1.120278E+06 -9.242542E+04  4.455707E+04 -4.632823E+05  3.667763E+04 -2.266855E+03
       135   3 -1.084674E+06 -1.028075E+05  2.128247E+04 -4.511918E+05  5.371803E+04  2.682776E+03
       135   4 -1.423377E+06 -2.175002E+05 -1.866452E+04 -5.586680E+05  1.780459E+04 -7.141317E+03
       135   5 -1.427114E+06 -2.088867E+05 -3.323341E+04 -5.489424E+05  3.555121E+04 -2.690431E+03
       135   6 -1.426174E+06 -2.371224E+05 -6.639140E+04 -5.513143E+05  5.304746E+04  2.429552E+03
       135   7 -1.695572E+06 -3.162028E+05 -8.694706E+04 -6.298382E+05  1.622210E+04 -7.735488E+03
       135   8 -1.733857E+06 -3.253412E+05 -1.110315E+05 -6.345638E+05  3.442541E+04 -3.113773E+03
       135   9 -1.767561E+06 -3.714269E+05 -1.540753E+05 -6.513859E+05  5.237729E+04  2.176494E+03
       135  10 -1.151109E+06 -1.187937E+05  4.961170E+04 -4.874695E+05 -5.036984E-11 -7.577875E-10
       135  11 -1.120280E+06 -9.242579E+04  4.455453E+04 -4.632822E+05 -2.214820E-09 -2.224113E-10
       135  12 -1.084677E+06 -1.028083E+05  2.127703E+04 -4.511919E+05 -2.797630E-09  2.051088E-10
       135  13 -1.423377E+06 -2.175004E+05 -1.866521E+04 -5.586679E+05 -7.713100E-11 -4.640398E-10
       135  14 -1.427115E+06 -2.088871E+05 -3.323580E+04 -5.489423E+05 -3.570092E-09  5.594128E-10
       135  15 -1.426177E+06 -2.371231E+05 -6.639671E+04 -5.513144E+05 -6.476536E-10 -4.797132E-11
       135  16 -1.695572E+06 -3.162030E+05 -8.694767E+04 -6.298381E+05 -1.311643E-09 -6.316225E-11
       135  17 -1.733859E+06 -3.253415E+05 -1.110337E+05 -6.345637E+05  1.302870E-09  3.102218E-10
       135  18 -1.767564E+06 -3.714276E+05 -1.540804E+05 -6.513860E+05  1.050169E-09 -4.500904E-10
       135  19 -1.151108E+06 -1.187936E+05  4.961249E+04 -4.874696E+05 -1.938785E+04  6.546879E+03
       135  20 -1.120278E+06 -9.242542E+04  4.455707E+04 -4.632823E+05 -3.667763E+04  2.266855E+03
       135  21 -1.084674E+06 -1.028075E+05  2.128247E+04 -4.511918E+05 -5.371803E+04 -2.682776E+03
       135  22 -1.423377E+06 -2.175002E+05 -1.866452E+04 -5.586680E+05 -1.780459E+04  7.141317E+03
       135  23 -1.427114E+06 -2.088867E+05 -3.323341E+04 -5.489424E+05 -3.555121E+04  2.690431E+03
       135  24 -1.426174E+06 -2.371224E+05 -6.639140E+04 -5.513143E+05 -5.304746E+04 -2.429552E+03
       135  25 -1.695572E+06 -3.162028E+05 -8.694706E+04 -6.298382E+05 -1.622210E+04  7.735488E+03
       135  26 -1.733857E+06 -3.253412E+05 -1.110315E+05 -6.345638E+05 -3.442541E+04  3.113773E+03
       135  27 -1.767561E+06 -3.714269E+05 -1.540753E+05 -6.513859E+05 -5.237729E+04 -2.176494E+03
       136   1 -1.027522E+06 -9.022489E+04  1.376594E+04 -4.936964E+05  6.962057E+04  5.615955E+03
       136   2 -1.009036E+06 -9.928837E+03 -3.564169E+04 -4.078859E+05  1.378472E+05  3.103204E+04
       136   3 -1.087367E+06 -2.150059E+05 -2.101214E+05 -2.678815E+05  2.013566E+05  6.901091E+04
       136   4 -1.437037E+06 -2.074055E+05 -8.277426E+04 -5.686483E+05  6.508631E+04  3.916160E+03
       136   5 -1.405609E+06 -1.895787E+05 -1.419820E+05 -5.485025E+05  1.419958E+05  3.258221E+04
       136   6 -1.472806E+06 -4.589792E+05 -3.332169E+05 -4.741440E+05  2.141860E+05  7.379628E+04
       136   7 -1.846386E+06 -3.245890E+05 -1.793255E+05 -6.435631E+05  6.055531E+04  2.216927E+03
       136   8 -1.802021E+06 -3.691946E+05 -2.483349E+05 -6.890292E+05  1.461415E+05  3.413074E+04
       136   9 -1.858068E+06 -7.028359E+05 -4.563219E+05 -6.802603E+05  2.270065E+05  7.857312E+04
       136  10 -1.027527E+06 -9.022622E+04  1.375676E+04 -4.936967E+05 -1.228336E-09  3.329850E-10
       136  11 -1.009057E+06 -9.934987E+03 -3.567928E+04 -4.078893E+05  5.943538E-11 -8.988866E-10
       136  12 -1.087411E+06 -2.150219E+05 -2.102067E+05 -2.678927E+05 -4.700422E-10 -9.050288E-10
       136  13 -1.437041E+06 -2.074066E+05 -8.278227E+04 -5.686485E+05 -6.724287E-10 -6.691577E-10
       136  14 -1.405631E+06 -1.895853E+05 -1.420220E+05 -5.485063E+05 -1.001491E-10 -4.689660E-10
       136  15 -1.472856E+06 -4.589974E+05 -3.333136E+05 -4.741568E+05 -1.729654E-09  1.612505E-10
       136  16 -1.846390E+06 -3.245900E+05 -1.793324E+05 -6.435632E+05  7.392686E-10 -3.980539E-10
       136  17 -1.802044E+06 -3.692016E+05 -2.483774E+05 -6.890332E+05  5.447222E-10  2.135233E-10
       136  18 -1.858125E+06 -7.028564E+05 -4.564307E+05 -6.802747E+05  1.307254E-09 -4.781408E-11
       136  19 -1.027522E+06 -9.022489E+04  1.376594E+04 -4.936964E+05 -6.962057E+04 -5.615955E+03
       136  20 -1.009036E+06 -9.928837E+03 -3.564169E+04 -4.078859E+05 -1.378472E+05 -3.103204E+04
       136  21 -1.087367E+06 -2.150059E+05 -2.101214E+05 -2.678815E+05 -2.013566E+05 -6.901091E+04
       136  22 -1.437037E+06 -2.074055E+05 -8.277426E+04 -5.686483E+05 -6.508631E+04 -3.916160E+03
       136  23 -1.405609E+06 -1.895787E+05 -1.419820E+05 -5.485025E+05 -1.419958E+05 -3.258221E+04
       136  24 -1.472806E+06 -4.589792E+05 -3.332169E+05 -4.741440E+05 -2.141860E+05 -7.379628E+04
       136  25 -1.846386E+06 -3.245890E+05 -1.793255E+05 -6.435631E+05 -6.055531E+04 -2.216927E+03
       136  26 -1.802021E+06 -3.691946E+05 -2.483349E+05 -6.890292E+05 -1.461415E+05 -3.413074E+04
       136  27 -1.858068E+06 -7.028359E+05 -4.563219E+05 -6.802603E+05 -2.270065E+05 -7.857312E+04
       137   1 -1.621665E+05 -1.788293E+04  1.563674E+02  1.136710E+04  5.054415E+04  4.428298E+03
       137   2 -1.401038E+05 -8.540701E+04 -3.605705E+04 -9.769997E+02  3.621571E+04  1.355014E+04
       137   3 -9.711062E+04 -7.701246E+04 -4.394457E+04 -2.945647E+04  2.189210E+04  1.345223E+04
       137   4  2.002082E+05  7.223017E+04  8.861040E+04 -1.873711E+04  6.079096E+04  4.432491E+03
       137   5  1.891599E+05 -4.415981E+03  3.970040E+04 -1.064762E+04  3.959324E+04  1.355089E+04
       137   6  2.002203E+05 -3.974607E+03  2.387421E+04 -1.869214E+04  1.840129E+04  1.345076E+04
       137   7  5.627048E+05  1.623371E+05  1.770558E+05 -4.885895E+04  7.104374E+04  4.435689E+03
       137   8  5.185242E+05  7.656784E+04  1.154508E+05 -2.032343E+04  4.297255E+04  1.355153E+04
       137   9  4.976335E+05  6.905755E+04  9.168733E+04 -7.922622E+03  1.490882E+04  1.344918E+04
       137  10 -1.621692E+05 -1.788363E+04  1.515286E+02  1.136692E+04 -5.729961E-13 -7.590196E-10
       137  11 -1.401053E+05 -8.540756E+04 -3.605986E+04 -9.773949E+02 -2.055225E-10 -1.397305E-10
       137  12 -9.711118E+04 -7.701278E+04 -4.394581E+04 -2.945671E+04 -1.571864E-09 -7.339131E-10
       137  13  2.002042E+05  7.222916E+04  8.860342E+04 -1.873733E+04  1.235142E-09  4.913625E-10
       137  14  1.891582E+05 -4.416599E+03  3.969711E+04 -1.064805E+04 -1.009065E-09  6.534257E-11
       137  15  2.002199E+05 -3.974892E+03  2.387323E+04 -1.869234E+04 -8.803258E-10 -4.044375E-10
       137  16  5.626994E+05  1.623357E+05  1.770462E+05 -4.885921E+04 -9.325111E-10  5.999366E-10
       137  17  5.185221E+05  7.656714E+04  1.154470E+05 -2.032390E+04  5.667185E-10  5.375420E-10
       137  18  4.976332E+05  6.905730E+04  9.168657E+04 -7.922783E+03 -4.977808E-10  1.346554E-09
       137  19 -1.621665E+05 -1.788293E+04  1.563674E+02  1.136710E+04 -5.054415E+04 -4.428298E+03
       137  20 -1.401038E+05 -8.540701E+04 -3.605705E+04 -9.769997E+02 -3.621571E+04 -1.355014E+04
       137  21 -9.711062E+04 -7.701246E+04 -4.394457E+04 -2.945647E+04 -2.189210E+04 -1.345223E+04
       137  22  2.002082E+05  7.223017E+04  8.861040E+04 -1.873711E+04 -6.079096E+04 -4.432491E+03
       137  23  1.891599E+05 -4.415981E+03  3.970040E+04 -1.064762E+04 -3.959324E+04 -1.355089E+04
       137  24  2.002203E+05 -3.974607E+03  2.387421E+04 -1.869214E+04 -1.840129E+04 -1.345076E+04
       137  25  5.627048E+05  1.623371E+05  1.770558E+05 -4.885895E+04 -7.104374E+04 -4.435689E+03
       137  26  5.185242E+05  7.656784E+04  1.154508E+05 -2.032343E+04 -4.297255E+04 -1.355153E+04
       137  27  4.976335E+05  6.905755E+04  9.168733E+04 -7.922622E+03 -1.490882E+04 -1.344918E+04
       138   1 -7.120443E+04 -6.046443E+04 -4.201299E+04 -1.704914E+04  1.554932E+04  1.145242E+04
       138   2 -3.994538E+04 -5.807166E+04 -4.350346E+04 -1.017931E+04  1.075030E+04  1.034262E+04
       138   3 -6.613976E+03 -5.005345E+04 -4.045391E+04 -1.967567E+04  5.950650E+03  8.791260E+03
       138   4  1.957828E+05  5.168018E+03  1.918432E+04 -1.875679E+04  1.489339E+04  1.145182E+04
       138   5  1.947214E+05 -4.113239E+02  1.014999E+04 -1.057318E+04  9.763841E+03  1.034210E+04
       138   6  1.957877E+05 -3.091256E+02  5.883693E+03 -1.875530E+04  4.633914E+03  8.790886E+03
       138   7  4.628360E+05  7.079551E+04  8.037695E+04 -2.046519E+04  1.423718E+04  1.145122E+04
       138   8  4.294392E+05  5.724519E+04  6.379983E+04 -1.096721E+04  8.777015E+03  1.034158E+04
       138   9  3.982274E+05  4.943235E+04  5.221861E+04 -1.783464E+04  3.316753E+03  8.790507E+03
       138  10 -7.120473E+04 -6.046464E+04 -4.201369E+04 -1.704928E+04  8.573499E-10 -7.430150E-11
       138  11 -3.994553E+04 -5.807181E+04 -4.350388E+04 -1.017940E+04 -5.034144E-09  5.847762E-10
       138  12 -6.614035E+03 -5.005354E+04 -4.045412E+04 -1.967571E+04 -3.761669E-09 -1.288804E-09
       138  13  1.957825E+05  5.167817E+03  1.918366E+04 -1.875693E+04  1.136017E-10  7.141757E-10
       138  14  1.947213E+05 -4.114643E+02  1.014961E+04 -1.057326E+04 -4.340844E-10  3.831250E-10
       138  15  1.957877E+05 -3.092144E+02  5.883507E+03 -1.875534E+04 -1.495903E-09 -1.194464E-09
       138  16  4.628357E+05  7.079532E+04  8.037632E+04 -2.046532E+04 -3.331619E-10  7.063362E-10
       138  17  4.294391E+05  5.724505E+04  6.379949E+04 -1.096728E+04  4.015396E-09 -3.250695E-10
       138  18  3.982274E+05  4.943227E+04  5.221845E+04 -1.783466E+04  4.108965E-09 -7.004536E-10
       138  19 -7.120443E+04 -6.046443E+04 -4.201299E+04 -1.704914E+04 -1.554932E+04 -1.145242E+04
       138  20 -3.994538E+04 -5.807166E+04 -4.350346E+04 -1.017931E+04 -1.075030E+04 -1.034262E+04
       138  21 -6.613976E+03 -5.005345E+04 -4.045391E+04 -1.967567E+04 -5.950650E+03 -8.791260E+03
       138  22  1.957828E+05  5.168018E+03  1.918432E+04 -1.875679E+04 -1.489339E+04 -1.145182E+04
       138  23  1.947214E+05 -4.113239E+02  1.014999E+04 -1.057318E+04 -9.763841E+03 -1.034210E+04
       138  24  1.957877E+05 -3.091256E+02  5.883693E+03 -1.875530E+04 -4.633914E+03 -8.790886E+03
       138  25  4.628360E+05  7.079551E+04  8.037695E+04 -2.046519E+04 -1.423718E+04 -1.145122E+04
       138  26  4.294392E+05  5.724519E+04  6.379983E+04 -1.096721E+04 -8.777015E+03 -1.034158E+04
       138  27  3.982274E+05  4.943235E+04  5.221861E+04 -1.783464E+04 -3.316753E+03 -8.790507E+03
       139   1  2.309607E+04 -4.197150E+04 -3.477419E+04 -1.874705E+04  4.898905E+03  7.796202E+03
       139   2  5.516884E+04 -3.446426E+04 -2.954156E+04 -1.062797E+04  3.686450E+03  6.199637E+03
       139   3  8.751700E+04 -2.654178E+04 -2.341298E+04 -1.884647E+04  2.473608E+03  4.582815E+03
       139   4  1.953792E+05  3.391628E+02  4.515522E+03 -1.874943E+04  3.719290E+03  7.795939E+03
       139   5  1.952418E+05 -5.124888E+01  2.469099E+03 -1.058075E+04  2.491429E+03  6.199487E+03
       139   6  1.953819E+05 -2.365440E+01  1.329259E+03 -1.874942E+04  1.263242E+03  4.582784E+03
       139   7  3.676899E+05  4.264777E+04  4.380331E+04 -1.875181E+04  2.539351E+03  7.795676E+03
       139   8  3.353330E+05  3.436040E+04  3.447848E+04 -1.053351E+04  1.296140E+03  6.199337E+03
       139   9  3.032575E+05  2.649366E+04  2.607074E+04 -1.865234E+04  5.266833E+01  4.582753E+03
       139  10  2.309602E+04 -4.197158E+04 -3.477435E+04 -1.874708E+04  6.240735E-09 -1.392279E-09
       139  11  5.516882E+04 -3.446431E+04 -2.954165E+04 -1.062799E+04  3.848084E-09  2.078331E-10
       139  12  8.751699E+04 -2.654180E+04 -2.341303E+04 -1.884648E+04  1.451051E-09 -1.725135E-10
       139  13  1.953792E+05  3.390938E+02  4.515382E+03 -1.874945E+04 -3.676966E-11 -9.120888E-10
       139  14  1.952418E+05 -5.129182E+01  2.469015E+03 -1.058076E+04 -1.615605E-09  2.508947E-10
       139  15  1.953818E+05 -2.367739E+01  1.329217E+03 -1.874942E+04 -2.681511E-09 -2.508907E-11
       139  16  3.676899E+05  4.264771E+04  4.380318E+04 -1.875182E+04 -8.004724E-09 -4.798004E-10
       139  17  3.353330E+05  3.436036E+04  3.447840E+04 -1.053352E+04 -4.607085E-09 -1.312926E-10
       139  18  3.032575E+05  2.649364E+04  2.607070E+04 -1.865234E+04 -2.866472E-10  2.838291E-11
       139  19  2.309607E+04 -4.197150E+04 -3.477419E+04 -1.874705E+04 -4.898905E+03 -7.796202E+03
       139  20  5.516884E+04 -3.446426E+04 -2.954156E+04 -1.062797E+04 -3.686450E+03 -6.199637E+03
       139  21  8.751700E+04 -2.654178E+04 -2.341298E+04 -1.884647E+04 -2.473608E+03 -4.582815E+03
       139  22  1.953792E+05  3.391628E+02  4.515522E+03 -1.874943E+04 -3.719290E+03 -7.795939E+03
       139  23  1.952418E+05 -5.124888E+01  2.469099E+03 -1.058075E+04 -2.491429E+03 -6.199487E+03
       139  24  1.953819E+05 -2.365440E+01  1.329259E+03 -1.874942E+04 -1.263242E+03 -4.582784E+03
       139  25  3.676899E+05  4.264777E+04  4.380331E+04 -1.875181E+04 -2.539351E+03 -7.795676E+03
       139  26  3.353330E+05  3.436040E+04  3.447848E+04 -1.053351E+04 -1.296140E+03 -6.199337E+03
       139  27  3.032575E+05  2.649366E+04  2.607074E+04 -1.865234E+04 -5.266833E+01 -4.582753E+03
       140   1  1.175210E+05 -1.907866E+04 -1.675361E+04 -1.877634E+04  2.263303E+03  3.637919E+03
       140   2  1.496780E+05 -1.121506E+04 -1.011656E+04 -1.061666E+04  2.109344E+03  2.020283E+03
       140   3  1.818631E+05 -3.325088E+03 -3.372701E+03 -1.877638E+04  1.955262E+03  4.019940E+02
       140   4  1.953275E+05  1.720924E+01  9.325127E+02 -1.874542E+04  1.059915E+03  3.637938E+03
       140   5  1.953146E+05 -3.821521E+00  3.117697E+02 -1.058576E+04  9.054056E+02  2.020338E+03
       140   6  1.953283E+05  1.542404E+00 -2.019040E+02 -1.874542E+04  7.507804E+02  4.020891E+02
       140   7  2.731396E+05  1.911266E+04  1.861825E+04 -1.871449E+04 -1.436219E+02  3.637956E+03
       140   8  2.409530E+05  1.120727E+04  1.073997E+04 -1.055486E+04 -2.986209E+02  2.020392E+03
       140   9  2.087937E+05  3.328160E+03  2.968886E+03 -1.871447E+04 -4.537275E+02  4.021840E+02
       140  10  1.175210E+05 -1.907867E+04 -1.675365E+04 -1.877635E+04  8.349004E-09 -2.427577E-10
       140  11  1.496780E+05 -1.121506E+04 -1.011657E+04 -1.061667E+04 -2.442669E-09  6.271915E-10
       140  12  1.818631E+05 -3.325089E+03 -3.372709E+03 -1.877638E+04 -7.552831E-09  5.292688E-10
       140  13  1.953275E+05  1.719473E+01  9.324857E+02 -1.874542E+04 -1.065492E-09  4.011538E-11
       140  14  1.953146E+05 -3.826125E+00  3.117605E+02 -1.058576E+04 -5.740820E-10  9.184728E-10
       140  15  1.953283E+05  1.542079E+00 -2.019053E+02 -1.874542E+04 -2.488885E-09  6.132408E-10
       140  16  2.731396E+05  1.911265E+04  1.861823E+04 -1.871448E+04 -9.385963E-09  3.549606E-10
       140  17  2.409530E+05  1.120727E+04  1.073996E+04 -1.055486E+04 -1.659037E-09  1.015225E-09
       140  18  2.087937E+05  3.328160E+03  2.968886E+03 -1.871447E+04  7.339879E-09  9.325560E-10
       140  19  1.175210E+05 -1.907866E+04 -1.675361E+04 -1.877634E+04 -2.263303E+03 -3.637919E+03
       140  20  1.496780E+05 -1.121506E+04 -1.011656E+04 -1.061666E+04 -2.109344E+03 -2.020283E+03
       140  21  1.818631E+05 -3.325088E+03 -3.372701E+03 -1.877638E+04 -1.955262E+03 -4.019940E+02
       140  22  1.953275E+05  1.720924E+01  9.325127E+02 -1.874542E+04 -1.059915E+03 -3.637938E+03
       140  23  1.953146E+05 -3.821521E+00  3.117697E+02 -1.058576E+04 -9.054056E+02 -2.020338E+03
       140  24  1.953283E+05  1.542404E+00 -2.019040E+02 -1.874542E+04 -7.507804E+02 -4.020891E+02
       140  25  2.731396E+05  1.911266E+04  1.861825E+04 -1.871449E+04  1.436219E+02 -3.637956E+03
       140  26  2.409530E+05  1.120727E+04  1.073997E+04 -1.055486E+04  2.986209E+02 -2.020392E+03
       140  27  2.087937E+05  3.328160E+03  2.968886E+03 -1.871447E+04  4.537275E+02 -4.021840E+02
       141   1  2.118790E+05  4.097035E+03  3.410523E+03 -1.878394E+04  2.016107E+03 -5.400502E+02
       141   2  2.440970E+05  1.199053E+04  9.994628E+03 -1.063452E+04  2.582232E+03 -2.158293E+03
       141   3  2.762271E+05  1.982226E+04  1.619469E+04 -1.880437E+04  3.148506E+03 -3.775940E+03
       141   4  1.953026E+05  6.176095E+00 -4.711282E+02 -1.874543E+04  8.115800E+02 -5.399559E+02
       141   5  1.953467E+05  1.504443E+01 -1.144586E+03 -1.058576E+04  1.378073E+03 -2.158242E+03
       141   6  1.953019E+05 -3.788045E+01 -2.202347E+03 -1.874544E+04  1.944687E+03 -3.775927E+03
       141   7  1.787265E+05 -4.084701E+03 -4.352793E+03 -1.870691E+04 -3.929148E+02 -5.398617E+02
       141   8  1.465987E+05 -1.196061E+04 -1.228395E+04 -1.053700E+04  1.740087E+02 -2.158190E+03
       141   9  1.143827E+05 -1.989847E+04 -2.059980E+04 -1.868652E+04  7.410238E+02 -3.775915E+03
       141  10  2.118790E+05  4.097033E+03  3.410515E+03 -1.878394E+04 -2.275669E-09  3.671832E-10
       141  11  2.440970E+05  1.199053E+04  9.994606E+03 -1.063451E+04 -6.298850E-10  5.640845E-11
       141  12  2.762271E+05  1.982224E+04  1.619464E+04 -1.880436E+04 -1.777093E-09 -1.087446E-09
       141  13  1.953026E+05  6.175605E+00 -4.711300E+02 -1.874543E+04  1.437965E-10  1.951352E-10
       141  14  1.953467E+05  1.503892E+01 -1.144599E+03 -1.058576E+04 -3.087724E-09 -4.651642E-10
       141  15  1.953019E+05 -3.789678E+01 -2.202380E+03 -1.874543E+04 -4.274789E-09 -9.329025E-10
       141  16  1.787265E+05 -4.084701E+03 -4.352794E+03 -1.870691E+04  1.747175E-09  1.636856E-10
       141  17  1.465987E+05 -1.196062E+04 -1.228396E+04 -1.053700E+04 -4.120678E-10 -7.970402E-10
       141  18  1.143827E+05 -1.989848E+04 -2.059983E+04 -1.868651E+04 -6.313258E-10 -5.919628E-10
       141  19  2.118790E+05  4.097035E+03  3.410523E+03 -1.878394E+04 -2.016107E+03  5.400502E+02
       141  20  2.440970E+05  1.199053E+04  9.994628E+03 -1.063452E+04 -2.582232E+03  2.158293E+03
       141  21  2.762271E+05  1.982226E+04  1.619469E+04 -1.880437E+04 -3.148506E+03  3.775940E+03
       141  22  1.953026E+05  6.176095E+00 -4.711282E+02 -1.874543E+04 -8.115800E+02  5.399559E+02
       141  23  1.953467E+05  1.504443E+01 -1.144586E+03 -1.058576E+04 -1.378073E+03  2.158242E+03
       141  24  1.953019E+05 -3.788045E+01 -2.202347E+03 -1.874544E+04 -1.944687E+03  3.775927E+03
       141  25  1.787265E+05 -4.084701E+03 -4.352793E+03 -1.870691E+04  3.929148E+02  5.398617E+02
       141  26  1.465987E+05 -1.196061E+04 -1.228395E+04 -1.053700E+04 -1.740087E+02  2.158190E+03
       141  27  1.143827E+05 -1.989847E+04 -2.059980E+04 -1.868652E+04 -7.410238E+02  3.775915E+03
       142   1  3.061907E+05  2.732962E+04  2.250955E+04 -1.894634E+04  3.618394E+03 -4.720755E+03
       142   2  3.386763E+05  3.526758E+04  2.752954E+04 -1.065202E+04  6.185650E+03 -6.337058E+03
       142   3  3.706269E+05  4.234417E+04  3.066623E+04 -1.869860E+04  8.753341E+03 -7.932763E+03
       142   4  1.952006E+05  4.732600E+01 -2.943524E+03 -1.875029E+04  2.407370E+03 -4.720793E+03
       142   5  1.954687E+05  9.053879E+01 -5.191902E+03 -1.057971E+04  4.989397E+03 -6.337217E+03
       142   6  1.951985E+05 -7.301706E+02 -9.334028E+03 -1.875026E+04  7.571728E+03 -7.933039E+03
       142   7  8.422199E+04 -2.723583E+04 -2.839740E+04 -1.855428E+04  1.196561E+03 -4.720831E+03
       142   8  5.228018E+04 -3.508793E+04 -3.791468E+04 -1.050742E+04  3.793418E+03 -6.337377E+03
       142   9  1.979870E+04 -4.380665E+04 -4.933629E+04 -1.880192E+04  6.390446E+03 -7.933315E+03
       142  10  3.061907E+05  2.732960E+04  2.250948E+04 -1.894633E+04 -2.115246E-09 -8.338950E-10
       142  11  3.386762E+05  3.526753E+04  2.752939E+04 -1.065199E+04 -1.667730E-09  6.248343E-10
       142  12  3.706268E+05  4.234408E+04  3.066597E+04 -1.869854E+04  1.449606E-09  3.835277E-10
       142  13  1.952006E+05  4.730051E+01 -2.943576E+03 -1.875028E+04 -1.070391E-09 -5.053399E-10
       142  14  1.954687E+05  9.048898E+01 -5.192024E+03 -1.057969E+04 -2.763676E-09  3.940794E-10
       142  15  1.951985E+05 -7.302535E+02 -9.334254E+03 -1.875021E+04 -2.148572E-09  2.575944E-10
       142  16  8.422198E+04 -2.723585E+04 -2.839745E+04 -1.855427E+04  5.330029E-10 -2.624616E-10
       142  17  5.228015E+04 -3.508797E+04 -3.791478E+04 -1.050740E+04 -1.872779E-09  9.609531E-11
       142  18  1.979864E+04 -4.380672E+04 -4.933649E+04 -1.880187E+04 -1.570001E-09  3.322477E-10
       142  19  3.061907E+05  2.732962E+04  2.250955E+04 -1.894634E+04 -3.618394E+03  4.720755E+03
       142  20  3.386763E+05  3.526758E+04  2.752954E+04 -1.065202E+04 -6.185650E+03  6.337058E+03
       142  21  3.706269E+05  4.234417E+04  3.066623E+04 -1.869860E+04 -8.753341E+03  7.932763E+03
       142  22  1.952006E+05  4.732600E+01 -2.943524E+03 -1.875029E+04 -2.407370E+03  4.720793E+03
       142  23  1.954687E+05  9.053879E+01 -5.191902E+03 -1.057971E+04 -4.989397E+03  6.337217E+03
       142  24  1.951985E+05 -7.301706E+02 -9.334028E+03 -1.875026E+04 -7.571728E+03  7.933039E+03
       142  25  8.422199E+04 -2.723583E+04 -2.839740E+04 -1.855428E+04 -1.196561E+03  4.720831E+03
       142  26  5.228018E+04 -3.508793E+04 -3.791468E+04 -1.050742E+04 -3.793418E+03  6.337377E+03
       142  27  1.979870E+04 -4.380665E+04 -4.933629E+04 -1.880192E+04 -6.390446E+03  7.933315E+03
       143   1  3.999340E+05  5.110811E+04  3.492959E+04 -2.057523E+04  1.077986E+04 -8.927401E+03
       143   2  4.343373E+05  5.921710E+04  3.350630E+04 -9.624032E+03  2.099292E+04 -1.047321E+04
       143   3  4.645530E+05  5.571737E+04  2.254494E+04 -1.503272E+04  3.120693E+04 -1.157148E+04
       143   4  1.943712E+05  6.006156E+02 -1.211883E+04 -1.875548E+04  9.459083E+03 -8.927768E+03
       143   5  1.964944E+05  7.925096E+02 -2.085810E+04 -1.057366E+04  2.000153E+04 -1.047376E+04
       143   6  1.943695E+05 -1.068429E+04 -3.936705E+04 -1.875233E+04  3.054442E+04 -1.157224E+04
       143   7 -1.115250E+04 -4.990980E+04 -5.917000E+04 -1.693633E+04  8.138735E+03 -8.928143E+03
       143   8 -4.129599E+04 -5.763601E+04 -7.522621E+04 -1.152293E+04  1.901052E+04 -1.047432E+04
       143   9 -7.574649E+04 -7.709097E+04 -1.012838E+05 -2.247030E+04  2.988220E+04 -1.157299E+04
       143  10  3.999339E+05  5.110799E+04  3.492922E+04 -2.057515E+04  2.352445E-10 -3.509642E-10
       143  11  4.343368E+05  5.921686E+04  3.350527E+04 -9.623855E+03  7.053410E-10 -8.435624E-10
       143  12  4.645519E+05  5.571696E+04  2.254286E+04 -1.503243E+04 -4.400846E-10 -6.602553E-10
       143  13  1.943711E+05  6.005060E+02 -1.211915E+04 -1.875541E+04 -1.031690E-09 -2.376547E-10
       143  14  1.964940E+05  7.922844E+02 -2.085906E+04 -1.057350E+04 -2.692398E-09 -7.911500E-10
       143  15  1.943684E+05 -1.068468E+04 -3.936905E+04 -1.875204E+04 -2.666909E-09 -2.936210E-10
       143  16 -1.115260E+04 -4.990990E+04 -5.917028E+04 -1.693627E+04 -6.863442E-10 -7.063889E-11
       143  17 -4.129641E+04 -5.763622E+04 -7.522709E+04 -1.152277E+04 -8.758670E-10  5.509554E-11
       143  18 -7.574749E+04 -7.709136E+04 -1.012858E+05 -2.247002E+04  5.744516E-10  3.221266E-10
       143  19  3.999340E+05  5.110811E+04  3.492959E+04 -2.057523E+04 -1.077986E+04  8.927401E+03
       143  20  4.343373E+05  5.921710E+04  3.350630E+04 -9.624032E+03 -2.099292E+04  1.047321E+04
       143  21  4.645530E+05  5.571737E+04  2.254494E+04 -1.503272E+04 -3.120693E+04  1.157148E+04
       143  22  1.943712E+05  6.006156E+02 -1.211883E+04 -1.875548E+04 -9.459083E+03  8.927768E+03
       143  23  1.964944E+05  7.925096E+02 -2.085810E+04 -1.057366E+04 -2.000153E+04  1.047376E+04
       143  24  1.943695E+05 -1.068429E+04 -3.936705E+04 -1.875233E+04 -3.054442E+04  1.157224E+04
       143  25 -1.115250E+04 -4.990980E+04 -5.917000E+04 -1.693633E+04 -8.138735E+03  8.928143E+03
       143  26 -4.129599E+04 -5.763601E+04 -7.522621E+04 -1.152293E+04 -1.901052E+04  1.047432E+04
       143  27 -7.574649E+04 -7.709097E+04 -1.012838E+05 -2.247030E+04 -2.988220E+04  1.157299E+04
       144   1  4.858793E+05  8.184580E+04  1.955930E+04 -4.050958E+04  4.127015E+04 -1.357442E+04
       144   2  5.403105E+05  9.073620E+04 -4.972526E+03  9.613551E+03  7.784405E+04 -1.361923E+04
       144   3  5.508717E+05 -5.721924E+04 -9.248638E+04  4.373033E+04  1.144145E+05 -4.344171E+03
       144   4  1.852847E+05  8.064896E+03 -4.897511E+04 -1.870134E+04  3.774150E+04 -1.357487E+04
       144   5  2.078411E+05  8.950284E+03 -8.144327E+04 -1.065077E+04  8.123038E+04 -1.362040E+04
       144   6  1.852980E+05 -1.482623E+05 -1.817182E+05 -1.860726E+04  1.247133E+05 -4.348793E+03
       144   7 -1.152252E+05 -6.572047E+04 -1.175151E+05  3.096241E+03  3.421455E+04 -1.357556E+04
       144   8 -1.245253E+05 -7.284181E+04 -1.579211E+05 -3.090417E+04  8.461491E+04 -1.362179E+04
       144   9 -1.801454E+05 -2.393007E+05 -2.709572E+05 -8.090811E+04  1.350060E+05 -4.355486E+03
       144  10  4.858775E+05  8.184515E+04  1.955576E+04 -4.050913E+04 -3.261913E-10 -1.224809E-09
       144  11  5.403039E+05  9.073437E+04 -4.984252E+03  9.614405E+03 -1.105359E-09 -2.598938E-09
       144  12  5.508576E+05 -5.722277E+04 -9.251100E+04  4.373073E+04 -8.701669E-10 -8.458776E-10
       144  13  1.852831E+05  8.064316E+03 -4.897813E+04 -1.870093E+04  8.585056E-10 -2.126137E-09
       144  14  2.078339E+05  8.948314E+03 -8.145601E+04 -1.064988E+04 -1.374090E-09  6.750167E-11
       144  15  1.852813E+05 -1.482665E+05 -1.817474E+05 -1.860683E+04 -2.630585E-10 -5.457424E-10
       144  16 -1.152265E+05 -6.572098E+04 -1.175177E+05  3.096615E+03 -1.340672E-09 -1.952027E-10
       144  17 -1.245330E+05 -7.284393E+04 -1.579349E+05 -3.090324E+04  2.529514E-10 -1.320692E-10
       144  18 -1.801650E+05 -2.393056E+05 -2.709915E+05 -8.090763E+04  1.682782E-09 -9.452705E-10
       144  19  4.858793E+05  8.184580E+04  1.955930E+04 -4.050958E+04 -4.127015E+04  1.357442E+04
       144  20  5.403105E+05  9.073620E+04 -4.972526E+03  9.613551E+03 -7.784405E+04  1.361923E+04
       144  21  5.508717E+05 -5.721924E+04 -9.248638E+04  4.373033E+04 -1.144145E+05  4.344171E+03
       144  22  1.852847E+05  8.064896E+03 -4.897511E+04 -1.870134E+04 -3.774150E+04  1.357487E+04
       144  23  2.078411E+05  8.950284E+03 -8.144327E+04 -1.065077E+04 -8.123038E+04  1.362040E+04
       144  24  1.852980E+05 -1.482623E+05 -1.817182E+05 -1.860726E+04 -1.247133E+05  4.348793E+03
       144  25 -1.152252E+05 -6.572047E+04 -1.175151E+05  3.096241E+03 -3.421455E+04  1.357556E+04
       144  26 -1.245253E+05 -7.284181E+04 -1.579211E+05 -3.090417E+04 -8.461491E+04  1.362179E+04
       144  27 -1.801454E+05 -2.393007E+05 -2.709572E+05 -8.090811E+04 -1.350060E+05  4.355486E+03
       145   1  3.623367E+05  1.254191E+06  3.593452E+05 -1.964435E+05  1.512531E+04  4.759659E+04
       145   2  2.619026E+05  9.232323E+05  2.534873E+05 -1.104029E+05  4.295743E+04  1.549639E+04
       145   3  1.825727E+05  6.018702E+05  1.737916E+05 -1.880761E+05  3.304581E+04 -1.663571E+04
       145   4  1.485965E+04 -1.424880E+05  1.776519E+04 -1.890824E+05  1.517023E+04  1.281302E+04
       145   5 -8.011845E+02 -1.447149E+05  7.447873E+03 -1.072282E+05  4.297313E+04  8.852289E+03
       145   6 -2.103301E+02 -1.423028E+05  3.793584E+03 -1.891028E+05  3.300382E+04  4.842838E+03
       145   7 -3.327609E+05 -1.537389E+06 -3.239528E+05 -1.817371E+05  1.521440E+04 -2.189261E+04
       145   8 -2.635847E+05 -1.211608E+06 -2.386671E+05 -1.040585E+05  4.298878E+04  2.219505E+03
       145   9 -1.830316E+05 -8.859618E+05 -1.662389E+05 -1.901280E+05  3.296173E+04  2.629587E+04
       145  10  3.623359E+05  1.254188E+06  3.593405E+05 -1.964440E+05 -1.697436E-09  6.981190E-10
       145  11  2.619005E+05  9.232316E+05  2.534834E+05 -1.104034E+05 -4.907896E-13  2.329216E-10
       145  12  1.825715E+05  6.018696E+05  1.737890E+05 -1.880756E+05 -3.827260E-09 -2.201680E-09
       145  13  1.485936E+04 -1.424883E+05  1.776445E+04 -1.890825E+05 -1.281802E-09 -9.796544E-10
       145  14 -8.031885E+02 -1.447154E+05  7.444255E+03 -1.072285E+05 -2.478103E-09 -1.429725E-09
       145  15 -2.115061E+02 -1.423031E+05  3.791493E+03 -1.891029E+05 -1.251385E-09 -7.171402E-10
       145  16 -3.327613E+05 -1.537389E+06 -3.239541E+05 -1.817368E+05  4.330373E-10 -6.921520E-10
       145  17 -2.635867E+05 -1.211608E+06 -2.386706E+05 -1.040586E+05 -4.497864E-10 -9.450545E-10
       145  18 -1.830329E+05 -8.859628E+05 -1.662423E+05 -1.901287E+05 -9.788547E-10  4.137453E-09
       145  19  3.623367E+05  1.254191E+06  3.593452E+05 -1.964435E+05 -1.512531E+04 -4.759659E+04
       145  20  2.619026E+05  9.232323E+05  2.534873E+05 -1.104029E+05 -4.295743E+04 -1.549639E+04
       145  21  1.825727E+05  6.018702E+05  1.737916E+05 -1.880761E+05 -3.304581E+04  1.663571E+04
       145  22  1.485965E+04 -1.424880E+05  1.776519E+04 -1.890824E+05 -1.517023E+04 -1.281302E+04
       145  23 -8.011845E+02 -1.447149E+05  7.447873E+03 -1.072282E+05 -4.297313E+04 -8.852289E+03
       145  24 -2.103301E+02 -1.423028E+05  3.793584E+03 -1.891028E+05 -3.300382E+04 -4.842838E+03
       145  25 -3.327609E+05 -1.537389E+06 -3.239528E+05 -1.817371E+05 -1.521440E+04  2.189261E+04
       145  26 -2.635847E+05 -1.211608E+06 -2.386671E+05 -1.040585E+05 -4.298878E+04 -2.219505E+03
       145  27 -1.830316E+05 -8.859618E+05 -1.662389E+05 -1.901280E+05 -3.296173E+04 -2.629587E+04
       146   1  1.097544E+05  2.956570E+05  1.030016E+05 -1.902123E+05  1.900276E+04 -6.014011E+03
       146   2  2.829542E+04 -2.984617E+04  2.539137E+04 -1.072133E+05  4.995301E+03 -5.987224E+03
       146   3 -5.285153E+04 -3.559688E+05 -5.235155E+04 -1.893582E+05 -9.279624E+03 -5.963577E+03
       146   4  1.835739E+03 -1.434131E+05  2.443249E+03 -1.894093E+05  1.898070E+04  4.308858E+03
       146   5  4.785812E+02 -1.430277E+05 -4.937138E+02 -1.068392E+05  4.972138E+03  4.532891E+03
       146   6 -5.934246E+02 -1.433936E+05 -3.694017E+03 -1.894146E+05 -9.304273E+03  4.753805E+03
       146   7 -1.060963E+05 -5.823044E+05 -9.812735E+04 -1.886067E+05  1.895865E+04  1.462449E+04
       146   8 -2.733909E+04 -2.561971E+05 -2.637923E+04 -1.064651E+05  4.948986E+03  1.505110E+04
       146   9  5.166160E+04  6.922376E+04  4.496099E+04 -1.894711E+05 -9.328918E+03  1.547483E+04
       146  10  1.097540E+05  2.956569E+05  1.030008E+05 -1.902122E+05 -1.112483E-09  1.298888E-09
       146  11  2.829539E+04 -2.984622E+04  2.539126E+04 -1.072133E+05  1.569898E-09  8.891743E-10
       146  12 -5.285163E+04 -3.559688E+05 -5.235178E+04 -1.893582E+05  6.940721E-10 -2.657543E-09
       146  13  1.835348E+03 -1.434132E+05  2.442537E+03 -1.894093E+05  1.070198E-09 -2.045911E-09
       146  14  4.785491E+02 -1.430277E+05 -4.937989E+02 -1.068392E+05 -3.684399E-11 -2.162821E-09
       146  15 -5.935236E+02 -1.433936E+05 -3.694222E+03 -1.894146E+05  2.240309E-11 -8.251796E-10
       146  16 -1.060967E+05 -5.823047E+05 -9.812843E+04 -1.886069E+05 -4.314328E-10 -1.343249E-09
       146  17 -2.733918E+04 -2.561974E+05 -2.637970E+04 -1.064652E+05 -7.933941E-10 -1.984607E-09
       146  18  5.166144E+04  6.922348E+04  4.496037E+04 -1.894709E+05 -1.742624E-09  4.844214E-09
       146  19  1.097544E+05  2.956570E+05  1.030016E+05 -1.902123E+05 -1.900276E+04  6.014011E+03
       146  20  2.829542E+04 -2.984617E+04  2.539137E+04 -1.072133E+05 -4.995301E+03  5.987224E+03
       146  21 -5.285153E+04 -3.559688E+05 -5.235155E+04 -1.893582E+05  9.279624E+03  5.963577E+03
       146  22  1.835739E+03 -1.434131E+05  2.443249E+03 -1.894093E+05 -1.898070E+04 -4.308858E+03
       146  23  4.785812E+02 -1.430277E+05 -4.937138E+02 -1.068392E+05 -4.972138E+03 -4.532891E+03
       146  24 -5.934246E+02 -1.433936E+05 -3.694017E+03 -1.894146E+05  9.304273E+03 -4.753805E+03
       146  25 -1.060963E+05 -5.823044E+05 -9.812735E+04 -1.886067E+05 -1.895865E+04 -1.462449E+04
       146  26 -2.733909E+04 -2.561971E+05 -2.637923E+04 -1.064651E+05 -4.948986E+03 -1.505110E+04
       146  27  5.166160E+04  6.922376E+04  4.496099E+04 -1.894711E+05  9.328918E+03 -1.547483E+04
       147   1 -1.253747E+05 -6.618739E+05 -1.235591E+05 -1.855845E+05 -2.268820E+04 -1.465856E+04
       147   2 -2.058086E+05 -9.828273E+05 -2.038720E+05 -1.085443E+05 -3.363633E+04  1.450091E+04
       147   3 -3.092209E+05 -1.313501E+06 -3.090153E+05 -1.955150E+05 -1.233371E+04  4.369585E+04
       147   4  1.837236E+03 -1.445347E+05 -5.165424E+03 -1.891486E+05 -2.273165E+04  5.421550E+03
       147   5  1.327045E+03 -1.417864E+05 -9.752170E+03 -1.071645E+05 -3.362604E+04  1.062202E+04
       147   6 -1.797521E+04 -1.446831E+05 -2.250293E+04 -1.891805E+05 -1.228866E+04  1.587386E+04
       147   7  1.290308E+05  3.730536E+05  1.132123E+05 -1.927156E+05 -2.277532E+04  2.551827E+04
       147   8  2.084131E+05  6.999094E+05  1.843206E+05 -1.057825E+05 -3.361578E+04  6.737897E+03
       147   9  2.731697E+05  1.025383E+06  2.639122E+05 -1.828333E+05 -1.224422E+04 -1.200051E+04
       147  10 -1.253753E+05 -6.618742E+05 -1.235605E+05 -1.855848E+05 -3.106923E-10 -5.164570E-10
       147  11 -2.058098E+05 -9.828278E+05 -2.038745E+05 -1.085439E+05 -7.463275E-10  1.215865E-09
       147  12 -3.092216E+05 -1.313503E+06 -3.090192E+05 -1.955146E+05  3.618736E-10  1.046497E-09
       147  13  1.836673E+03 -1.445348E+05 -5.166450E+03 -1.891485E+05 -3.094266E-09 -2.094816E-09
       147  14  1.325801E+03 -1.417868E+05 -9.754507E+03 -1.071642E+05  3.713110E-10 -1.776438E-09
       147  15 -1.797544E+04 -1.446835E+05 -2.250369E+04 -1.891803E+05 -2.339923E-10 -4.860397E-10
       147  16  1.290301E+05  3.730527E+05  1.132101E+05 -1.927151E+05 -1.131268E-09  5.084650E-10
       147  17  2.084118E+05  6.999091E+05  1.843184E+05 -1.057823E+05 -4.421332E-10 -2.081704E-09
       147  18  2.731695E+05  1.025382E+06  2.639117E+05 -1.828334E+05 -4.127392E-10  2.648729E-10
       147  19 -1.253747E+05 -6.618739E+05 -1.235591E+05 -1.855845E+05  2.268820E+04  1.465856E+04
       147  20 -2.058086E+05 -9.828273E+05 -2.038720E+05 -1.085443E+05  3.363633E+04 -1.450091E+04
       147  21 -3.092209E+05 -1.313501E+06 -3.090153E+05 -1.955150E+05  1.233371E+04 -4.369585E+04
       147  22  1.837236E+03 -1.445347E+05 -5.165424E+03 -1.891486E+05  2.273165E+04 -5.421550E+03
       147  23  1.327045E+03 -1.417864E+05 -9.752170E+03 -1.071645E+05  3.362604E+04 -1.062202E+04
       147  24 -1.797521E+04 -1.446831E+05 -2.250293E+04 -1.891805E+05  1.228866E+04 -1.587386E+04
       147  25  1.290308E+05  3.730536E+05  1.132123E+05 -1.927156E+05  2.277532E+04 -2.551827E+04
       147  26  2.084131E+05  6.999094E+05  1.843206E+05 -1.057825E+05  3.361578E+04 -6.737897E+03
       147  27  2.731697E+05  1.025383E+06  2.639122E+05 -1.828333E+05  1.224422E+04  1.200051E+04
       148   1 -9.234410E+05 -3.200122E+05 -1.878872E+05 -3.371915E+05 -7.069501E+04 -2.148075E+04
       148   2 -8.835383E+05 -2.090771E+05 -1.185452E+05 -3.251195E+05 -4.577669E+04 -1.845457E+03
       148   3 -8.611102E+05 -1.913126E+05 -9.153504E+04 -3.109400E+05 -1.718886E+04  8.032086E+03
       148   4 -5.922521E+05 -1.676054E+05 -9.330015E+04 -2.185975E+05 -6.105794E+04 -1.786379E+04
       148   5 -5.792088E+05 -8.648074E+04 -3.977362E+04 -2.328737E+05 -4.291817E+04 -7.731586E+02
       148   6 -5.822815E+05 -9.716103E+04 -2.318731E+04 -2.450474E+05 -2.111158E+04  6.559253E+03
       148   7 -2.609534E+05 -1.517488E+04  1.277294E+03 -9.994045E+04 -5.141518E+04 -1.424360E+04
       148   8 -2.747875E+05  3.612598E+04  3.899045E+04 -1.405852E+05 -4.005810E+04  2.998218E+02
       148   9 -3.033766E+05 -3.007714E+03  4.515470E+04 -1.791296E+05 -2.503623E+04  5.085857E+03
       148  10 -9.234465E+05 -3.200140E+05 -1.878975E+05 -3.371927E+05  1.114263E-09 -3.772619E-10
       148  11 -8.835406E+05 -2.090776E+05 -1.185491E+05 -3.251196E+05  2.802397E-09 -1.083734E-09
       148  12 -8.611105E+05 -1.913128E+05 -9.153571E+04 -3.109398E+05 -3.944897E-09 -4.769041E-10
       148  13 -5.922562E+05 -1.676067E+05 -9.330776E+04 -2.185984E+05 -1.201869E-09 -2.047484E-12
       148  14 -5.792108E+05 -8.648123E+04 -3.977708E+04 -2.328737E+05  2.973868E-11  1.863309E-10
       148  15 -5.822820E+05 -9.716119E+04 -2.318823E+04 -2.450473E+05 -7.492737E-10 -1.428527E-09
       148  16 -2.609563E+05 -1.517581E+04  1.271943E+03 -9.994104E+04 -5.538369E-10 -3.428632E-10
       148  17 -2.747893E+05  3.612554E+04  3.898744E+04 -1.405852E+05 -1.894916E-10 -6.363858E-10
       148  18 -3.033773E+05 -3.007910E+03  4.515348E+04 -1.791295E+05 -1.944293E-09 -1.276280E-09
       148  19 -9.234410E+05 -3.200122E+05 -1.878872E+05 -3.371915E+05  7.069501E+04  2.148075E+04
       148  20 -8.835383E+05 -2.090771E+05 -1.185452E+05 -3.251195E+05  4.577669E+04  1.845457E+03
       148  21 -8.611102E+05 -1.913126E+05 -9.153504E+04 -3.109400E+05  1.718886E+04 -8.032086E+03
       148  22 -5.922521E+05 -1.676054E+05 -9.330015E+04 -2.185975E+05  6.105794E+04  1.786379E+04
       148  23 -5.792088E+05 -8.648074E+04 -3.977362E+04 -2.328737E+05  4.291817E+04  7.731586E+02
       148  24 -5.822815E+05 -9.716103E+04 -2.318731E+04 -2.450474E+05  2.111158E+04 -6.559253E+03
       148  25 -2.609534E+05 -1.517488E+04  1.277294E+03 -9.994045E+04  5.141518E+04  1.424360E+04
       148  26 -2.747875E+05  3.612598E+04  3.899045E+04 -1.405852E+05  4.005810E+04 -2.998218E+02
       148  27 -3.033766E+05 -3.007714E+03  4.515470E+04 -1.791296E+05  2.503623E+04 -5.085857E+03
       149   1 -8.099177E+05 -1.936142E+05 -7.730260E+04 -3.052137E+05 -1.620717E+04  5.654918E+03
       149   2 -7.767884E+05 -1.638844E+05 -5.774088E+04 -2.858142E+05 -1.049790E+04  6.030536E+03
       149   3 -7.308273E+05 -1.561142E+05 -4.366463E+04 -2.830558E+05 -4.598687E+03  5.899083E+03
       149   4 -5.792026E+05 -1.055151E+05 -1.860248E+04 -2.402397E+05 -1.711198E+04  5.314942E+03
       149   5 -5.852623E+05 -9.181992E+04 -9.325405E+03 -2.329496E+05 -1.175379E+04  5.559052E+03
       149   6 -5.784210E+05 -1.000132E+05 -5.253669E+03 -2.423014E+05 -6.206013E+03  5.296020E+03
       149   7 -3.484363E+05 -1.741242E+04  4.009307E+04 -1.752438E+05 -1.801715E+04  4.974823E+03
       149   8 -3.937002E+05 -1.975291E+04  3.908714E+04 -1.800702E+05 -1.301010E+04  5.087407E+03
       149   9 -4.259914E+05 -4.391070E+04  3.315562E+04 -2.015378E+05 -7.813778E+03  4.692799E+03
       149  10 -8.099180E+05 -1.936143E+05 -7.730315E+04 -3.052136E+05 -5.375523E-09 -2.204995E-10
       149  11 -7.767885E+05 -1.638845E+05 -5.774116E+04 -2.858141E+05  8.463098E-10  1.970853E-09
       149  12 -7.308273E+05 -1.561142E+05 -4.366473E+04 -2.830558E+05  2.592535E-09  6.762046E-10
       149  13 -5.792029E+05 -1.055153E+05 -1.860309E+04 -2.402396E+05  8.988355E-11 -9.308294E-11
       149  14 -5.852624E+05 -9.181999E+04 -9.325723E+03 -2.329496E+05  3.001098E-09  1.479785E-09
       149  15 -5.784210E+05 -1.000133E+05 -5.253794E+03 -2.423014E+05  7.440131E-10  8.627800E-10
       149  16 -3.484366E+05 -1.741254E+04  4.009241E+04 -1.752437E+05  2.296227E-09 -1.944631E-10
       149  17 -3.937004E+05 -1.975298E+04  3.908678E+04 -1.800702E+05  2.538259E-09  1.989528E-09
       149  18 -4.259915E+05 -4.391074E+04  3.315546E+04 -2.015378E+05  5.394947E-10  1.104845E-09
       149  19 -8.099177E+05 -1.936142E+05 -7.730260E+04 -3.052137E+05  1.620717E+04 -5.654918E+03
       149  20 -7.767884E+05 -1.638844E+05 -5.774088E+04 -2.858142E+05  1.049790E+04 -6.030536E+03
       149  21 -7.308273E+05 -1.561142E+05 -4.366463E+04 -2.830558E+05  4.598687E+03 -5.899083E+03
       149  22 -5.792026E+05 -1.055151E+05 -1.860248E+04 -2.402397E+05  1.711198E+04 -5.314942E+03
       149  23 -5.852623E+05 -9.181992E+04 -9.325405E+03 -2.329496E+05  1.175379E+04 -5.559052E+03
       149  24 -5.784210E+05 -1.000132E+05 -5.253669E+03 -2.423014E+05  6.206013E+03 -5.296020E+03
       149  25 -3.484363E+05 -1.741242E+04  4.009307E+04 -1.752438E+05  1.801715E+04 -4.974823E+03
       149  26 -3.937002E+05 -1.975291E+04  3.908714E+04 -1.800702E+05  1.301010E+04 -5.087407E+03
       149  27 -4.259914E+05 -4.391070E+04  3.315562E+04 -2.015378E+05  7.813778E+03 -4.692799E+03
       150   1 -6.901561E+05 -1.425747E+05 -3.218949E+04 -2.726322E+05 -3.519539E+03  4.820809E+03
       150   2 -6.575873E+05 -1.190664E+05 -2.029779E+04 -2.525535E+05 -1.603682E+03  3.139915E+03
       150   3 -6.094727E+05 -1.119283E+05 -9.375559E+03 -2.505741E+05  3.224466E+02  1.430915E+03
       150   4 -5.780937E+05 -1.006589E+05 -4.046831E+03 -2.419214E+05 -4.974108E+03  4.275160E+03
       150   5 -5.858374E+05 -9.226684E+04 -2.204068E+03 -2.329496E+05 -3.077614E+03  2.587100E+03
       150   6 -5.780329E+05 -1.002408E+05 -1.315099E+03 -2.420773E+05 -1.170934E+03  8.709138E+02
       150   7 -4.660191E+05 -5.874227E+04  2.409484E+04 -2.112056E+05 -6.428963E+03  3.729404E+03
       150   8 -5.140827E+05 -6.546696E+04  1.588921E+04 -2.133436E+05 -4.551729E+03  2.034216E+03
       150   9 -5.465923E+05 -8.855336E+04  6.745254E+03 -2.335802E+05 -2.664391E+03  3.108841E+02
       150  10 -6.901561E+05 -1.425748E+05 -3.218956E+04 -2.726322E+05 -8.481825E-10 -6.986293E-10
       150  11 -6.575873E+05 -1.190665E+05 -2.029781E+04 -2.525535E+05 -2.024870E-09 -4.814651E-11
       150  12 -6.094727E+05 -1.119283E+05 -9.375563E+03 -2.505741E+05 -1.151772E-09 -2.081870E-10
       150  13 -5.780938E+05 -1.006590E+05 -4.046912E+03 -2.419214E+05 -9.236217E-10  3.523570E-12
       150  14 -5.858375E+05 -9.226685E+04 -2.204099E+03 -2.329496E+05 -4.151206E-09 -2.275392E-10
       150  15 -5.780329E+05 -1.002408E+05 -1.315103E+03 -2.420773E+05  7.223693E-11  1.073621E-10
       150  16 -4.660192E+05 -5.874230E+04  2.409473E+04 -2.112056E+05 -4.607747E-10  6.553771E-10
       150  17 -5.140827E+05 -6.546697E+04  1.588916E+04 -2.133436E+05 -2.793416E-09 -1.923013E-10
       150  18 -5.465923E+05 -8.855336E+04  6.745241E+03 -2.335802E+05  7.314490E-10  3.996710E-10
       150  19 -6.901561E+05 -1.425747E+05 -3.218949E+04 -2.726322E+05  3.519539E+03 -4.820809E+03
       150  20 -6.575873E+05 -1.190664E+05 -2.029779E+04 -2.525535E+05  1.603682E+03 -3.139915E+03
       150  21 -6.094727E+05 -1.119283E+05 -9.375559E+03 -2.505741E+05 -3.224466E+02 -1.430915E+03
       150  22 -5.780937E+05 -1.006589E+05 -4.046831E+03 -2.419214E+05  4.974108E+03 -4.275160E+03
       150  23 -5.858374E+05 -9.226684E+04 -2.204068E+03 -2.329496E+05  3.077614E+03 -2.587100E+03
       150  24 -5.780329E+05 -1.002408E+05 -1.315099E+03 -2.420773E+05  1.170934E+03 -8.709138E+02
       150  25 -4.660191E+05 -5.874227E+04  2.409484E+04 -2.112056E+05  6.428963E+03 -3.729404E+03
       150  26 -5.140827E+05 -6.546696E+04  1.588921E+04 -2.133436E+05  4.551729E+03 -2.034216E+03
       150  27 -5.465923E+05 -8.855336E+04  6.745254E+03 -2.335802E+05  2.664391E+03 -3.108841E+02
       151   1 -5.695908E+05 -9.711293E+04  1.196985E+03 -2.397503E+05  9.784530E+02  2.549817E+02
       151   2 -5.371000E+05 -7.407683E+04  1.149255E+04 -2.196106E+05  2.184166E+03 -1.727204E+03
       151   3 -4.888005E+05 -6.697082E+04  2.147397E+04 -2.176635E+05  3.389991E+03 -3.709055E+03
       151   4 -5.779952E+05 -1.002854E+05 -1.071065E+03 -2.420451E+05 -5.072040E+02 -3.021143E+02
       151   5 -5.858976E+05 -9.231046E+04 -8.128719E+02 -2.329522E+05  6.986390E+02 -2.284325E+03
       151   6 -5.779939E+05 -1.002663E+05 -8.691391E+02 -2.420529E+05  1.904557E+03 -4.266197E+03
       151   7 -5.863996E+05 -1.034580E+05 -3.339127E+03 -2.443398E+05 -1.992849E+03 -8.592057E+02
       151   8 -6.346928E+05 -1.105439E+05 -1.311844E+04 -2.462927E+05 -7.867562E+02 -2.841397E+03
       151   9 -6.671785E+05 -1.335608E+05 -2.321259E+04 -2.664388E+05  4.193722E+02 -4.823246E+03
       151  10 -5.695908E+05 -9.711293E+04  1.196983E+03 -2.397503E+05  1.234316E-11 -1.638527E-10
       151  11 -5.371000E+05 -7.407683E+04  1.149254E+04 -2.196106E+05 -1.997713E-09 -1.031264E-09
       151  12 -4.888005E+05 -6.697084E+04  2.147393E+04 -2.176635E+05 -2.187816E-10 -2.394528E-10
       151  13 -5.779952E+05 -1.002854E+05 -1.071066E+03 -2.420451E+05 -8.988747E-10 -3.327616E-10
       151  14 -5.858976E+05 -9.231047E+04 -8.128826E+02 -2.329522E+05 -6.911709E-10 -1.027336E-09
       151  15 -5.779939E+05 -1.002663E+05 -8.691801E+02 -2.420529E+05  2.578599E-09  2.794280E-10
       151  16 -5.863996E+05 -1.034580E+05 -3.339136E+03 -2.443398E+05 -5.968475E-10 -6.009676E-10
       151  17 -6.346928E+05 -1.105439E+05 -1.311846E+04 -2.462927E+05  8.912042E-10 -1.042745E-09
       151  18 -6.671785E+05 -1.335608E+05 -2.321263E+04 -2.664388E+05  4.959919E-09  8.830289E-10
       151  19 -5.695908E+05 -9.711293E+04  1.196985E+03 -2.397503E+05 -9.784530E+02 -2.549817E+02
       151  20 -5.371000E+05 -7.407683E+04  1.149255E+04 -2.196106E+05 -2.184166E+03  1.727204E+03
       151  21 -4.888005E+05 -6.697082E+04  2.147397E+04 -2.176635E+05 -3.389991E+03  3.709055E+03
       151  22 -5.779952E+05 -1.002854E+05 -1.071065E+03 -2.420451E+05  5.072040E+02  3.021143E+02
       151  23 -5.858976E+05 -9.231046E+04 -8.128719E+02 -2.329522E+05 -6.986390E+02  2.284325E+03
       151  24 -5.779939E+05 -1.002663E+05 -8.691391E+02 -2.420529E+05 -1.904557E+03  4.266197E+03
       151  25 -5.863996E+05 -1.034580E+05 -3.339127E+03 -2.443398E+05  1.992849E+03  8.592057E+02
       151  26 -6.346928E+05 -1.105439E+05 -1.311844E+04 -2.462927E+05  7.867562E+02  2.841397E+03
       151  27 -6.671785E+05 -1.335608E+05 -2.321259E+04 -2.664388E+05 -4.193722E+02  4.823246E+03
       152   1 -4.490957E+05 -5.207895E+04  3.165064E+04 -2.068333E+05  4.008804E+03 -4.892937E+03
       152   2 -4.167449E+05 -2.915763E+04  4.107406E+04 -1.867543E+05  5.584034E+03 -6.728571E+03
       152   3 -3.687067E+05 -2.216909E+04  4.989366E+04 -1.847749E+05  7.157108E+03 -8.556274E+03
       152   4 -5.780197E+05 -1.002460E+05 -1.001737E+03 -2.420410E+05  2.525110E+03 -5.449522E+03
       152   5 -5.858709E+05 -9.232801E+04 -1.567801E+03 -2.329729E+05  4.105500E+03 -7.283466E+03
       152   6 -5.780367E+05 -1.003442E+05 -2.741678E+03 -2.420055E+05  5.683681E+03 -9.109495E+03
       152   7 -7.069281E+05 -1.484122E+05 -3.365562E+04 -2.772422E+05  1.041746E+03 -6.005983E+03
       152   8 -7.549705E+05 -1.554971E+05 -4.421236E+04 -2.791806E+05  2.627394E+03 -7.838201E+03
       152   9 -7.873265E+05 -1.785174E+05 -5.538124E+04 -2.992193E+05  4.210779E+03 -9.662519E+03
       152  10 -4.490957E+05 -5.207898E+04  3.165057E+04 -2.068333E+05  3.816884E-09  8.453063E-10
       152  11 -4.167450E+05 -2.915768E+04  4.107392E+04 -1.867543E+05  8.996804E-10  5.342120E-10
       152  12 -3.687068E+05 -2.216918E+04  4.989342E+04 -1.847749E+05 -1.607932E-09  5.274010E-10
       152  13 -5.780197E+05 -1.002460E+05 -1.001804E+03 -2.420409E+05  2.608712E-09  8.491503E-10
       152  14 -5.858710E+05 -9.232807E+04 -1.567932E+03 -2.329729E+05  1.637062E-09  4.631221E-10
       152  15 -5.780367E+05 -1.003443E+05 -2.741894E+03 -2.420054E+05 -2.084303E-09  7.838052E-10
       152  16 -7.069281E+05 -1.484122E+05 -3.365569E+04 -2.772421E+05  7.647491E-10  9.573212E-10
       152  17 -7.549705E+05 -1.554972E+05 -4.421249E+04 -2.791806E+05 -2.316538E-09  9.321971E-10
       152  18 -7.873265E+05 -1.785176E+05 -5.538145E+04 -2.992193E+05 -7.369135E-10  1.272233E-09
       152  19 -4.490957E+05 -5.207895E+04  3.165064E+04 -2.068333E+05 -4.008804E+03  4.892937E+03
       152  20 -4.167449E+05 -2.915763E+04  4.107406E+04 -1.867543E+05 -5.584034E+03  6.728571E+03
       152  21 -3.687067E+05 -2.216909E+04  4.989366E+04 -1.847749E+05 -7.157108E+03  8.556274E+03
       152  22 -5.780197E+05 -1.002460E+05 -1.001737E+03 -2.420410E+05 -2.525110E+03  5.449522E+03
       152  23 -5.858709E+05 -9.232801E+04 -1.567801E+03 -2.329729E+05 -4.105500E+03  7.283466E+03
       152  24 -5.780367E+05 -1.003442E+05 -2.741678E+03 -2.420055E+05 -5.683681E+03  9.109495E+03
       152  25 -7.069281E+05 -1.484122E+05 -3.365562E+04 -2.772422E+05 -1.041746E+03  6.005983E+03
       152  26 -7.549705E+05 -1.554971E+05 -4.421236E+04 -2.791806E+05 -2.627394E+03  7.838201E+03
       152  27 -7.873265E+05 -1.785174E+05 -5.538124E+04 -2.992193E+05 -4.210779E+03  9.662519E+03
       153   1 -3.292933E+05 -7.383557E+03  5.926521E+04 -1.742587E+05  8.150218E+03 -9.593979E+03
       153   2 -2.971356E+05  1.560241E+04  6.631131E+04 -1.540718E+05  1.214460E+04 -1.049278E+04
       153   3 -2.502226E+05  2.144591E+04  7.059411E+04 -1.515503E+05  1.612154E+04 -1.134148E+04
       153   4 -5.781905E+05 -1.001827E+05 -3.598219E+03 -2.420737E+05  6.668560E+03 -1.015049E+04
       153   5 -5.856569E+05 -9.223983E+04 -6.444697E+03 -2.330049E+05  1.069612E+04 -1.103723E+04
       153   6 -5.783761E+05 -1.014466E+05 -1.208153E+04 -2.416023E+05  1.470603E+04 -1.187393E+04
       153   7 -8.270243E+05 -1.929769E+05 -6.646579E+04 -3.098633E+05  5.187570E+03 -1.070676E+04
       153   8 -8.740948E+05 -2.000759E+05 -7.920680E+04 -3.119043E+05  9.248384E+03 -1.158139E+04
       153   9 -9.064236E+05 -2.243317E+05 -9.476559E+04 -3.316110E+05  1.329134E+04 -1.240607E+04
       153  10 -3.292934E+05 -7.383674E+03  5.926492E+04 -1.742587E+05 -9.326196E-10  1.015408E-09
       153  11 -2.971358E+05  1.560226E+04  6.631083E+04 -1.540717E+05 -9.068952E-10  8.657846E-11
       153  12 -2.502229E+05  2.144570E+04  7.059338E+04 -1.515502E+05  8.472965E-10 -7.405582E-10
       153  13 -5.781906E+05 -1.001829E+05 -3.598496E+03 -2.420736E+05 -1.846989E-10  8.609106E-10
       153  14 -5.856570E+05 -9.223999E+04 -6.445140E+03 -2.330048E+05 -4.217402E-10 -1.496122E-10
       153  15 -5.783763E+05 -1.014468E+05 -1.208220E+04 -2.416021E+05  1.352220E-09 -1.685490E-09
       153  16 -8.270243E+05 -1.929770E+05 -6.646605E+04 -3.098632E+05  3.276863E-10  8.639678E-10
       153  17 -8.740949E+05 -2.000761E+05 -7.920721E+04 -3.119042E+05 -6.712297E-10 -1.434466E-10
       153  18 -9.064238E+05 -2.243319E+05 -9.476622E+04 -3.316108E+05  1.656169E-11 -2.943598E-11
       153  19 -3.292933E+05 -7.383557E+03  5.926521E+04 -1.742587E+05 -8.150218E+03  9.593979E+03
       153  20 -2.971356E+05  1.560241E+04  6.631131E+04 -1.540718E+05 -1.214460E+04  1.049278E+04
       153  21 -2.502226E+05  2.144591E+04  7.059411E+04 -1.515503E+05 -1.612154E+04  1.134148E+04
       153  22 -5.781905E+05 -1.001827E+05 -3.598219E+03 -2.420737E+05 -6.668560E+03  1.015049E+04
       153  23 -5.856569E+05 -9.223983E+04 -6.444697E+03 -2.330049E+05 -1.069612E+04  1.103723E+04
       153  24 -5.783761E+05 -1.014466E+05 -1.208153E+04 -2.416023E+05 -1.470603E+04  1.187393E+04
       153  25 -8.270243E+05 -1.929769E+05 -6.646579E+04 -3.098633E+05 -5.187570E+03  1.070676E+04
       153  26 -8.740948E+05 -2.000759E+05 -7.920680E+04 -3.119043E+05 -9.248384E+03  1.158139E+04
       153  27 -9.064236E+05 -2.243317E+05 -9.476559E+04 -3.316110E+05 -1.329134E+04  1.240607E+04
       154   1 -2.102088E+05  3.594091E+04  7.699283E+04 -1.443937E+05  1.907764E+04 -1.172617E+04
       154   2 -1.786069E+05  6.222074E+04  7.447588E+04 -1.204531E+05  3.363412E+04 -8.499463E+03
       154   3 -1.401044E+05  5.479808E+04  5.674600E+04 -1.098361E+05  4.789193E+04 -4.471546E+03
       154   4 -5.793542E+05 -9.951395E+04 -1.574513E+04 -2.427595E+05  1.742485E+04 -1.234802E+04
       154   5 -5.839252E+05 -9.087552E+04 -2.804837E+04 -2.329899E+05  3.252951E+04 -8.915936E+03
       154   6 -5.817117E+05 -1.160581E+05 -5.600732E+04 -2.365453E+05  4.733451E+04 -4.682945E+03
       154   7 -9.483680E+05 -2.349618E+05 -1.084943E+05 -3.410734E+05  1.577312E+04 -1.296948E+04
       154   8 -9.890835E+05 -2.439605E+05 -1.305860E+05 -3.454601E+05  3.142569E+04 -9.332109E+03
       154   9 -1.023128E+06 -2.868980E+05 -1.687766E+05 -3.631716E+05  4.677753E+04 -4.894172E+03
       154  10 -2.102092E+05  3.594066E+04  7.699189E+04 -1.443935E+05  9.124636E-10 -1.098220E-10
       154  11 -1.786082E+05  6.222036E+04  7.447362E+04 -1.204529E+05  9.493303E-10  2.431255E-09
       154  12 -1.401069E+05  5.479744E+04  5.674165E+04 -1.098360E+05  4.445615E-10 -6.030672E-11
       154  13 -5.793546E+05 -9.951419E+04 -1.574599E+04 -2.427594E+05  1.585142E-10 -4.517786E-10
       154  14 -5.839263E+05 -9.087589E+04 -2.805051E+04 -2.329897E+05  8.488579E-10  1.102585E-09
       154  15 -5.817141E+05 -1.160587E+05 -5.601157E+04 -2.365452E+05 -1.055057E-10 -1.394031E-09
       154  16 -9.483683E+05 -2.349620E+05 -1.084951E+05 -3.410732E+05  1.561551E-09  3.331443E-10
       154  17 -9.890846E+05 -2.439609E+05 -1.305880E+05 -3.454599E+05  5.761666E-10  8.508974E-10
       154  18 -1.023130E+06 -2.868986E+05 -1.687807E+05 -3.631714E+05 -1.920795E-09  3.422291E-11
       154  19 -2.102088E+05  3.594091E+04  7.699283E+04 -1.443937E+05 -1.907764E+04  1.172617E+04
       154  20 -1.786069E+05  6.222074E+04  7.447588E+04 -1.204531E+05 -3.363412E+04  8.499463E+03
       154  21 -1.401044E+05  5.479808E+04  5.674600E+04 -1.098361E+05 -4.789193E+04  4.471546E+03
       154  22 -5.793542E+05 -9.951395E+04 -1.574513E+04 -2.427595E+05 -1.742485E+04  1.234802E+04
       154  23 -5.839252E+05 -9.087552E+04 -2.804837E+04 -2.329899E+05 -3.252951E+04  8.915936E+03
       154  24 -5.817117E+05 -1.160581E+05 -5.600732E+04 -2.365453E+05 -4.733451E+04  4.682945E+03
       154  25 -9.483680E+05 -2.349618E+05 -1.084943E+05 -3.410734E+05 -1.577312E+04  1.296948E+04
       154  26 -9.890835E+05 -2.439605E+05 -1.305860E+05 -3.454601E+05 -3.142569E+04  9.332109E+03
       154  27 -1.023128E+06 -2.868980E+05 -1.687766E+05 -3.631716E+05 -4.677753E+04  4.894172E+03
       155   1 -8.464014E+04  6.798578E+04  5.197607E+04 -1.436795E+05  6.308530E+04 -2.222574E+03
       155   2 -6.334090E+04  1.400193E+05  1.243387E+04 -6.765841E+04  1.172590E+05  1.828888E+04
       155   3 -1.201084E+05 -3.058672E+04 -1.298998E+05  5.095139E+04  1.656718E+05  5.410378E+04
       155   4 -5.908476E+05 -9.104194E+04 -6.982565E+04 -2.511986E+05  5.779619E+04 -4.211368E+03
       155   5 -5.658059E+05 -7.460681E+04 -1.197722E+05 -2.325809E+05  1.225742E+05  2.028340E+04
       155   6 -6.210164E+05 -3.030454E+05 -2.809840E+05 -1.713563E+05  1.815875E+05  6.007478E+04
       155   7 -1.096803E+06 -2.500692E+05 -1.916452E+05 -3.586462E+05  5.251180E+04 -6.199040E+03
       155   8 -1.068018E+06 -2.891929E+05 -2.519987E+05 -3.973737E+05  1.278847E+05  2.227555E+04
       155   9 -1.121656E+06 -5.753919E+05 -4.320888E+05 -3.934723E+05  1.974890E+05  6.603501E+04
       155  10 -8.464441E+04  6.798471E+04  5.196858E+04 -1.436794E+05  2.152320E-09  3.735756E-10
       155  11 -6.335576E+04  1.400152E+05  1.240739E+04 -6.766013E+04  1.972351E-09 -1.380346E-09
       155  12 -1.201387E+05 -3.059723E+04 -1.299568E+05  5.094417E+04 -1.859282E-09 -2.165538E-09
       155  13 -5.908512E+05 -9.104286E+04 -6.983196E+04 -2.511984E+05  1.265431E-09 -1.905855E-09
       155  14 -5.658222E+05 -7.461129E+04 -1.198012E+05 -2.325829E+05  3.313085E-09 -2.798853E-09
       155  15 -6.210528E+05 -3.030582E+05 -2.810528E+05 -1.713651E+05  1.583221E-09  1.721139E-09
       155  16 -1.096806E+06 -2.500700E+05 -1.916504E+05 -3.586460E+05 -1.643847E-09 -5.099518E-10
       155  17 -1.068036E+06 -2.891978E+05 -2.520304E+05 -3.973760E+05 -9.645164E-10 -2.003830E-09
       155  18 -1.121699E+06 -5.754071E+05 -4.321705E+05 -3.934828E+05  2.787923E-09 -1.849736E-09
       155  19 -8.464014E+04  6.798578E+04  5.197607E+04 -1.436795E+05 -6.308530E+04  2.222574E+03
       155  20 -6.334090E+04  1.400193E+05  1.243387E+04 -6.765841E+04 -1.172590E+05 -1.828888E+04
       155  21 -1.201084E+05 -3.058672E+04 -1.298998E+05  5.095139E+04 -1.656718E+05 -5.410378E+04
       155  22 -5.908476E+05 -9.104194E+04 -6.982565E+04 -2.511986E+05 -5.779619E+04  4.211368E+03
       155  23 -5.658059E+05 -7.460681E+04 -1.197722E+05 -2.325809E+05 -1.225742E+05 -2.028340E+04
       155  24 -6.210164E+05 -3.030454E+05 -2.809840E+05 -1.713563E+05 -1.815875E+05 -6.007478E+04
       155  25 -1.096803E+06 -2.500692E+05 -1.916452E+05 -3.586462E+05 -5.251180E+04  6.199040E+03
       155  26 -1.068018E+06 -2.891929E+05 -2.519987E+05 -3.973737E+05 -1.278847E+05 -2.227555E+04
       155  27 -1.121656E+06 -5.753919E+05 -4.320888E+05 -3.934723E+05 -1.974890E+05 -6.603501E+04
       156   1  2.387271E+05  2.129188E+06  2.387288E+05 -2.886869E+04  1.041337E+04  1.108585E+05
       156   2  1.782743E+05  2.139564E+06  1.746279E+05 -6.134811E+03  3.656365E+04  6.256980E+04
       156   3  1.674298E+05  2.168668E+06  1.543270E+05  2.225580E+04  4.725593E+04  1.427154E+04
       156   4  7.509143E+04  1.464593E+06  8.421520E+04  1.869321E+04  1.046505E+04  5.464342E+04
       156   5  1.594880E+04  1.457467E+06  4.392539E+04  1.582866E+04  3.659613E+04  3.203830E+04
       156   6  1.990875E+03  1.464633E+06  2.965343E+04  1.862144E+04  4.726541E+04  9.423384E+03
       156   7 -8.856518E+04  8.004161E+05 -7.031508E+04  6.620406E+04  1.050817E+04 -1.512085E+03
       156   8 -1.464018E+05  7.758197E+05 -8.679469E+04  3.776760E+04  3.662647E+04  1.539449E+03
       156   9 -1.634751E+05  7.610817E+05 -9.503842E+04  1.499142E+04  4.727496E+04  4.580542E+03
       156  10  2.387237E+05  2.129175E+06  2.387055E+05 -2.886962E+04 -7.684189E-10  2.626305E-08
       156  11  1.782718E+05  2.139559E+06  1.746181E+05 -6.136651E+03  3.860973E-10 -2.973571E-09
       156  12  1.674273E+05  2.168667E+06  1.543224E+05  2.225526E+04 -6.382483E-10 -2.921803E-08
       156  13  7.509051E+04  1.464590E+06  8.420940E+04  1.869275E+04  7.882493E-10  7.855389E-10
       156  14  1.594708E+04  1.457466E+06  4.392095E+04  1.582772E+04 -5.974521E-10 -2.551700E-10
       156  15  1.988451E+03  1.464633E+06  2.964906E+04  1.862108E+04 -6.180299E-10  1.256906E-09
       156  16 -8.856530E+04  8.004161E+05 -7.031530E+04  6.620408E+04  9.556278E-10 -2.625419E-08
       156  17 -1.464033E+05  7.758193E+05 -8.679722E+04  3.776756E+04  7.440553E-10  1.015171E-09
       156  18 -1.634775E+05  7.610811E+05 -9.504266E+04  1.499125E+04 -8.457311E-10  2.895166E-08
       156  19  2.387271E+05  2.129188E+06  2.387288E+05 -2.886869E+04 -1.041337E+04 -1.108585E+05
       156  20  1.782743E+05  2.139564E+06  1.746279E+05 -6.134811E+03 -3.656365E+04 -6.256980E+04
       156  21  1.674298E+05  2.168668E+06  1.543270E+05  2.225580E+04 -4.725593E+04 -1.427154E+04
       156  22  7.509143E+04  1.464593E+06  8.421520E+04  1.869321E+04 -1.046505E+04 -5.464342E+04
       156  23  1.594880E+04  1.457467E+06  4.392539E+04  1.582866E+04 -3.659613E+04 -3.203830E+04
       156  24  1.990875E+03  1.464633E+06  2.965343E+04  1.862144E+04 -4.726541E+04 -9.423384E+03
       156  25 -8.856518E+04  8.004161E+05 -7.031508E+04  6.620406E+04 -1.050817E+04  1.512085E+03
       156  26 -1.464018E+05  7.758197E+05 -8.679469E+04  3.776760E+04 -3.662647E+04 -1.539449E+03
       156  27 -1.634751E+05  7.610817E+05 -9.503842E+04  1.499142E+04 -4.727496E+04 -4.580542E+03
       157   1  1.713268E+05  2.178699E+06  1.531590E+05  1.532986E+04  4.878849E+04  1.190436E+04
       157   2  1.738938E+05  2.196784E+06  1.557288E+05  1.572151E+04  5.147169E+04 -6.807371E+03
       157   3  1.842364E+05  2.219314E+06  1.724157E+05  2.078437E+04  5.116574E+04 -2.552289E+04
       157   4  3.103583E+03  1.462247E+06  2.703528E+04  1.841068E+04  4.880098E+04  4.997050E+03
       157   5  1.292848E+03  1.460445E+06  2.751794E+04  1.607647E+04  5.147946E+04 -8.735977E+03
       157   6  6.400904E+03  1.462231E+06  3.867669E+04  1.841374E+04  5.116719E+04 -2.247218E+04
       157   7 -1.651476E+05  7.462943E+05 -9.910695E+04  2.148798E+04  4.881341E+04 -1.902549E+03
       157   8 -1.713373E+05  7.246358E+05 -1.007121E+05  1.643116E+04  5.148723E+04 -1.066237E+04
       157   9 -1.714659E+05  7.057064E+05 -9.508338E+04  1.604626E+04  5.116863E+04 -1.942506E+04
       157  10  1.713242E+05  2.178698E+06  1.531542E+05  1.532939E+04 -4.676328E-10 -7.227477E-10
       157  11  1.738909E+05  2.196783E+06  1.557238E+05  1.572179E+04 -1.250019E-09 -3.665464E-09
       157  12  1.842334E+05  2.219313E+06  1.724095E+05  2.078542E+04  3.818917E-10 -2.379775E-09
       157  13  3.101017E+03  1.462246E+06  2.703076E+04  1.841048E+04  5.182011E-10  1.070944E-09
       157  14  1.289980E+03  1.460445E+06  2.751282E+04  1.607683E+04 -1.541180E-09 -3.331101E-10
       157  15  6.397956E+03  1.462230E+06  3.867082E+04  1.841467E+04 -1.290677E-09  1.962715E-09
       157  16 -1.651502E+05  7.462937E+05 -9.911144E+04  2.148805E+04  7.306209E-10  6.315049E-10
       157  17 -1.713402E+05  7.246350E+05 -1.007173E+05  1.643160E+04  1.503700E-09  8.115853E-10
       157  18 -1.714688E+05  7.057053E+05 -9.508901E+04  1.604706E+04  1.207436E-09  1.880932E-09
       157  19  1.713268E+05  2.178699E+06  1.531590E+05  1.532986E+04 -4.878849E+04 -1.190436E+04
       157  20  1.738938E+05  2.196784E+06  1.557288E+05  1.572151E+04 -5.147169E+04  6.807371E+03
       157  21  1.842364E+05  2.219314E+06  1.724157E+05  2.078437E+04 -5.116574E+04  2.552289E+04
       157  22  3.103583E+03  1.462247E+06  2.703528E+04  1.841068E+04 -4.880098E+04 -4.997050E+03
       157  23  1.292848E+03  1.460445E+06  2.751794E+04  1.607647E+04 -5.147946E+04  8.735977E+03
       157  24  6.400904E+03  1.462231E+06  3.867669E+04  1.841374E+04 -5.116719E+04  2.247218E+04
       157  25 -1.651476E+05  7.462943E+05 -9.910695E+04  2.148798E+04 -4.881341E+04  1.902549E+03
       157  26 -1.713373E+05  7.246358E+05 -1.007121E+05  1.643116E+04 -5.148723E+04  1.066237E+04
       157  27 -1.714659E+05  7.057064E+05 -9.508338E+04  1.604626E+04 -5.116863E+04  1.942506E+04
       158   1  1.853445E+05  2.239008E+06  1.851238E+05  8.287403E+03  5.122972E+04 -2.957591E+04
       158   2  2.197565E+05  2.243424E+06  2.345471E+05  5.745589E+04  4.140338E+04 -1.038510E+05
       158   3  3.488702E+05  2.281217E+06  3.559047E+05  1.102293E+05  1.237550E+04 -1.781686E+05
       158   4  3.914660E+03  1.467634E+06  4.787476E+04  1.814219E+04  5.123401E+04 -2.899614E+04
       158   5  3.178537E+04  1.453638E+06  8.201784E+04  1.645098E+04  4.136310E+04 -7.135653E+04
       158   6  1.488841E+05  1.467522E+06  1.660146E+05  1.836120E+04  1.229161E+04 -1.137532E+05
       158   7 -1.775476E+05  6.968388E+05 -8.939660E+04  2.798462E+04  5.123831E+04 -2.841705E+04
       158   8 -1.562158E+05  6.644560E+05 -7.053558E+04 -2.450054E+04  4.131851E+04 -3.890235E+04
       158   9 -5.111460E+04  6.544614E+05 -2.390029E+04 -7.338587E+04  1.218868E+04 -4.942135E+04
       158  10  1.853415E+05  2.239006E+06  1.851172E+05  8.288622E+03  2.417342E-10 -3.535791E-09
       158  11  2.197518E+05  2.243412E+06  2.345237E+05  5.745935E+04 -1.514707E-11 -3.573390E-09
       158  12  3.488616E+05  2.281183E+06  3.558450E+05  1.102311E+05  3.709924E-10  1.155582E-09
       158  13  3.911614E+03  1.467632E+06  4.786825E+04  1.814339E+04 -3.057575E-09  1.819244E-09
       158  14  3.178217E+04  1.453633E+06  8.200507E+04  1.645336E+04 -8.048464E-10  2.629858E-10
       158  15  1.488805E+05  1.467508E+06  1.659900E+05  1.836233E+04  4.236327E-10  2.982081E-09
       158  16 -1.775507E+05  6.968372E+05 -8.940305E+04  2.798579E+04 -1.538735E-09  3.244668E-09
       158  17 -1.562180E+05  6.644539E+05 -7.054163E+04 -2.449924E+04  8.900901E-10  3.608198E-10
       158  18 -5.111542E+04  6.544587E+05 -2.390515E+04 -7.338539E+04  1.187581E-09 -1.688573E-09
       158  19  1.853445E+05  2.239008E+06  1.851238E+05  8.287403E+03 -5.122972E+04  2.957591E+04
       158  20  2.197565E+05  2.243424E+06  2.345471E+05  5.745589E+04 -4.140338E+04  1.038510E+05
       158  21  3.488702E+05  2.281217E+06  3.559047E+05  1.102293E+05 -1.237550E+04  1.781686E+05
       158  22  3.914660E+03  1.467634E+06  4.787476E+04  1.814219E+04 -5.123401E+04  2.899614E+04
       158  23  3.178537E+04  1.453638E+06  8.201784E+04  1.645098E+04 -4.136310E+04  7.135653E+04
       158  24  1.488841E+05  1.467522E+06  1.660146E+05  1.836120E+04 -1.229161E+04  1.137532E+05
       158  25 -1.775476E+05  6.968388E+05 -8.939660E+04  2.798462E+04 -5.123831E+04  2.841705E+04
       158  26 -1.562158E+05  6.644560E+05 -7.053558E+04 -2.450054E+04 -4.131851E+04  3.890235E+04
       158  27 -5.111460E+04  6.544614E+05 -2.390029E+04 -7.338587E+04 -1.218868E+04  4.942135E+04
       159   1 -1.363130E+05 -1.225174E+05 -7.368442E+04  9.071258E+03  1.242120E+05  1.533959E+04
       159   2 -4.251916E+04 -2.901557E+05 -1.561949E+05 -1.395470E+04  9.242945E+04  4.655348E+04
       159   3  1.059239E+05 -2.593349E+05 -1.682231E+05 -9.723860E+04  6.068797E+04  4.580465E+04
       159   4  1.118846E+06  1.893052E+05  2.325470E+05 -6.895731E+04  1.595821E+05  1.537779E+04
       159   5  1.089604E+06 -1.184736E+04  1.041637E+05 -3.870220E+04  1.039259E+05  4.655698E+04
       159   6  1.119022E+06 -1.060688E+04  6.272274E+04 -6.869118E+04  4.831923E+04  4.579395E+04
       159   7  2.375457E+06  5.010356E+05  5.386719E+05 -1.471445E+05  1.950233E+05  1.540708E+04
       159   8  2.222913E+06  2.663740E+05  3.644385E+05 -6.349549E+04  1.154430E+05  4.655957E+04
       159   9  2.133073E+06  2.380532E+05  2.936028E+05 -4.009687E+04  3.593044E+04  4.578213E+04
       159  10 -1.363297E+05 -1.225218E+05 -7.371386E+04  9.069723E+03  2.611311E-10  1.813765E-10
       159  11 -4.252892E+04 -2.901603E+05 -1.562150E+05 -1.395816E+04  4.739919E-10  3.610856E-10
       159  12  1.059194E+05 -2.593382E+05 -1.682340E+05 -9.724084E+04 -5.311732E-11  1.183533E-10
       159  13  1.118819E+06  1.892981E+05  2.324987E+05 -6.895929E+04 -5.002613E-10  1.653526E-10
       159  14  1.089591E+06 -1.185258E+04  1.041394E+05 -3.870610E+04  1.063226E-10  4.482673E-10
       159  15  1.119019E+06 -1.060975E+04  6.271442E+04 -6.869296E+04  1.167045E-09  2.953195E-10
       159  16  2.375416E+06  5.010252E+05  5.386002E+05 -1.471469E+05  9.696724E-11  2.161564E-10
       159  17  2.222898E+06  2.663681E+05  3.644094E+05 -6.349981E+04 -4.442687E-10  5.501487E-10
       159  18  2.133071E+06  2.380506E+05  2.935964E+05 -4.009820E+04  4.051412E-11  1.592749E-10
       159  19 -1.363130E+05 -1.225174E+05 -7.368442E+04  9.071258E+03 -1.242120E+05 -1.533959E+04
       159  20 -4.251916E+04 -2.901557E+05 -1.561949E+05 -1.395470E+04 -9.242945E+04 -4.655348E+04
       159  21  1.059239E+05 -2.593349E+05 -1.682231E+05 -9.723860E+04 -6.068797E+04 -4.580465E+04
       159  22  1.118846E+06  1.893052E+05  2.325470E+05 -6.895731E+04 -1.595821E+05 -1.537779E+04
       159  23  1.089604E+06 -1.184736E+04  1.041637E+05 -3.870220E+04 -1.039259E+05 -4.655698E+04
       159  24  1.119022E+06 -1.060688E+04  6.272274E+04 -6.869118E+04 -4.831923E+04 -4.579395E+04
       159  25  2.375457E+06  5.010356E+05  5.386719E+05 -1.471445E+05 -1.950233E+05 -1.540708E+04
       159  26  2.222913E+06  2.663740E+05  3.644385E+05 -6.349549E+04 -1.154430E+05 -4.655957E+04
       159  27  2.133073E+06  2.380532E+05  2.936028E+05 -4.009687E+04 -3.593044E+04 -4.578213E+04
       160   1  2.060000E+05 -2.080278E+05 -1.560448E+05 -6.436614E+04  4.160111E+04  3.865200E+04
       160   2  3.214851E+05 -1.934226E+05 -1.521706E+05 -3.768355E+04  2.923458E+04  3.447241E+04
       160   3  4.426367E+05 -1.640747E+05 -1.364811E+05 -7.095109E+04  1.685989E+04  2.879007E+04
       160   4  1.107315E+06  1.339649E+04  5.040865E+04 -6.869776E+04  3.909146E+04  3.864669E+04
       160   5  1.104426E+06 -1.175288E+03  2.671765E+04 -3.872359E+04  2.558847E+04  3.446880E+04
       160   6  1.107378E+06 -8.180415E+02  1.561748E+04 -6.869425E+04  1.207963E+04  2.878895E+04
       160   7  2.009381E+06  2.347644E+05  2.568088E+05 -7.303577E+04  3.657817E+04  3.864142E+04
       160   8  1.887934E+06  1.910296E+05  2.055659E+05 -3.976496E+04  2.193778E+04  3.446521E+04
       160   9  1.772529E+06  1.624080E+05  1.676872E+05 -6.643494E+04  7.294295E+03  2.878779E+04
       160  10  2.059978E+05 -2.080299E+05 -1.560509E+05 -6.436743E+04 -1.604492E-10  8.916655E-12
       160  11  3.214839E+05 -1.934241E+05 -1.521745E+05 -3.768436E+04  1.548307E-10 -3.810928E-11
       160  12  4.426361E+05 -1.640757E+05 -1.364832E+05 -7.095148E+04 -1.139584E-10  1.183374E-10
       160  13  1.107313E+06  1.339448E+04  5.040298E+04 -6.869898E+04  1.725480E-11 -2.440897E-11
       160  14  1.104425E+06 -1.176740E+03  2.671419E+04 -3.872430E+04  4.605140E-10 -3.906200E-11
       160  15  1.107378E+06 -8.189711E+02  1.561565E+04 -6.869453E+04  8.661788E-10  3.932634E-11
       160  16  2.009379E+06  2.347625E+05  2.568035E+05 -7.303690E+04  4.263621E-10  1.098206E-10
       160  17  1.887933E+06  1.910281E+05  2.055627E+05 -3.976557E+04 -6.976124E-10  5.275291E-11
       160  18  1.772529E+06  1.624071E+05  1.676855E+05 -6.643511E+04 -3.121947E-10 -8.814745E-11
       160  19  2.060000E+05 -2.080278E+05 -1.560448E+05 -6.436614E+04 -4.160111E+04 -3.865200E+04
       160  20  3.214851E+05 -1.934226E+05 -1.521706E+05 -3.768355E+04 -2.923458E+04 -3.447241E+04
       160  21  4.426367E+05 -1.640747E+05 -1.364811E+05 -7.095109E+04 -1.685989E+04 -2.879007E+04
       160  22  1.107315E+06  1.339649E+04  5.040865E+04 -6.869776E+04 -3.909146E+04 -3.864669E+04
       160  23  1.104426E+06 -1.175288E+03  2.671765E+04 -3.872359E+04 -2.558847E+04 -3.446880E+04
       160  24  1.107378E+06 -8.180415E+02  1.561748E+04 -6.869425E+04 -1.207963E+04 -2.878895E+04
       160  25  2.009381E+06  2.347644E+05  2.568088E+05 -7.303577E+04 -3.657817E+04 -3.864142E+04
       160  26  1.887934E+06  1.910296E+05  2.055659E+05 -3.976496E+04 -2.193778E+04 -3.446521E+04
       160  27  1.772529E+06  1.624080E+05  1.676872E+05 -6.643494E+04 -7.294295E+03 -2.878779E+04
       161   1  5.511305E+05 -1.353427E+05 -1.144035E+05 -6.836549E+04  1.393120E+04  2.517739E+04
       161   2  6.675583E+05 -1.077317E+05 -9.325866E+04 -3.887112E+04  1.057590E+04  1.938007E+04
       161   3  7.847605E+05 -7.897809E+04 -6.963737E+04 -6.860237E+04  7.216086E+03  1.352774E+04
       161   4  1.106283E+06  8.812379E+02  1.206137E+04 -6.853451E+04  9.640048E+03  2.517729E+04
       161   5  1.105913E+06 -1.270984E+02  6.833655E+03 -3.892325E+04  6.240661E+03  1.938128E+04
       161   6  1.106313E+06  1.533258E+01  4.112071E+03 -6.853501E+04  2.837390E+03  1.353033E+04
       161   7  1.661721E+06  1.370839E+05  1.385062E+05 -6.870365E+04  5.345089E+03  2.517720E+04
       161   8  1.544446E+06  1.074642E+05  1.069135E+05 -3.897538E+04  1.902393E+03  1.938249E+04
       161   9  1.427961E+06  7.900157E+04  7.785478E+04 -6.846759E+04 -1.543554E+03  1.353292E+04
       161  10  5.511301E+05 -1.353434E+05 -1.144050E+05 -6.836578E+04 -9.338321E-11  2.098002E-10
       161  11  6.675581E+05 -1.077321E+05 -9.325958E+04 -3.887129E+04 -6.269301E-10  4.324435E-11
       161  12  7.847603E+05 -7.897830E+04 -6.963781E+04 -6.860245E+04  8.198312E-11 -3.314098E-10
       161  13  1.106283E+06  8.805319E+02  1.206000E+04 -6.853471E+04 -2.494453E-11  2.181432E-11
       161  14  1.105913E+06 -1.275125E+02  6.832876E+03 -3.892334E+04  5.923182E-10 -4.707446E-11
       161  15  1.106313E+06  1.513373E+01  4.111712E+03 -6.853504E+04  1.178029E-10 -1.607210E-10
       161  16  1.661721E+06  1.370832E+05  1.385050E+05 -6.870376E+04  2.038854E-10 -2.086443E-10
       161  17  1.544446E+06  1.074638E+05  1.069128E+05 -3.897541E+04  2.526466E-10 -1.103707E-10
       161  18  1.427961E+06  7.900138E+04  7.785443E+04 -6.846757E+04  3.600096E-10 -1.075555E-10
       161  19  5.511305E+05 -1.353427E+05 -1.144035E+05 -6.836549E+04 -1.393120E+04 -2.517739E+04
       161  20  6.675583E+05 -1.077317E+05 -9.325866E+04 -3.887112E+04 -1.057590E+04 -1.938007E+04
       161  21  7.847605E+05 -7.897809E+04 -6.963737E+04 -6.860237E+04 -7.216086E+03 -1.352774E+04
       161  22  1.106283E+06  8.812379E+02  1.206137E+04 -6.853451E+04 -9.640048E+03 -2.517729E+04
       161  23  1.105913E+06 -1.270984E+02  6.833655E+03 -3.892325E+04 -6.240661E+03 -1.938128E+04
       161  24  1.106313E+06  1.533258E+01  4.112071E+03 -6.853501E+04 -2.837390E+03 -1.353033E+04
       161  25  1.661721E+06  1.370839E+05  1.385062E+05 -6.870365E+04 -5.345089E+03 -2.517720E+04
       161  26  1.544446E+06  1.074642E+05  1.069135E+05 -3.897538E+04 -1.902393E+03 -1.938249E+04
       161  27  1.427961E+06  7.900157E+04  7.785478E+04 -6.846759E+04  1.543554E+03 -1.353292E+04
       162   1  8.932136E+05 -5.207781E+04 -4.501982E+04 -6.841162E+04  6.518598E+03  1.011504E+04
       162   2  1.009339E+06 -2.372539E+04 -1.986934E+04 -3.899456E+04  5.412904E+03  4.277078E+03
       162   3  1.125565E+06  4.784510E+03  6.016582E+03 -6.847307E+04  4.306124E+03 -1.560188E+03
       162   4  1.106175E+06  1.234271E+02  3.259774E+03 -6.846197E+04  2.169798E+03  1.011813E+04
       162   5  1.106135E+06  3.056564E+01  2.227557E+03 -3.901449E+04  1.063914E+03  4.280427E+03
       162   6  1.106182E+06  9.556196E+01  1.930782E+03 -6.846202E+04 -4.285238E+01 -1.556522E+03
       162   7  1.319179E+06  5.232155E+04  5.153652E+04 -6.851232E+04 -2.180478E+03  1.012121E+04
       162   8  1.202940E+06  2.378588E+04  2.432391E+04 -3.903442E+04 -3.285747E+03  4.283777E+03
       162   9  1.086799E+06 -4.593400E+03 -2.154968E+03 -6.845096E+04 -4.391695E+03 -1.552855E+03
       162  10  8.932136E+05 -5.207793E+04 -4.502009E+04 -6.841167E+04 -5.716655E-10 -4.090981E-10
       162  11  1.009339E+06 -2.372542E+04 -1.986943E+04 -3.899458E+04 -5.397821E-10 -2.160476E-10
       162  12  1.125565E+06  4.784502E+03  6.016543E+03 -6.847307E+04 -8.507930E-10  1.069113E-10
       162  13  1.106175E+06  1.233159E+02  3.259573E+03 -6.846198E+04  6.666070E-11 -2.349443E-10
       162  14  1.106135E+06  3.054565E+01  2.227520E+03 -3.901449E+04  5.973115E-10  2.657288E-10
       162  15  1.106182E+06  9.555936E+01  1.930777E+03 -6.846202E+04 -1.380917E-09  4.792546E-10
       162  16  1.319179E+06  5.232144E+04  5.153631E+04 -6.851230E+04  7.858493E-10  7.298073E-11
       162  17  1.202940E+06  2.378586E+04  2.432385E+04 -3.903441E+04  7.033399E-10  3.801153E-10
       162  18  1.086799E+06 -4.593408E+03 -2.155009E+03 -6.845097E+04 -5.506424E-10  2.538475E-10
       162  19  8.932136E+05 -5.207781E+04 -4.501982E+04 -6.841162E+04 -6.518598E+03 -1.011504E+04
       162  20  1.009339E+06 -2.372539E+04 -1.986934E+04 -3.899456E+04 -5.412904E+03 -4.277078E+03
       162  21  1.125565E+06  4.784510E+03  6.016582E+03 -6.847307E+04 -4.306124E+03  1.560188E+03
       162  22  1.106175E+06  1.234271E+02  3.259774E+03 -6.846197E+04 -2.169798E+03 -1.011813E+04
       162  23  1.106135E+06  3.056564E+01  2.227557E+03 -3.901449E+04 -1.063914E+03 -4.280427E+03
       162  24  1.106182E+06  9.556196E+01  1.930782E+03 -6.846202E+04  4.285238E+01  1.556522E+03
       162  25  1.319179E+06  5.232155E+04  5.153652E+04 -6.851232E+04  2.180478E+03 -1.012121E+04
       162  26  1.202940E+06  2.378588E+04  2.432391E+04 -3.903442E+04  3.285747E+03 -4.283777E+03
       162  27  1.086799E+06 -4.593400E+03 -2.154968E+03 -6.845096E+04  4.391695E+03  1.552855E+03
       163   1  1.233975E+06  3.151845E+04  3.151164E+04 -6.854097E+04  3.948040E+03 -4.957683E+03
       163   2  1.350276E+06  5.992059E+04  5.835895E+04 -3.905284E+04  2.645896E+03 -1.079986E+04
       163   3  1.466743E+06  8.849770E+04  8.608026E+04 -6.855034E+04  1.345698E+03 -1.664879E+04
       163   4  1.106193E+06  9.483184E+01  2.007896E+03 -6.848247E+04 -4.035247E+02 -4.954157E+03
       163   5  1.106108E+06  8.864439E+00  2.631524E+03 -3.898891E+04 -1.710629E+03 -1.079710E+04
       163   6  1.106177E+06  9.966973E+01  4.133469E+03 -6.848242E+04 -3.015548E+03 -1.664673E+04
       163   7  9.784270E+05 -3.132991E+04 -2.749686E+04 -6.842398E+04 -4.754202E+03 -4.950631E+03
       163   8  8.619948E+05 -5.990697E+04 -5.309973E+04 -3.892501E+04 -6.065459E+03 -1.079433E+04
       163   9  7.457315E+05 -8.830731E+04 -7.782168E+04 -6.841452E+04 -7.374289E+03 -1.664467E+04
       163  10  1.233974E+06  3.151841E+04  3.151156E+04 -6.854096E+04 -3.405155E-10  3.134159E-10
       163  11  1.350275E+06  5.992046E+04  5.835872E+04 -3.905281E+04 -3.712769E-10  6.295871E-11
       163  12  1.466743E+06  8.849740E+04  8.607974E+04 -6.855032E+04 -8.715595E-10  5.319925E-10
       163  13  1.106193E+06  9.480543E+01  2.007849E+03 -6.848248E+04 -1.194100E-09  3.504064E-10
       163  14  1.106108E+06  8.738405E+00  2.631299E+03 -3.898893E+04 -1.046427E-09 -1.727477E-10
       163  15  1.106177E+06  9.936956E+01  4.132931E+03 -6.848246E+04 -1.003779E-09  4.165724E-10
       163  16  9.784269E+05 -3.132995E+04 -2.749695E+04 -6.842400E+04 -6.406845E-10 -1.346547E-10
       163  17  8.619947E+05 -5.990711E+04 -5.310001E+04 -3.892506E+04 -1.112015E-10 -4.629234E-10
       163  18  7.457313E+05 -8.830763E+04 -7.782230E+04 -6.841462E+04  6.343805E-10 -9.001066E-11
       163  19  1.233975E+06  3.151845E+04  3.151164E+04 -6.854097E+04 -3.948040E+03  4.957683E+03
       163  20  1.350276E+06  5.992059E+04  5.835895E+04 -3.905284E+04 -2.645896E+03  1.079986E+04
       163  21  1.466743E+06  8.849770E+04  8.608026E+04 -6.855034E+04 -1.345698E+03  1.664879E+04
       163  22  1.106193E+06  9.483184E+01  2.007896E+03 -6.848247E+04  4.035247E+02  4.954157E+03
       163  23  1.106108E+06  8.864439E+00  2.631524E+03 -3.898891E+04  1.710629E+03  1.079710E+04
       163  24  1.106177E+06  9.966973E+01  4.133469E+03 -6.848242E+04  3.015548E+03  1.664673E+04
       163  25  9.784270E+05 -3.132991E+04 -2.749686E+04 -6.842398E+04  4.754202E+03  4.950631E+03
       163  26  8.619948E+05 -5.990697E+04 -5.309973E+04 -3.892501E+04  6.065459E+03  1.079433E+04
       163  27  7.457315E+05 -8.830731E+04 -7.782168E+04 -6.841452E+04  7.374289E+03  1.664467E+04
       164   1  1.575933E+06  1.152265E+05  1.127983E+05 -6.846576E+04  5.299441E+02 -2.007200E+04
       164   2  1.692808E+06  1.437910E+05  1.429161E+05 -3.880807E+04 -3.978137E+03 -2.594478E+04
       164   3  1.810806E+06  1.738518E+05  1.763667E+05 -6.865825E+04 -8.481720E+03 -3.176088E+04
       164   4  1.106367E+06 -4.244655E+01  5.307242E+03 -6.859902E+04 -3.868757E+03 -2.007073E+04
       164   5  1.105793E+06 -2.163036E+02  8.963481E+03 -3.884319E+04 -8.331114E+03 -2.594533E+04
       164   6  1.106326E+06  1.100538E+03  1.592430E+04 -6.859867E+04 -1.278814E+04 -3.176318E+04
       164   7  6.370043E+05 -1.153266E+05 -1.021982E+05 -6.873214E+04 -8.264165E+03 -2.006945E+04
       164   8  5.190977E+05 -1.442475E+05 -1.250116E+05 -3.887825E+04 -1.268002E+04 -2.594588E+04
       164   9  4.023051E+05 -1.716850E+05 -1.445503E+05 -6.853914E+04 -1.708972E+04 -3.176547E+04
       164  10  1.575932E+06  1.152260E+05  1.127975E+05 -6.846576E+04  3.345350E-10  2.773955E-10
       164  11  1.692807E+06  1.437903E+05  1.429148E+05 -3.880815E+04  2.092008E-10 -3.392295E-10
       164  12  1.810806E+06  1.738507E+05  1.763646E+05 -6.865847E+04 -1.005349E-09 -5.969453E-10
       164  13  1.106366E+06 -4.288337E+01  5.306456E+03 -6.859908E+04  6.048724E-10  6.865902E-11
       164  14  1.105793E+06 -2.170454E+02  8.962085E+03 -3.884336E+04 -1.475006E-10 -5.027963E-10
       164  15  1.106326E+06  1.099410E+03  1.592210E+04 -6.859900E+04  4.778518E-10 -5.430154E-10
       164  16  6.370041E+05 -1.153271E+05 -1.021991E+05 -6.873227E+04 -9.843786E-11  2.443727E-10
       164  17  5.190974E+05 -1.442482E+05 -1.250132E+05 -3.887851E+04 -9.967131E-10 -3.221181E-10
       164  18  4.023046E+05 -1.716861E+05 -1.445527E+05 -6.853957E+04  2.193418E-10 -6.139101E-10
       164  19  1.575933E+06  1.152265E+05  1.127983E+05 -6.846576E+04 -5.299441E+02  2.007200E+04
       164  20  1.692808E+06  1.437910E+05  1.429161E+05 -3.880807E+04  3.978137E+03  2.594478E+04
       164  21  1.810806E+06  1.738518E+05  1.763667E+05 -6.865825E+04  8.481720E+03  3.176088E+04
       164  22  1.106367E+06 -4.244655E+01  5.307242E+03 -6.859902E+04  3.868757E+03  2.007073E+04
       164  23  1.105793E+06 -2.163036E+02  8.963481E+03 -3.884319E+04  8.331114E+03  2.594533E+04
       164  24  1.106326E+06  1.100538E+03  1.592430E+04 -6.859867E+04  1.278814E+04  3.176318E+04
       164  25  6.370043E+05 -1.153266E+05 -1.021982E+05 -6.873214E+04  8.264165E+03  2.006945E+04
       164  26  5.190977E+05 -1.442475E+05 -1.250116E+05 -3.887825E+04  1.268002E+04  2.594588E+04
       164  27  4.023051E+05 -1.716850E+05 -1.445503E+05 -6.853914E+04  1.708972E+04  3.176547E+04
       165   1  1.922670E+06  1.987937E+05  2.068602E+05 -6.558955E+04 -1.115284E+04 -3.541484E+04
       165   2  2.038018E+06  2.275499E+05  2.485691E+05 -3.971707E+04 -3.029758E+04 -4.111370E+04
       165   3  2.161392E+06  2.762442E+05  3.078133E+05 -7.424152E+04 -4.944002E+04 -4.513887E+04
       165   4  1.107775E+06 -1.149433E+03  2.064285E+04 -6.879330E+04 -1.600943E+04 -3.541864E+04
       165   5  1.103834E+06 -1.594589E+03  3.535295E+04 -3.859865E+04 -3.388185E+04 -4.111999E+04
       165   6  1.107697E+06  1.769607E+04  6.673582E+04 -6.880567E+04 -5.174833E+04 -4.514672E+04
       165   7  2.934934E+05 -2.011385E+05 -1.656178E+05 -7.199280E+04 -2.085969E+04 -3.542239E+04
       165   8  1.704570E+05 -2.307995E+05 -1.779201E+05 -3.748200E+04 -3.746075E+04 -4.112630E+04
       165   9  5.502824E+04 -2.409290E+05 -1.744144E+05 -6.337927E+04 -5.405271E+04 -4.515462E+04
       165  10  1.922670E+06  1.987923E+05  2.068576E+05 -6.558987E+04 -1.258007E-09 -4.178056E-10
       165  11  2.038017E+06  2.275479E+05  2.485642E+05 -3.971807E+04  1.313681E-10  1.001584E-10
       165  12  2.161388E+06  2.762414E+05  3.078048E+05 -7.424331E+04 -8.045728E-10 -1.515073E-10
       165  13  1.107775E+06 -1.150849E+03  2.064001E+04 -6.879375E+04 -6.545073E-10 -4.828296E-10
       165  14  1.103833E+06 -1.596714E+03  3.534761E+04 -3.859977E+04 -2.999144E-09  8.644735E-11
       165  15  1.107694E+06  1.769316E+04  6.672696E+04 -6.880755E+04  4.648899E-11 -3.548717E-10
       165  16  2.934926E+05 -2.011400E+05 -1.656210E+05 -7.199340E+04  4.168499E-10 -3.505259E-10
       165  17  1.704550E+05 -2.308017E+05 -1.779259E+05 -3.748324E+04 -2.214249E-10 -3.369951E-10
       165  18  5.502455E+04 -2.409320E+05 -1.744237E+05 -6.338123E+04 -6.804744E-10 -3.510353E-10
       165  19  1.922670E+06  1.987937E+05  2.068602E+05 -6.558955E+04  1.115284E+04  3.541484E+04
       165  20  2.038018E+06  2.275499E+05  2.485691E+05 -3.971707E+04  3.029758E+04  4.111370E+04
       165  21  2.161392E+06  2.762442E+05  3.078133E+05 -7.424152E+04  4.944002E+04  4.513887E+04
       165  22  1.107775E+06 -1.149433E+03  2.064285E+04 -6.879330E+04  1.600943E+04  3.541864E+04
       165  23  1.103834E+06 -1.594589E+03  3.535295E+04 -3.859865E+04  3.388185E+04  4.111999E+04
       165  24  1.107697E+06  1.769607E+04  6.673582E+04 -6.880567E+04  5.174833E+04  4.514672E+04
       165  25  2.934934E+05 -2.011385E+05 -1.656178E+05 -7.199280E+04  2.085969E+04  3.542239E+04
       165  26  1.704570E+05 -2.307995E+05 -1.779201E+05 -3.748200E+04  3.746075E+04  4.112630E+04
       165  27  5.502824E+04 -2.409290E+05 -1.744144E+05 -6.337927E+04  5.405271E+04  4.515462E+04
       166   1  2.289896E+06  2.720328E+05  3.486367E+05 -3.058261E+04 -5.061010E+04 -5.274963E+04
       166   2  2.371455E+06  3.002212E+05  4.334822E+05 -7.104922E+04 -1.509997E+05 -5.303435E+04
       166   3  2.535167E+06  6.007061E+05  6.518231E+05 -1.724760E+05 -2.514918E+05 -1.761854E+04
       166   4  1.123189E+06 -1.408427E+04  8.304132E+04 -6.878388E+04 -6.396267E+04 -5.276888E+04
       166   5  1.084249E+06 -1.569040E+04  1.379309E+05 -3.856140E+04 -1.375889E+05 -5.302742E+04
       166   6  1.122973E+06  2.506499E+05  3.079343E+05 -6.928718E+04 -2.112934E+05 -1.757528E+04
       166   7 -4.225546E+04 -3.002899E+05 -1.826412E+05 -1.069132E+05 -7.729034E+04 -5.278652E+04
       166   8 -2.014256E+05 -3.317131E+05 -1.577283E+05 -6.141859E+03 -1.242053E+05 -5.301909E+04
       166   9 -2.873818E+05 -9.951147E+04 -3.608717E+04  3.366626E+04 -1.711854E+05 -1.751869E+04
       166  10  2.289893E+06  2.720291E+05  3.486267E+05 -3.058476E+04 -5.645448E-10  3.419853E-10
       166  11  2.371430E+06  3.002121E+05  4.334342E+05 -7.105566E+04  1.096405E-09  2.636866E-10
       166  12  2.535100E+06  6.006889E+05  6.517042E+05 -1.724795E+05 -4.955219E-10 -1.814667E-10
       166  13  1.123184E+06 -1.408836E+04  8.302841E+04 -6.878659E+04 -5.469473E-10 -2.493422E-10
       166  14  1.084228E+06 -1.569849E+04  1.378901E+05 -3.856727E+04 -8.380672E-10 -1.635978E-10
       166  15  1.122925E+06  2.506376E+05  3.078500E+05 -6.929017E+04  5.091838E-10  1.159210E-10
       166  16 -4.226262E+04 -3.002945E+05 -1.826576E+05 -1.069165E+05 -2.959764E-10 -3.060391E-10
       166  17 -2.014429E+05 -3.317203E+05 -1.577626E+05 -6.147164E+03 -5.174751E-10  6.857609E-10
       166  18 -2.874133E+05 -9.951967E+04 -3.614284E+04  3.366384E+04 -1.026264E-09  4.612633E-11
       166  19  2.289896E+06  2.720328E+05  3.486367E+05 -3.058261E+04  5.061010E+04  5.274963E+04
       166  20  2.371455E+06  3.002212E+05  4.334822E+05 -7.104922E+04  1.509997E+05  5.303435E+04
       166  21  2.535167E+06  6.007061E+05  6.518231E+05 -1.724760E+05  2.514918E+05  1.761854E+04
       166  22  1.123189E+06 -1.408427E+04  8.304132E+04 -6.878388E+04  6.396267E+04  5.276888E+04
       166  23  1.084249E+06 -1.569040E+04  1.379309E+05 -3.856140E+04  1.375889E+05  5.302742E+04
       166  24  1.122973E+06  2.506499E+05  3.079343E+05 -6.928718E+04  2.112934E+05  1.757528E+04
       166  25 -4.225546E+04 -3.002899E+05 -1.826412E+05 -1.069132E+05  7.729034E+04  5.278652E+04
       166  26 -2.014256E+05 -3.317131E+05 -1.577283E+05 -6.141859E+03  1.242053E+05  5.301909E+04
       166  27 -2.873818E+05 -9.951147E+04 -3.608717E+04  3.366626E+04  1.711854E+05  1.751869E+04
       167   1  1.276485E+05  6.077375E+05  1.386267E+05 -9.525140E+04  2.608246E+03  5.121725E+04
       167   2  3.861104E+04  4.761003E+05  6.955657E+04 -4.875058E+04  6.475402E+03  2.868461E+04
       167   3  8.985818E+03  3.619685E+05  2.994204E+04 -6.415558E+04  1.823379E+03  6.139241E+03
       167   4  5.460461E+04  3.148096E+05  6.672643E+04 -7.199597E+04  2.622270E+03  4.519004E+04
       167   5 -3.145834E+03  3.066189E+05  3.036332E+04 -4.110081E+04  6.475207E+03  2.900680E+04
       167   6 -2.574565E+03  3.148288E+05  1.905950E+04 -7.210945E+04  1.809045E+03  1.280638E+04
       167   7 -1.844360E+04  2.196093E+04 -5.179681E+03 -4.875148E+04  2.635846E+03  3.916567E+04
       167   8 -4.490452E+04  1.371641E+05 -8.831824E+03 -3.345314E+04  6.475020E+03  2.932890E+04
       167   9 -1.413484E+04  2.676913E+05  8.177022E+03 -8.006271E+04  1.794539E+03  1.947301E+04
       167  10  1.276477E+05  6.077347E+05  1.386217E+05 -9.525151E+04  1.606768E-10  5.954943E-10
       167  11  3.861078E+04  4.760994E+05  6.955495E+04 -4.875073E+04  3.656281E-10 -3.338962E-10
       167  12  8.985804E+03  3.619684E+05  2.994196E+04 -6.415559E+04 -2.185416E-10 -1.254497E-09
       167  13  5.460405E+04  3.148074E+05  6.672258E+04 -7.199607E+04  8.377784E-10 -6.693448E-11
       167  14 -3.146104E+03  3.066180E+05  3.036166E+04 -4.110097E+04  7.770782E-10  7.967318E-11
       167  15 -2.574613E+03  3.148286E+05  1.905919E+04 -7.210947E+04  3.446904E-10  6.834863E-11
       167  16 -1.844401E+04  2.195928E+04 -5.182577E+03 -4.875157E+04  1.106836E-09 -5.725551E-10
       167  17 -4.490479E+04  1.371631E+05 -8.833518E+03 -3.345329E+04  1.991517E-09  4.055352E-10
       167  18 -1.413494E+04  2.676909E+05  8.176303E+03 -8.006274E+04  1.682164E-10  1.304610E-09
       167  19  1.276485E+05  6.077375E+05  1.386267E+05 -9.525140E+04 -2.608246E+03 -5.121725E+04
       167  20  3.861104E+04  4.761003E+05  6.955657E+04 -4.875058E+04 -6.475402E+03 -2.868461E+04
       167  21  8.985818E+03  3.619685E+05  2.994204E+04 -6.415558E+04 -1.823379E+03 -6.139241E+03
       167  22  5.460461E+04  3.148096E+05  6.672643E+04 -7.199597E+04 -2.622270E+03 -4.519004E+04
       167  23 -3.145834E+03  3.066189E+05  3.036332E+04 -4.110081E+04 -6.475207E+03 -2.900680E+04
       167  24 -2.574565E+03  3.148288E+05  1.905950E+04 -7.210945E+04 -1.809045E+03 -1.280638E+04
       167  25 -1.844360E+04  2.196093E+04 -5.179681E+03 -4.875148E+04 -2.635846E+03 -3.916567E+04
       167  26 -4.490452E+04  1.371641E+05 -8.831824E+03 -3.345314E+04 -6.475020E+03 -2.932890E+04
       167  27 -1.413484E+04  2.676913E+05  8.177022E+03 -8.006271E+04 -1.794539E+03 -1.947301E+04
       168   1 -1.252403E+04  2.438601E+05  3.539246E+02 -7.362059E+04 -2.843355E+03  5.628997E+03
       168   2 -4.706462E+04  1.200771E+05 -3.330845E+04 -4.094960E+04 -8.387226E+03  7.626587E+02
       168   3 -7.560778E+04 -1.842183E+03 -6.237035E+04 -7.053754E+04 -1.348488E+04 -4.100218E+03
       168   4  4.124856E+03  3.116059E+05  1.591221E+04 -7.215178E+04 -2.852510E+03  9.929585E+03
       168   5 -2.460783E+02  3.106462E+05  1.026073E+04 -4.102583E+04 -8.395117E+03  4.730221E+03
       168   6  1.438479E+03  3.115940E+05  9.441552E+03 -7.215733E+04 -1.349160E+04 -4.666167E+02
       168   7  2.077345E+04  3.793559E+05  3.147027E+04 -7.068281E+04 -2.861644E+03  1.423064E+04
       168   8  4.656995E+04  5.012490E+05  5.382758E+04 -4.110206E+04 -8.403008E+03  8.698990E+03
       168   9  7.847791E+04  6.251212E+05  8.124704E+04 -7.377789E+04 -1.349833E+04  3.168804E+03
       168  10 -1.252405E+04  2.438600E+05  3.538499E+02 -7.362058E+04 -1.608337E-09  3.864509E-10
       168  11 -4.706470E+04  1.200771E+05 -3.330859E+04 -4.094959E+04 -9.801908E-10  1.935485E-10
       168  12 -7.560798E+04 -1.842250E+03 -6.237072E+04 -7.053758E+04 -2.769375E-10 -3.388627E-11
       168  13  4.124821E+03  3.116058E+05  1.591201E+04 -7.215176E+04 -1.111204E-10 -3.130377E-11
       168  14 -2.461600E+02  3.106462E+05  1.026055E+04 -4.102579E+04  5.530807E-10  8.624825E-11
       168  15  1.438283E+03  3.115939E+05  9.441210E+03 -7.215733E+04 -1.152096E-09  5.766777E-11
       168  16  2.077338E+04  3.793557E+05  3.146987E+04 -7.068278E+04 -1.059928E-09 -3.227580E-10
       168  17  4.656986E+04  5.012489E+05  5.382731E+04 -4.110200E+04 -5.853480E-10 -4.481899E-11
       168  18  7.847771E+04  6.251211E+05  8.124668E+04 -7.377786E+04  8.700777E-11  4.881775E-11
       168  19 -1.252403E+04  2.438601E+05  3.539246E+02 -7.362059E+04  2.843355E+03 -5.628997E+03
       168  20 -4.706462E+04  1.200771E+05 -3.330845E+04 -4.094960E+04  8.387226E+03 -7.626587E+02
       168  21 -7.560778E+04 -1.842183E+03 -6.237035E+04 -7.053754E+04  1.348488E+04  4.100218E+03
       168  22  4.124856E+03  3.116059E+05  1.591221E+04 -7.215178E+04  2.852510E+03 -9.929585E+03
       168  23 -2.460783E+02  3.106462E+05  1.026073E+04 -4.102583E+04  8.395117E+03 -4.730221E+03
       168  24  1.438479E+03  3.115940E+05  9.441552E+03 -7.215733E+04  1.349160E+04  4.666167E+02
       168  25  2.077345E+04  3.793559E+05  3.147027E+04 -7.068281E+04  2.861644E+03 -1.423064E+04
       168  26  4.656995E+04  5.012490E+05  5.382758E+04 -4.110206E+04  8.403008E+03 -8.698990E+03
       168  27  7.847791E+04  6.251212E+05  8.124704E+04 -7.377789E+04  1.349833E+04 -3.168804E+03
       169   1 -1.058193E+05 -1.160161E+05 -8.818729E+04 -7.435731E+04 -1.915612E+04 -1.109256E+04
       169   2 -1.366520E+05 -2.411829E+05 -1.146150E+05 -3.778345E+04 -2.234243E+04 -4.259425E+03
       169   3 -1.482524E+05 -3.624947E+05 -1.407028E+05 -6.295885E+04 -7.643348E+03  2.598718E+03
       169   4 -5.661072E+02  3.125153E+05  9.643977E+03 -7.205175E+04 -1.917230E+04 -2.081455E+03
       169   5 -1.154640E+03  3.094237E+05  1.221118E+04 -4.116372E+04 -2.233398E+04 -8.554728E+03
       169   6  1.978997E+04  3.124762E+05  2.435427E+04 -7.202055E+04 -7.617429E+03 -1.500152E+04
       169   7  1.046745E+05  7.412171E+05  1.074636E+05 -6.974450E+04 -1.918842E+04  6.935817E+03
       169   8  1.343215E+05  8.603109E+05  1.390173E+05 -4.454688E+04 -2.232548E+04 -1.285381E+04
       169   9  1.877992E+05  9.878632E+05  1.893793E+05 -8.109195E+04 -7.591010E+03 -3.262085E+04
       169  10 -1.058198E+05 -1.160163E+05 -8.818821E+04 -7.435748E+04 -2.057898E-10  4.683335E-10
       169  11 -1.366525E+05 -2.411831E+05 -1.146159E+05 -3.778353E+04  6.097948E-10  2.444616E-10
       169  12 -1.482525E+05 -3.624947E+05 -1.407029E+05 -6.295884E+04 -3.389887E-11 -2.939737E-10
       169  13 -5.665031E+02  3.125152E+05  9.643278E+03 -7.205178E+04  1.616763E-10  6.225670E-12
       169  14 -1.155195E+03  3.094235E+05  1.221010E+04 -4.116387E+04  7.904363E-10  5.842237E-13
       169  15  1.978985E+04  3.124760E+05  2.435373E+04 -7.202064E+04  5.734596E-11 -2.189281E-11
       169  16  1.046741E+05  7.412170E+05  1.074628E+05 -6.974439E+04 -6.388997E-10 -3.279268E-10
       169  17  1.343209E+05  8.603106E+05  1.390160E+05 -4.454711E+04  4.946135E-10 -2.327390E-10
       169  18  1.877988E+05  9.878621E+05  1.893772E+05 -8.109215E+04  5.425268E-10  2.129313E-10
       169  19 -1.058193E+05 -1.160161E+05 -8.818729E+04 -7.435731E+04  1.915612E+04  1.109256E+04
       169  20 -1.366520E+05 -2.411829E+05 -1.146150E+05 -3.778345E+04  2.234243E+04  4.259425E+03
       169  21 -1.482524E+05 -3.624947E+05 -1.407028E+05 -6.295885E+04  7.643348E+03 -2.598718E+03
       169  22 -5.661072E+02  3.125153E+05  9.643977E+03 -7.205175E+04  1.917230E+04  2.081455E+03
       169  23 -1.154640E+03  3.094237E+05  1.221118E+04 -4.116372E+04  2.233398E+04  8.554728E+03
       169  24  1.978997E+04  3.124762E+05  2.435427E+04 -7.202055E+04  7.617429E+03  1.500152E+04
       169  25  1.046745E+05  7.412171E+05  1.074636E+05 -6.974450E+04  1.918842E+04 -6.935817E+03
       169  26  1.343215E+05  8.603109E+05  1.390173E+05 -4.454688E+04  2.232548E+04  1.285381E+04
       169  27  1.877992E+05  9.878632E+05  1.893793E+05 -8.109195E+04  7.591010E+03  3.262085E+04
       170   1 -1.688378E+06 -6.534102E+05 -4.278778E+05 -6.015513E+05 -1.823635E+05 -5.902218E+04
       170   2 -1.630975E+06 -3.892716E+05 -2.607453E+05 -5.997336E+05 -1.185088E+05 -1.467585E+04
       170   3 -1.643970E+06 -3.521068E+05 -2.035048E+05 -5.643509E+05 -4.795690E+04  1.192843E+04
       170   4 -1.092745E+06 -3.534854E+05 -2.527172E+05 -3.621338E+05 -1.639563E+05 -5.211132E+04
       170   5 -1.045209E+06 -1.459320E+05 -1.077185E+05 -4.147994E+05 -1.123858E+05 -1.237715E+04
       170   6 -1.065555E+06 -1.628039E+05 -6.278453E+04 -4.339251E+05 -5.412381E+04  9.607897E+03
       170   7 -4.967567E+05 -5.345015E+04 -7.759032E+04 -1.224821E+05 -1.455298E+05 -4.518756E+04
       170   8 -4.591048E+05  9.745199E+04  4.527909E+04 -2.296991E+05 -1.062564E+05 -1.007547E+04
       170   9 -4.868092E+05  2.650344E+04  7.791193E+04 -3.033971E+05 -6.029703E+04  7.285679E+03
       170  10 -1.688415E+06 -6.534230E+05 -4.279470E+05 -6.015600E+05 -2.640194E-10  9.877016E-11
       170  11 -1.630990E+06 -3.892756E+05 -2.607721E+05 -5.997350E+05  2.772406E-10  1.560725E-10
       170  12 -1.643973E+06 -3.521076E+05 -2.035094E+05 -5.643505E+05  1.679576E-09 -2.952443E-11
       170  13 -1.092775E+06 -3.534955E+05 -2.527729E+05 -3.621407E+05  5.510341E-10 -5.895368E-11
       170  14 -1.045222E+06 -1.459355E+05 -1.077426E+05 -4.148006E+05  2.317286E-09 -2.706223E-10
       170  15 -1.065558E+06 -1.628048E+05 -6.279021E+04 -4.339247E+05  6.029472E-10 -4.949840E-10
       170  16 -4.967800E+05 -5.345804E+04 -7.763400E+04 -1.224874E+05  3.088308E-10 -2.244868E-10
       170  17 -4.591169E+05  9.744885E+04  4.525767E+04 -2.297000E+05  6.086930E-10 -6.804984E-10
       170  18 -4.868132E+05  2.650241E+04  7.790499E+04 -3.033967E+05 -1.846726E-09 -9.923133E-10
       170  19 -1.688378E+06 -6.534102E+05 -4.278778E+05 -6.015513E+05  1.823635E+05  5.902218E+04
       170  20 -1.630975E+06 -3.892716E+05 -2.607453E+05 -5.997336E+05  1.185088E+05  1.467585E+04
       170  21 -1.643970E+06 -3.521068E+05 -2.035048E+05 -5.643509E+05  4.795690E+04 -1.192843E+04
       170  22 -1.092745E+06 -3.534854E+05 -2.527172E+05 -3.621338E+05  1.639563E+05  5.211132E+04
       170  23 -1.045209E+06 -1.459320E+05 -1.077185E+05 -4.147994E+05  1.123858E+05  1.237715E+04
       170  24 -1.065555E+06 -1.628039E+05 -6.278453E+04 -4.339251E+05  5.412381E+04 -9.607897E+03
       170  25 -4.967567E+05 -5.345015E+04 -7.759032E+04 -1.224821E+05  1.455298E+05  4.518756E+04
       170  26 -4.591048E+05  9.745199E+04  4.527909E+04 -2.296991E+05  1.062564E+05  1.007547E+04
       170  27 -4.868092E+05  2.650344E+04  7.791193E+04 -3.033971E+05  6.029703E+04 -7.285679E+03
       171   1 -1.566296E+06 -3.810848E+05 -1.802310E+05 -5.654048E+05 -4.371119E+04  9.460334E+03
       171   2 -1.526160E+06 -3.356280E+05 -1.428030E+05 -5.435407E+05 -2.960849E+04  1.311713E+04
       171   3 -1.475315E+06 -3.254012E+05 -1.199659E+05 -5.389974E+05 -1.515316E+04  1.583431E+04
       171   4 -1.057244E+06 -1.854142E+05 -5.036222E+04 -4.208720E+05 -4.440886E+04  9.195923E+03
       171   5 -1.061598E+06 -1.604152E+05 -2.522744E+04 -4.150072E+05 -3.094884E+04  1.261186E+04
       171   6 -1.055112E+06 -1.705098E+05 -1.416404E+04 -4.264645E+05 -1.713733E+04  1.508796E+04
       171   7 -5.479396E+05  1.027619E+04  7.948488E+04 -2.762308E+05 -4.510714E+04  8.931268E+03
       171   8 -5.968244E+05  1.481256E+04  9.233075E+04 -2.863860E+05 -3.229028E+04  1.210618E+04
       171   9 -6.347334E+05 -1.560757E+04  9.162425E+04 -3.138626E+05 -1.912297E+04  1.434108E+04
       171  10 -1.566298E+06 -3.810854E+05 -1.802348E+05 -5.654045E+05  7.879380E-09  2.560777E-09
       171  11 -1.526161E+06 -3.356284E+05 -1.428049E+05 -5.435404E+05  1.981050E-09  1.871664E-09
       171  12 -1.475316E+06 -3.254015E+05 -1.199668E+05 -5.389972E+05 -5.815188E-09 -1.680968E-09
       171  13 -1.057246E+06 -1.854149E+05 -5.036609E+04 -4.208717E+05  1.055874E-09  2.978195E-10
       171  14 -1.061599E+06 -1.604157E+05 -2.522954E+04 -4.150068E+05  1.444618E-09  1.558351E-09
       171  15 -1.055112E+06 -1.705101E+05 -1.416502E+04 -4.264643E+05  4.991063E-10  9.041888E-10
       171  16 -5.479418E+05  1.027556E+04  7.948090E+04 -2.762305E+05 -5.608204E-09 -2.080731E-09
       171  17 -5.968256E+05  1.481213E+04  9.232852E+04 -2.863857E+05  2.193307E-09  1.703793E-09
       171  18 -6.347339E+05 -1.560789E+04  9.162317E+04 -3.138624E+05  7.053004E-09  3.736502E-09
       171  19 -1.566296E+06 -3.810848E+05 -1.802310E+05 -5.654048E+05  4.371119E+04 -9.460334E+03
       171  20 -1.526160E+06 -3.356280E+05 -1.428030E+05 -5.435407E+05  2.960849E+04 -1.311713E+04
       171  21 -1.475315E+06 -3.254012E+05 -1.199659E+05 -5.389974E+05  1.515316E+04 -1.583431E+04
       171  22 -1.057244E+06 -1.854142E+05 -5.036222E+04 -4.208720E+05  4.440886E+04 -9.195923E+03
       171  23 -1.061598E+06 -1.604152E+05 -2.522744E+04 -4.150072E+05  3.094884E+04 -1.261186E+04
       171  24 -1.055112E+06 -1.705098E+05 -1.416404E+04 -4.264645E+05  1.713733E+04 -1.508796E+04
       171  25 -5.479396E+05  1.027619E+04  7.948488E+04 -2.762308E+05  4.510714E+04 -8.931268E+03
       171  26 -5.968244E+05  1.481256E+04  9.233075E+04 -2.863860E+05  3.229028E+04 -1.210618E+04
       171  27 -6.347334E+05 -1.560757E+04  9.162425E+04 -3.138626E+05  1.912297E+04 -1.434108E+04
       172   1 -1.425451E+06 -3.113587E+05 -1.044911E+05 -5.272554E+05 -1.282583E+04  1.490322E+04
       172   2 -1.386300E+06 -2.823626E+05 -8.737776E+04 -5.032611E+05 -8.916361E+03  1.352356E+04
       172   3 -1.328918E+06 -2.737362E+05 -7.281421E+04 -5.008130E+05 -4.983502E+03  1.207772E+04
       172   4 -1.054176E+06 -1.723096E+05 -1.087732E+04 -4.254922E+05 -1.454131E+04  1.425817E+04
       172   5 -1.063208E+06 -1.615538E+05 -5.828724E+03 -4.149329E+05 -1.067599E+04  1.286246E+04
       172   6 -1.054002E+06 -1.711575E+05 -3.293460E+03 -4.259198E+05 -6.787554E+03  1.140051E+04
       172   7 -6.827655E+05 -3.325136E+04  8.272547E+04 -3.236738E+05 -1.625791E+04  1.361270E+04
       172   8 -7.400149E+05 -4.073845E+04  7.571180E+04 -3.265633E+05 -1.243663E+04  1.220099E+04
       172   9 -7.790142E+05 -6.857450E+04  6.622093E+04 -3.509968E+05 -8.592474E+03  1.072297E+04
       172  10 -1.425451E+06 -3.113590E+05 -1.044918E+05 -5.272552E+05 -9.074050E-10 -5.849775E-10
       172  11 -1.386300E+06 -2.823628E+05 -8.737826E+04 -5.032610E+05 -2.670767E-10 -5.124362E-10
       172  12 -1.328918E+06 -2.737364E+05 -7.281453E+04 -5.008129E+05 -4.254868E-10 -1.552358E-10
       172  13 -1.054176E+06 -1.723099E+05 -1.087810E+04 -4.254921E+05 -5.492861E-10  6.752943E-11
       172  14 -1.063209E+06 -1.615540E+05 -5.829249E+03 -4.149328E+05  1.272167E-10 -5.550677E-10
       172  15 -1.054002E+06 -1.711577E+05 -3.293791E+03 -4.259197E+05 -2.874241E-10 -1.784061E-10
       172  16 -6.827658E+05 -3.325163E+04  8.272462E+04 -3.236737E+05  9.640769E-10  5.814641E-10
       172  17 -7.400151E+05 -4.073865E+04  7.571123E+04 -3.265632E+05  1.024102E-09 -4.650179E-10
       172  18 -7.790143E+05 -6.857464E+04  6.622058E+04 -3.509967E+05  7.508948E-10 -1.239347E-10
       172  19 -1.425451E+06 -3.113587E+05 -1.044911E+05 -5.272554E+05  1.282583E+04 -1.490322E+04
       172  20 -1.386300E+06 -2.823626E+05 -8.737776E+04 -5.032611E+05  8.916361E+03 -1.352356E+04
       172  21 -1.328918E+06 -2.737362E+05 -7.281421E+04 -5.008130E+05  4.983502E+03 -1.207772E+04
       172  22 -1.054176E+06 -1.723096E+05 -1.087732E+04 -4.254922E+05  1.454131E+04 -1.425817E+04
       172  23 -1.063208E+06 -1.615538E+05 -5.828724E+03 -4.149329E+05  1.067599E+04 -1.286246E+04
       172  24 -1.054002E+06 -1.711575E+05 -3.293460E+03 -4.259198E+05  6.787554E+03 -1.140051E+04
       172  25 -6.827655E+05 -3.325136E+04  8.272547E+04 -3.236738E+05  1.625791E+04 -1.361270E+04
       172  26 -7.400149E+05 -4.073845E+04  7.571180E+04 -3.265633E+05  1.243663E+04 -1.220099E+04
       172  27 -7.790142E+05 -6.857450E+04  6.622093E+04 -3.509968E+05  8.592474E+03 -1.072297E+04
       173   1 -1.280517E+06 -2.560179E+05 -5.957221E+04 -4.878373E+05 -3.943629E+03  1.074599E+04
       173   2 -1.240974E+06 -2.279061E+05 -4.635888E+04 -4.633374E+05 -2.184298E+03  8.449521E+03
       173   3 -1.182222E+06 -2.192418E+05 -3.375584E+04 -4.609823E+05 -4.211067E+02  6.140426E+03
       173   4 -1.053836E+06 -1.713425E+05 -2.547387E+03 -4.259048E+05 -5.741929E+03  1.007121E+04
       173   5 -1.063430E+06 -1.615727E+05 -1.560604E+03 -4.148485E+05 -3.991082E+03  7.771847E+03
       173   6 -1.053817E+06 -1.712488E+05 -1.177422E+03 -4.259376E+05 -2.236448E+03  5.459848E+03
       173   7 -8.271036E+05 -8.666345E+04  5.447363E+04 -3.639516E+05 -7.540955E+03  9.396159E+03
       173   8 -8.858548E+05 -9.523709E+04  4.323527E+04 -3.663468E+05 -5.798435E+03  7.093959E+03
       173   9 -9.253964E+05 -1.232547E+05  3.139969E+04 -3.908863E+05 -4.052202E+03  4.779116E+03
       173  10 -1.280517E+06 -2.560181E+05 -5.957246E+04 -4.878373E+05  2.991664E-10 -1.559829E-11
       173  11 -1.240974E+06 -2.279062E+05 -4.635902E+04 -4.633374E+05  2.603983E-10 -2.796461E-10
       173  12 -1.182222E+06 -2.192419E+05 -3.375591E+04 -4.609823E+05 -4.232460E-10  2.552159E-11
       173  13 -1.053836E+06 -1.713427E+05 -2.547639E+03 -4.259048E+05 -4.687437E-11 -1.864170E-10
       173  14 -1.063430E+06 -1.615728E+05 -1.560748E+03 -4.148484E+05  6.350170E-10 -3.428440E-11
       173  15 -1.053818E+06 -1.712488E+05 -1.177487E+03 -4.259376E+05 -1.053580E-09 -1.426751E-10
       173  16 -8.271037E+05 -8.666356E+04  5.447336E+04 -3.639516E+05 -4.475901E-10 -1.076949E-10
       173  17 -8.858548E+05 -9.523715E+04  4.323512E+04 -3.663468E+05 -9.562006E-10  6.989402E-11
       173  18 -9.253965E+05 -1.232547E+05  3.139962E+04 -3.908863E+05  4.085784E-10  1.514959E-10
       173  19 -1.280517E+06 -2.560179E+05 -5.957221E+04 -4.878373E+05  3.943629E+03 -1.074599E+04
       173  20 -1.240974E+06 -2.279061E+05 -4.635888E+04 -4.633374E+05  2.184298E+03 -8.449521E+03
       173  21 -1.182222E+06 -2.192418E+05 -3.375584E+04 -4.609823E+05  4.211067E+02 -6.140426E+03
       173  22 -1.053836E+06 -1.713425E+05 -2.547387E+03 -4.259048E+05  5.741929E+03 -1.007121E+04
       173  23 -1.063430E+06 -1.615727E+05 -1.560604E+03 -4.148485E+05  3.991082E+03 -7.771847E+03
       173  24 -1.053817E+06 -1.712488E+05 -1.177422E+03 -4.259376E+05  2.236448E+03 -5.459848E+03
       173  25 -8.271036E+05 -8.666345E+04  5.447363E+04 -3.639516E+05  7.540955E+03 -9.396159E+03
       173  26 -8.858548E+05 -9.523709E+04  4.323527E+04 -3.663468E+05  5.798435E+03 -7.093959E+03
       173  27 -9.253964E+05 -1.232547E+05  3.139969E+04 -3.908863E+05  4.052202E+03 -4.779116E+03
       174   1 -1.133539E+06 -2.010575E+05 -2.109484E+04 -4.477780E+05  3.454251E+02  4.692908E+03
       174   2 -1.093721E+06 -1.728554E+05 -9.042239E+03 -4.230947E+05  2.025832E+03  2.340046E+03
       174   3 -1.034579E+06 -1.642097E+05  2.463085E+03 -4.207130E+05  3.706191E+03 -1.304061E+01
       174   4 -1.053790E+06 -1.712788E+05 -1.151360E+03 -4.259693E+05 -1.473535E+03  4.011091E+03
       174   5 -1.063454E+06 -1.615280E+05 -1.402481E+03 -4.148077E+05  2.066959E+02  1.658211E+03
       174   6 -1.053797E+06 -1.713336E+05 -2.200632E+03 -4.259486E+05  1.886819E+03 -6.949089E+02
       174   7 -9.740357E+05 -1.414999E+05  1.879154E+04 -4.041581E+05 -3.292743E+03  3.329181E+03
       174   8 -1.033187E+06 -1.502005E+05  6.237217E+03 -4.065202E+05 -1.612537E+03  9.763401E+02
       174   9 -1.073015E+06 -1.784575E+05 -6.864383E+03 -4.311840E+05  6.750165E+01 -1.376757E+03
       174  10 -1.133539E+06 -2.010575E+05 -2.109488E+04 -4.477780E+05 -6.131467E-10  3.200303E-10
       174  11 -1.093721E+06 -1.728554E+05 -9.042257E+03 -4.230947E+05 -3.408096E-10  1.451723E-10
       174  12 -1.034579E+06 -1.642097E+05  2.463059E+03 -4.207130E+05 -5.176647E-10  1.415826E-10
       174  13 -1.053790E+06 -1.712788E+05 -1.151394E+03 -4.259693E+05  2.220997E-11  1.642629E-10
       174  14 -1.063454E+06 -1.615280E+05 -1.402486E+03 -4.148077E+05  6.650743E-10  3.029046E-10
       174  15 -1.053797E+06 -1.713336E+05 -2.200639E+03 -4.259485E+05  3.326549E-10  3.530620E-11
       174  16 -9.740357E+05 -1.414999E+05  1.879150E+04 -4.041580E+05  5.842446E-10  1.439664E-10
       174  17 -1.033187E+06 -1.502005E+05  6.237211E+03 -4.065202E+05  5.855536E-10  2.841773E-10
       174  18 -1.073015E+06 -1.784575E+05 -6.864386E+03 -4.311840E+05  4.869686E-10  7.335681E-11
       174  19 -1.133539E+06 -2.010575E+05 -2.109484E+04 -4.477780E+05 -3.454251E+02 -4.692908E+03
       174  20 -1.093721E+06 -1.728554E+05 -9.042239E+03 -4.230947E+05 -2.025832E+03 -2.340046E+03
       174  21 -1.034579E+06 -1.642097E+05  2.463085E+03 -4.207130E+05 -3.706191E+03  1.304061E+01
       174  22 -1.053790E+06 -1.712788E+05 -1.151360E+03 -4.259693E+05  1.473535E+03 -4.011091E+03
       174  23 -1.063454E+06 -1.615280E+05 -1.402481E+03 -4.148077E+05 -2.066959E+02 -1.658211E+03
       174  24 -1.053797E+06 -1.713336E+05 -2.200632E+03 -4.259486E+05 -1.886819E+03  6.949089E+02
       174  25 -9.740357E+05 -1.414999E+05  1.879154E+04 -4.041581E+05  3.292743E+03 -3.329181E+03
       174  26 -1.033187E+06 -1.502005E+05  6.237217E+03 -4.065202E+05  1.612537E+03 -9.763401E+02
       174  27 -1.073015E+06 -1.784575E+05 -6.864383E+03 -4.311840E+05 -6.750165E+01  1.376757E+03
       175   1 -9.858206E+05 -1.459564E+05  1.449680E+04 -4.076353E+05  4.700177E+03 -1.382459E+03
       175   2 -9.460064E+05 -1.176340E+05  2.464395E+04 -3.827931E+05  8.134963E+03 -3.068961E+03
       175   3 -8.875213E+05 -1.098410E+05  3.266459E+04 -3.800011E+05  1.155551E+04 -4.715386E+03
       175   4 -1.053899E+06 -1.712252E+05 -2.823448E+03 -4.260154E+05  2.872022E+03 -2.067668E+03
       175   5 -1.063300E+06 -1.614350E+05 -4.944447E+03 -4.148119E+05  6.334048E+03 -3.744164E+03
       175   6 -1.054038E+06 -1.721803E+05 -9.213741E+03 -4.256598E+05  9.781609E+03 -5.380649E+03
       175   7 -1.121972E+06 -1.964937E+05 -2.014405E+04 -4.443936E+05  1.044087E+03 -2.752796E+03
       175   8 -1.180580E+06 -2.052351E+05 -3.453386E+04 -4.468251E+05  4.533508E+03 -4.419226E+03
       175   9 -1.220528E+06 -2.345174E+05 -5.109407E+04 -4.713071E+05  8.008238E+03 -6.045714E+03
       175  10 -9.858206E+05 -1.459565E+05  1.449675E+04 -4.076353E+05 -2.484415E-10 -1.169777E-10
       175  11 -9.460065E+05 -1.176340E+05  2.464381E+04 -3.827931E+05 -2.603340E-12 -2.292409E-10
       175  12 -8.875214E+05 -1.098411E+05  3.266430E+04 -3.800010E+05  1.429505E-11  4.467565E-11
       175  13 -1.053899E+06 -1.712252E+05 -2.823472E+03 -4.260154E+05  2.994698E-10 -1.300301E-10
       175  14 -1.063300E+06 -1.614350E+05 -4.944549E+03 -4.148119E+05  2.740046E-11 -2.710954E-10
       175  15 -1.054039E+06 -1.721803E+05 -9.213976E+03 -4.256597E+05  1.074434E-10 -5.643958E-12
       175  16 -1.121972E+06 -1.964937E+05 -2.014407E+04 -4.443936E+05  3.450491E-10 -1.868971E-10
       175  17 -1.180580E+06 -2.052351E+05 -3.453394E+04 -4.468251E+05  9.506453E-11 -1.721833E-10
       175  18 -1.220528E+06 -2.345175E+05 -5.109426E+04 -4.713071E+05 -1.050750E-10  9.983348E-11
       175  19 -9.858206E+05 -1.459564E+05  1.449680E+04 -4.076353E+05 -4.700177E+03  1.382459E+03
       175  20 -9.460064E+05 -1.176340E+05  2.464395E+04 -3.827931E+05 -8.134963E+03  3.068961E+03
       175  21 -8.875213E+05 -1.098410E+05  3.266459E+04 -3.800011E+05 -1.155551E+04  4.715386E+03
       175  22 -1.053899E+06 -1.712252E+05 -2.823448E+03 -4.260154E+05 -2.872022E+03  2.067668E+03
       175  23 -1.063300E+06 -1.614350E+05 -4.944447E+03 -4.148119E+05 -6.334048E+03  3.744164E+03
       175  24 -1.054038E+06 -1.721803E+05 -9.213741E+03 -4.256598E+05 -9.781609E+03  5.380649E+03
       175  25 -1.121972E+06 -1.964937E+05 -2.014405E+04 -4.443936E+05 -1.044087E+03  2.752796E+03
       175  26 -1.180580E+06 -2.052351E+05 -3.453386E+04 -4.468251E+05 -4.533508E+03  4.419226E+03
       175  27 -1.220528E+06 -2.345174E+05 -5.109407E+04 -4.713071E+05 -8.008238E+03  6.045714E+03
       176   1 -8.383180E+05 -9.177770E+04  4.241465E+04 -3.694505E+05  1.404294E+04 -5.596418E+03
       176   2 -7.990291E+05 -6.103907E+04  4.522298E+04 -3.418199E+05  2.545099E+04 -4.162431E+03
       176   3 -7.470962E+05 -6.338157E+04  3.647076E+04 -3.328801E+05  3.661181E+04 -2.063285E+03
       176   4 -1.054797E+06 -1.706964E+05 -1.199397E+04 -4.265254E+05  1.207430E+04 -6.334871E+03
       176   5 -1.061967E+06 -1.604088E+05 -2.133966E+04 -4.148190E+05  2.394007E+04 -4.729738E+03
       176   6 -1.056590E+06 -1.832990E+05 -4.261338E+04 -4.218054E+05  3.555770E+04 -2.459749E+03
       176   7 -1.271230E+06 -2.496129E+05 -6.640653E+04 -4.835828E+05  1.010640E+04 -7.073061E+03
       176   8 -1.324838E+06 -2.597739E+05 -8.790801E+04 -4.877901E+05  2.242985E+04 -5.296778E+03
       176   9 -1.365990E+06 -3.032083E+05 -1.217054E+05 -5.106899E+05  3.450416E+04 -2.855981E+03
       176  10 -8.383182E+05 -9.177778E+04  4.241422E+04 -3.694504E+05 -5.014462E-10  2.471613E-10
       176  11 -7.990299E+05 -6.103926E+04  4.522173E+04 -3.418198E+05  1.748237E-10 -1.290334E-10
       176  12 -7.470977E+05 -6.338194E+04  3.646823E+04 -3.328800E+05 -2.263633E-10 -1.177221E-10
       176  13 -1.054797E+06 -1.706965E+05 -1.199432E+04 -4.265254E+05 -5.376005E-10  5.646878E-11
       176  14 -1.061968E+06 -1.604090E+05 -2.134078E+04 -4.148189E+05 -4.609067E-10 -5.364347E-11
       176  15 -1.056592E+06 -1.832993E+05 -4.261577E+04 -4.218054E+05  1.236810E-10 -1.078715E-10
       176  16 -1.271230E+06 -2.496130E+05 -6.640681E+04 -4.835827E+05 -3.453312E-10 -1.285088E-10
       176  17 -1.324838E+06 -2.597741E+05 -8.790901E+04 -4.877900E+05 -2.539424E-10 -6.854010E-11
       176  18 -1.365992E+06 -3.032086E+05 -1.217076E+05 -5.106898E+05 -3.673154E-10  2.060036E-10
       176  19 -8.383180E+05 -9.177770E+04  4.241465E+04 -3.694505E+05 -1.404294E+04  5.596418E+03
       176  20 -7.990291E+05 -6.103907E+04  4.522298E+04 -3.418199E+05 -2.545099E+04  4.162431E+03
       176  21 -7.470962E+05 -6.338157E+04  3.647076E+04 -3.328801E+05 -3.661181E+04  2.063285E+03
       176  22 -1.054797E+06 -1.706964E+05 -1.199397E+04 -4.265254E+05 -1.207430E+04  6.334871E+03
       176  23 -1.061967E+06 -1.604088E+05 -2.133966E+04 -4.148190E+05 -2.394007E+04  4.729738E+03
       176  24 -1.056590E+06 -1.832990E+05 -4.261338E+04 -4.218054E+05 -3.555770E+04  2.459749E+03
       176  25 -1.271230E+06 -2.496129E+05 -6.640653E+04 -4.835828E+05 -1.010640E+04  7.073061E+03
       176  26 -1.324838E+06 -2.597739E+05 -8.790801E+04 -4.877901E+05 -2.242985E+04  5.296778E+03
       176  27 -1.365990E+06 -3.032083E+05 -1.217054E+05 -5.106899E+05 -3.450416E+04  2.855981E+03
       177   1 -6.864987E+05 -4.632755E+04  3.758635E+04 -3.535604E+05  4.873401E+04 -9.483273E+02
       177   2 -6.553596E+05  1.888212E+04  1.215312E+04 -2.865287E+05  8.957175E+04  1.350408E+04
       177   3 -6.762309E+05 -1.077712E+05 -9.097768E+04 -1.955005E+05  1.256609E+05  4.060679E+04
       177   4 -1.063597E+06 -1.641971E+05 -5.312470E+04 -4.328840E+05  4.377671E+04 -2.808088E+03
       177   5 -1.048143E+06 -1.480840E+05 -9.112891E+04 -4.145781E+05  9.338556E+04  1.493223E+04
       177   6 -1.086491E+06 -3.256541E+05 -2.138281E+05 -3.722662E+05  1.382424E+05  4.531914E+04
       177   7 -1.440554E+06 -2.820663E+05 -1.438452E+05 -5.121683E+05  3.882272E+04 -4.667070E+03
       177   8 -1.440773E+06 -3.150270E+05 -1.944240E+05 -5.425493E+05  9.719672E+04  1.635908E+04
       177   9 -1.496579E+06 -5.434709E+05 -3.366943E+05 -5.489103E+05  1.508149E+05  5.002485E+04
       177  10 -6.865013E+05 -4.632819E+04  3.758188E+04 -3.535603E+05  1.894692E-10  4.163102E-11
       177  11 -6.553683E+05  1.887977E+04  1.213769E+04 -2.865296E+05 -2.917442E-10  9.046177E-11
       177  12 -6.762483E+05 -1.077772E+05 -9.101049E+04 -1.955046E+05 -4.299685E-10  1.461770E-10
       177  13 -1.063599E+06 -1.641977E+05 -5.312833E+04 -4.328839E+05  2.967961E-10 -5.310345E-11
       177  14 -1.048152E+06 -1.480866E+05 -9.114575E+04 -4.145792E+05 -2.753416E-10 -5.878989E-11
       177  15 -1.086512E+06 -3.256614E+05 -2.138680E+05 -3.722712E+05  9.546944E-11  2.846373E-12
       177  16 -1.440556E+06 -2.820667E+05 -1.438481E+05 -5.121682E+05 -1.591419E-10 -1.827330E-11
       177  17 -1.440784E+06 -3.150299E+05 -1.944423E+05 -5.425506E+05  3.740639E-10 -1.890171E-10
       177  18 -1.496604E+06 -5.434797E+05 -3.367418E+05 -5.489164E+05 -1.468737E-10 -8.171624E-11
       177  19 -6.864987E+05 -4.632755E+04  3.758635E+04 -3.535604E+05 -4.873401E+04  9.483273E+02
       177  20 -6.553596E+05  1.888212E+04  1.215312E+04 -2.865287E+05 -8.957175E+04 -1.350408E+04
       177  21 -6.762309E+05 -1.077712E+05 -9.097768E+04 -1.955005E+05 -1.256609E+05 -4.060679E+04
       177  22 -1.063597E+06 -1.641971E+05 -5.312470E+04 -4.328840E+05 -4.377671E+04  2.808088E+03
       177  23 -1.048143E+06 -1.480840E+05 -9.112891E+04 -4.145781E+05 -9.338556E+04 -1.493223E+04
       177  24 -1.086491E+06 -3.256541E+05 -2.138281E+05 -3.722662E+05 -1.382424E+05 -4.531914E+04
       177  25 -1.440554E+06 -2.820663E+05 -1.438452E+05 -5.121683E+05 -3.882272E+04  4.667070E+03
       177  26 -1.440773E+06 -3.150270E+05 -1.944240E+05 -5.425493E+05 -9.719672E+04 -1.635908E+04
       177  27 -1.496579E+06 -5.434709E+05 -3.366943E+05 -5.489103E+05 -1.508149E+05 -5.002485E+04
       178   1 -1.176736E+06 -2.673753E+05 -2.282712E+05 -2.363326E+04  6.964036E+04  1.996203E+04
       178   2 -1.058738E+06 -3.750189E+05 -2.667551E+05 -2.775868E+04  5.995976E+04  6.127658E+04
       178   3 -9.024460E+05 -3.404581E+05 -2.631129E+05 -9.989793E+04  5.036499E+04  6.128115E+04
       178   4  4.504744E+05  1.373695E+05  1.690568E+05 -7.880273E+04  1.159038E+05  2.005202E+04
       178   5  4.287805E+05 -8.979479E+03  7.562222E+04 -4.467139E+04  7.544973E+04  6.128904E+04
       178   6  4.506106E+05 -7.968526E+03  4.559840E+04 -7.853917E+04  3.508632E+04  6.125902E+04
       178   7  2.080112E+06  5.419319E+05  5.662017E+05 -1.341185E+05  1.622881E+05  2.013369E+04
       178   8  1.918349E+06  3.569065E+05  4.178540E+05 -6.162574E+04  9.097639E+04  6.130065E+04
       178   9  1.805367E+06  3.243959E+05  3.541913E+05 -5.713368E+04  1.977454E+04  6.123585E+04
       178  10 -1.176741E+06 -2.673771E+05 -2.282810E+05 -2.363438E+04  8.005850E-10  3.372711E-10
       178  11 -1.058743E+06 -3.750239E+05 -2.667689E+05 -2.776164E+04  5.296314E-10 -4.820193E-10
       178  12 -9.024497E+05 -3.404629E+05 -2.631247E+05 -9.990042E+04 -1.106749E-09 -1.396624E-11
       178  13  4.504598E+05  1.373655E+05  1.690308E+05 -7.880460E+04  4.973052E-10 -7.083707E-10
       178  14  4.287734E+05 -8.985040E+03  7.560447E+04 -4.467512E+04 -2.328447E-10 -2.922011E-10
       178  15  4.506082E+05 -7.972887E+03  4.558903E+04 -7.854090E+04  3.235525E-10 -5.828867E-11
       178  16  2.080084E+06  5.419244E+05  5.661516E+05 -1.341211E+05 -8.038565E-10  7.139534E-10
       178  17  1.918339E+06  3.569003E+05  4.178315E+05 -6.163023E+04  1.227656E-10 -5.233127E-10
       178  18  1.805366E+06  3.243918E+05  3.541836E+05 -5.713466E+04  6.179513E-10 -3.505337E-10
       178  19 -1.176736E+06 -2.673753E+05 -2.282712E+05 -2.363326E+04 -6.964036E+04 -1.996203E+04
       178  20 -1.058738E+06 -3.750189E+05 -2.667551E+05 -2.775868E+04 -5.995976E+04 -6.127658E+04
       178  21 -9.024460E+05 -3.404581E+05 -2.631129E+05 -9.989793E+04 -5.036499E+04 -6.128115E+04
       178  22  4.504744E+05  1.373695E+05  1.690568E+05 -7.880273E+04 -1.159038E+05 -2.005202E+04
       178  23  4.287805E+05 -8.979479E+03  7.562222E+04 -4.467139E+04 -7.544973E+04 -6.128904E+04
       178  24  4.506106E+05 -7.968526E+03  4.559840E+04 -7.853917E+04 -3.508632E+04 -6.125902E+04
       178  25  2.080112E+06  5.419319E+05  5.662017E+05 -1.341185E+05 -1.622881E+05 -2.013369E+04
       178  26  1.918349E+06  3.569065E+05  4.178540E+05 -6.162574E+04 -9.097639E+04 -6.130065E+04
       178  27  1.805367E+06  3.243959E+05  3.541913E+05 -5.713368E+04 -1.977454E+04 -6.123585E+04
       179   1 -7.835417E+05 -2.918679E+05 -2.443807E+05 -7.601022E+04  3.096510E+04  5.257220E+04
       179   2 -6.503885E+05 -2.689499E+05 -2.299288E+05 -4.382437E+04  2.265671E+04  4.805801E+04
       179   3 -5.127912E+05 -2.353833E+05 -2.072490E+05 -8.028354E+04  1.433708E+04  4.157801E+04
       179   4  4.420505E+05  9.508921E+03  3.663175E+04 -7.875343E+04  2.838183E+04  5.256315E+04
       179   5  4.397554E+05 -1.023485E+03  1.937438E+04 -4.443298E+04  1.859456E+04  4.805119E+04
       179   6  4.421338E+05 -6.611271E+02  1.135952E+04 -7.874963E+04  8.797809E+03  4.157497E+04
       179   7  1.669034E+06  3.107812E+05  3.175454E+05 -8.150224E+04  2.579345E+04  5.255414E+04
       179   8  1.531001E+06  2.668203E+05  2.685998E+05 -4.504269E+04  1.452530E+04  4.804437E+04
       179   9  1.397904E+06  2.339977E+05  2.299083E+05 -7.721323E+04  3.250079E+03  4.157191E+04
       179  10 -7.835434E+05 -2.918711E+05 -2.443877E+05 -7.601154E+04 -4.574680E-11 -8.151473E-11
       179  11 -6.503896E+05 -2.689525E+05 -2.299341E+05 -4.382525E+04  3.401906E-10 -4.326608E-10
       179  12 -5.127919E+05 -2.353852E+05 -2.072526E+05 -8.028402E+04 -8.438600E-10 -6.768238E-11
       179  13  4.420489E+05  9.505737E+03  3.662505E+04 -7.875463E+04 -7.044425E-11 -3.921868E-10
       179  14  4.397544E+05 -1.026058E+03  1.936939E+04 -4.443370E+04  1.197559E-09  1.731558E-10
       179  15  4.421332E+05 -6.630044E+02  1.135612E+04 -7.874992E+04 -3.929409E-10 -1.647172E-10
       179  16  1.669033E+06  3.107780E+05  3.175389E+05 -8.150333E+04  8.101517E-10  3.216703E-10
       179  17  1.531000E+06  2.668178E+05  2.685950E+05 -4.504325E+04  7.000895E-11 -5.726754E-11
       179  18  1.397903E+06  2.339958E+05  2.299050E+05 -7.721334E+04  7.740721E-10 -6.185996E-11
       179  19 -7.835417E+05 -2.918679E+05 -2.443807E+05 -7.601022E+04 -3.096510E+04 -5.257220E+04
       179  20 -6.503885E+05 -2.689499E+05 -2.299288E+05 -4.382437E+04 -2.265671E+04 -4.805801E+04
       179  21 -5.127912E+05 -2.353833E+05 -2.072490E+05 -8.028354E+04 -1.433708E+04 -4.157801E+04
       179  22  4.420505E+05  9.508921E+03  3.663175E+04 -7.875343E+04 -2.838183E+04 -5.256315E+04
       179  23  4.397554E+05 -1.023485E+03  1.937438E+04 -4.443298E+04 -1.859456E+04 -4.805119E+04
       179  24  4.421338E+05 -6.611271E+02  1.135952E+04 -7.874963E+04 -8.797809E+03 -4.157497E+04
       179  25  1.669034E+06  3.107812E+05  3.175454E+05 -8.150224E+04 -2.579345E+04 -5.255414E+04
       179  26  1.531001E+06  2.668203E+05  2.685998E+05 -4.504269E+04 -1.452530E+04 -4.804437E+04
       179  27  1.397904E+06  2.339977E+05  2.299083E+05 -7.721323E+04 -3.250079E+03 -4.157191E+04
       180   1 -3.876775E+05 -2.030505E+05 -1.803678E+05 -7.838020E+04  1.194437E+04  3.739903E+04
       180   2 -2.535151E+05 -1.707629E+05 -1.537752E+05 -4.426684E+04  9.549364E+03  3.073386E+04
       180   3 -1.186529E+05 -1.375848E+05 -1.253679E+05 -7.840342E+04  7.146624E+03  2.398553E+04
       180   4  4.413035E+05  5.730098E+02  8.760384E+03 -7.866325E+04  7.023973E+03  3.739780E+04
       180   5  4.409824E+05 -1.289173E+02  4.946086E+03 -4.454082E+04  4.563642E+03  3.073503E+04
       180   6  4.413545E+05  7.135001E+01  2.990597E+03 -7.866365E+04  2.096092E+03  2.398922E+04
       180   7  1.270922E+06  2.041489E+05  1.978438E+05 -7.894657E+04  2.097050E+03  3.739658E+04
       180   8  1.135927E+06  1.704716E+05  1.636359E+05 -4.481502E+04 -4.276137E+02  3.073622E+04
       180   9  1.001652E+06  1.377056E+05  1.313285E+05 -7.892403E+04 -2.958959E+03  2.399292E+04
       180  10 -3.876780E+05 -2.030521E+05 -1.803707E+05 -7.838056E+04 -4.486035E-10  3.360687E-12
       180  11 -2.535154E+05 -1.707639E+05 -1.537771E+05 -4.426708E+04  6.201628E-10  1.307998E-10
       180  12 -1.186531E+05 -1.375854E+05 -1.253691E+05 -7.840356E+04  1.329649E-10 -6.045794E-10
       180  13  4.413031E+05  5.714944E+02  8.757662E+03 -7.866346E+04  1.106657E-09  9.110548E-11
       180  14  4.409821E+05 -1.299375E+02  4.944271E+03 -4.454094E+04  5.005600E-10  5.826467E-10
       180  15  4.413544E+05  7.073073E+01  2.989507E+03 -7.866369E+04 -1.773060E-10  7.057334E-10
       180  16  1.270921E+06  2.041474E+05  1.978411E+05 -7.894664E+04  9.803155E-11  1.119868E-10
       180  17  1.135927E+06  1.704706E+05  1.636341E+05 -4.481501E+04 -1.227187E-09  6.139563E-11
       180  18  1.001652E+06  1.377050E+05  1.313274E+05 -7.892397E+04 -2.716874E-10 -3.288552E-10
       180  19 -3.876775E+05 -2.030505E+05 -1.803678E+05 -7.838020E+04 -1.194437E+04 -3.739903E+04
       180  20 -2.535151E+05 -1.707629E+05 -1.537752E+05 -4.426684E+04 -9.549364E+03 -3.073386E+04
       180  21 -1.186529E+05 -1.375848E+05 -1.253679E+05 -7.840342E+04 -7.146624E+03 -2.398553E+04
       180  22  4.413035E+05  5.730098E+02  8.760384E+03 -7.866325E+04 -7.023973E+03 -3.739780E+04
       180  23  4.409824E+05 -1.289173E+02  4.946086E+03 -4.454082E+04 -4.563642E+03 -3.073503E+04
       180  24  4.413545E+05  7.135001E+01  2.990597E+03 -7.866365E+04 -2.096092E+03 -2.398922E+04
       180  25  1.270922E+06  2.041489E+05  1.978438E+05 -7.894657E+04 -2.097050E+03 -3.739658E+04
       180  26  1.135927E+06  1.704716E+05  1.636359E+05 -4.481502E+04  4.276137E+02 -3.073622E+04
       180  27  1.001652E+06  1.377056E+05  1.313285E+05 -7.892403E+04  2.958959E+03 -2.399292E+04
       181   1  6.540472E+03 -1.065585E+05 -9.657641E+04 -7.829910E+04  6.625141E+03  2.004378E+04
       181   2  1.405824E+05 -7.378113E+04 -6.709297E+04 -4.436781E+04  5.827335E+03  1.330217E+04
       181   3  2.746492E+05 -4.079791E+04 -3.707378E+04 -7.843375E+04  5.026262E+03  6.561269E+03
       181   4  4.412330E+05  1.474647E+02  2.359217E+03 -7.860795E+04  1.608857E+03  2.004855E+04
       181   5  4.412388E+05  7.060513E+01  1.601007E+03 -4.461034E+04  8.106593E+02  1.330795E+04
       181   6  4.412548E+05  2.011901E+02  1.379817E+03 -7.860793E+04  9.361657E+00  6.568135E+03
       181   7  8.761008E+05  1.068404E+05  1.012827E+05 -7.891696E+04 -3.410907E+03  2.005333E+04
       181   8  7.419791E+05  7.391608E+04  7.028916E+04 -4.485296E+04 -4.208425E+03  1.331374E+04
       181   9  6.078861E+05  4.119836E+04  3.983166E+04 -7.878215E+04 -5.008874E+03  6.575002E+03
       181  10  6.540317E+03 -1.065590E+05 -9.657725E+04 -7.829920E+04 -4.109743E-10 -3.044862E-10
       181  11  1.405823E+05 -7.378133E+04 -6.709336E+04 -4.436787E+04 -1.173054E-09 -9.081844E-11
       181  12  2.746491E+05 -4.079797E+04 -3.707390E+04 -7.843378E+04 -5.824216E-10 -2.129332E-10
       181  13  4.412329E+05  1.470323E+02  2.358457E+03 -7.860798E+04 -4.722756E-10 -9.975797E-10
       181  14  4.412388E+05  7.041473E+01  1.600673E+03 -4.461035E+04 -2.016792E-10  2.896083E-10
       181  15  4.412548E+05  2.011438E+02  1.379736E+03 -7.860793E+04 -1.295587E-09 -6.453294E-10
       181  16  8.761007E+05  1.068400E+05  1.012819E+05 -7.891691E+04  2.943277E-10 -2.371053E-10
       181  17  7.419791E+05  7.391589E+04  7.028880E+04 -4.485292E+04 -1.206453E-10 -1.466331E-10
       181  18  6.078861E+05  4.119831E+04  3.983153E+04 -7.878212E+04 -2.768311E-10 -1.171438E-09
       181  19  6.540472E+03 -1.065585E+05 -9.657641E+04 -7.829910E+04 -6.625141E+03 -2.004378E+04
       181  20  1.405824E+05 -7.378113E+04 -6.709297E+04 -4.436781E+04 -5.827335E+03 -1.330217E+04
       181  21  2.746492E+05 -4.079791E+04 -3.707378E+04 -7.843375E+04 -5.026262E+03 -6.561269E+03
       181  22  4.412330E+05  1.474647E+02  2.359217E+03 -7.860795E+04 -1.608857E+03 -2.004855E+04
       181  23  4.412388E+05  7.060513E+01  1.601007E+03 -4.461034E+04 -8.106593E+02 -1.330795E+04
       181  24  4.412548E+05  2.011901E+02  1.379817E+03 -7.860793E+04 -9.361657E+00 -6.568135E+03
       181  25  8.761008E+05  1.068404E+05  1.012827E+05 -7.891696E+04  3.410907E+03 -2.005333E+04
       181  26  7.419791E+05  7.391608E+04  7.028916E+04 -4.485296E+04  4.208425E+03 -1.331374E+04
       181  27  6.078861E+05  4.119836E+04  3.983166E+04 -7.878215E+04  5.008874E+03 -6.575002E+03
       182   1  3.997307E+05 -9.919820E+03 -7.672294E+03 -7.854501E+04  4.764895E+03  2.638985E+03
       182   2  5.337209E+05  2.279950E+04  2.296882E+04 -4.467618E+04  3.839935E+03 -4.096886E+03
       182   3  6.677011E+05  5.574969E+04  5.422018E+04 -7.875169E+04  2.915724E+03 -1.083051E+04
       182   4  4.412524E+05  1.995508E+02  1.421726E+03 -7.859679E+04 -2.511173E+02  2.646082E+03
       182   5  4.412635E+05  9.417168E+01  1.849033E+03 -4.462428E+04 -1.174827E+03 -4.090147E+03
       182   6  4.412456E+05  2.201162E+02  2.886085E+03 -7.859672E+04 -2.097593E+03 -1.082406E+04
       182   7  4.827759E+05  1.031882E+04  1.051574E+04 -7.864856E+04 -5.267461E+03  2.653179E+03
       182   8  3.488140E+05 -2.261174E+04 -1.927122E+04 -4.457238E+04 -6.188849E+03 -4.083409E+03
       182   9  2.148377E+05 -5.531297E+04 -4.845122E+04 -7.844179E+04 -7.109099E+03 -1.081762E+04
       182  10  3.997306E+05 -9.919833E+03 -7.672350E+03 -7.854502E+04 -1.086976E-09  7.526641E-10
       182  11  5.337209E+05  2.279948E+04  2.296876E+04 -4.467616E+04 -6.662872E-10  1.977714E-09
       182  12  6.677011E+05  5.574956E+04  5.421994E+04 -7.875167E+04  1.137254E-09 -1.252754E-09
       182  13  4.412524E+05  1.995433E+02  1.421713E+03 -7.859679E+04  2.094675E-11 -4.224959E-11
       182  14  4.412635E+05  9.415334E+01  1.848998E+03 -4.462428E+04  1.637975E-11 -6.985496E-10
       182  15  4.412455E+05  2.199892E+02  2.885857E+03 -7.859674E+04 -7.843062E-10  3.490037E-10
       182  16  4.827758E+05  1.031880E+04  1.051567E+04 -7.864855E+04 -3.704247E-10 -2.585498E-10
       182  17  3.488140E+05 -2.261176E+04 -1.927132E+04 -4.457240E+04 -2.566254E-09 -5.386978E-10
       182  18  2.148376E+05 -5.531311E+04 -4.845154E+04 -7.844185E+04 -1.365377E-09  7.017300E-10
       182  19  3.997307E+05 -9.919820E+03 -7.672294E+03 -7.854501E+04 -4.764895E+03 -2.638985E+03
       182  20  5.337209E+05  2.279950E+04  2.296882E+04 -4.467618E+04 -3.839935E+03  4.096886E+03
       182  21  6.677011E+05  5.574969E+04  5.422018E+04 -7.875169E+04 -2.915724E+03  1.083051E+04
       182  22  4.412524E+05  1.995508E+02  1.421726E+03 -7.859679E+04  2.511173E+02 -2.646082E+03
       182  23  4.412635E+05  9.417168E+01  1.849033E+03 -4.462428E+04  1.174827E+03  4.090147E+03
       182  24  4.412456E+05  2.201162E+02  2.886085E+03 -7.859672E+04  2.097593E+03  1.082406E+04
       182  25  4.827759E+05  1.031882E+04  1.051574E+04 -7.864856E+04  5.267461E+03 -2.653179E+03
       182  26  3.488140E+05 -2.261174E+04 -1.927122E+04 -4.457238E+04  6.188849E+03  4.083409E+03
       182  27  2.148377E+05 -5.531297E+04 -4.845122E+04 -7.844179E+04  7.109099E+03  1.081762E+04
       183   1  7.930490E+05  8.654663E+04  8.440756E+04 -7.874490E+04  2.345527E+03 -1.476287E+04
       183   2  9.270155E+05  1.192455E+05  1.172295E+05 -4.485594E+04 -8.246563E+02 -2.149361E+04
       183   3  1.061661E+06  1.530963E+05  1.523878E+05 -7.905217E+04 -3.990444E+03 -2.814960E+04
       183   4  4.413797E+05  1.212526E+02  3.701648E+03 -7.862889E+04 -2.696961E+03 -1.475703E+04
       183   5  4.410349E+05 -7.217924E+01  6.241527E+03 -4.458423E+04 -5.809741E+03 -2.148956E+04
       183   6  4.413437E+05  8.782290E+02  1.108023E+04 -7.862801E+04 -8.917455E+03 -2.814725E+04
       183   7  8.982480E+04 -8.631273E+04 -7.701232E+04 -7.851291E+04 -7.736618E+03 -1.475119E+04
       183   8 -4.472697E+04 -1.194062E+05 -1.047618E+05 -4.431268E+04 -1.079096E+04 -2.148551E+04
       183   9 -1.786175E+05 -1.513665E+05 -1.302523E+05 -7.820418E+04 -1.383959E+04 -2.814490E+04
       183  10  7.930489E+05  8.654640E+04  8.440714E+04 -7.874487E+04 -2.557878E-11 -1.458448E-09
       183  11  9.270153E+05  1.192450E+05  1.172287E+05 -4.485596E+04 -7.472576E-10  2.731312E-11
       183  12  1.061661E+06  1.530955E+05  1.523863E+05 -7.905226E+04 -1.108554E-09 -4.021533E-11
       183  13  4.413796E+05  1.210168E+02  3.701225E+03 -7.862893E+04 -6.139264E-10  2.961480E-10
       183  14  4.410347E+05 -7.268430E+01  6.240596E+03 -4.458433E+04 -8.767537E-10 -5.559206E-10
       183  15  4.413434E+05  8.773567E+02  1.107859E+04 -7.862821E+04 -8.061273E-10 -4.680477E-10
       183  16  8.982467E+04 -8.631298E+04 -7.701284E+04 -7.851300E+04  1.110639E-10  8.677361E-10
       183  17 -4.472722E+04 -1.194068E+05 -1.047629E+05 -4.431286E+04 -8.745481E-10  1.109917E-09
       183  18 -1.786179E+05 -1.513674E+05 -1.302541E+05 -7.820449E+04  3.949795E-10 -2.636010E-11
       183  19  7.930490E+05  8.654663E+04  8.440756E+04 -7.874490E+04 -2.345527E+03  1.476287E+04
       183  20  9.270155E+05  1.192455E+05  1.172295E+05 -4.485594E+04  8.246563E+02  2.149361E+04
       183  21  1.061661E+06  1.530963E+05  1.523878E+05 -7.905217E+04  3.990444E+03  2.814960E+04
       183  22  4.413797E+05  1.212526E+02  3.701648E+03 -7.862889E+04  2.696961E+03  1.475703E+04
       183  23  4.410349E+05 -7.217924E+01  6.241527E+03 -4.458423E+04  5.809741E+03  2.148956E+04
       183  24  4.413437E+05  8.782290E+02  1.108023E+04 -7.862801E+04  8.917455E+03  2.814725E+04
       183  25  8.982480E+04 -8.631273E+04 -7.701232E+04 -7.851291E+04  7.736618E+03  1.475119E+04
       183  26 -4.472697E+04 -1.194062E+05 -1.047618E+05 -4.431268E+04  1.079096E+04  2.148551E+04
       183  27 -1.786175E+05 -1.513665E+05 -1.302523E+05 -7.820418E+04  1.383959E+04  2.814490E+04
       184   1  1.188423E+06  1.825191E+05  1.850652E+05 -7.691993E+04 -5.693726E+03 -3.228382E+04
       184   2  1.320611E+06  2.151802E+05  2.258295E+05 -4.574735E+04 -1.942256E+04 -3.876785E+04
       184   3  1.458471E+06  2.618897E+05  2.791042E+05 -8.294797E+04 -3.314570E+04 -4.353551E+04
       184   4  4.423666E+05 -6.878150E+02  1.436848E+04 -7.869392E+04 -1.116180E+04 -3.228260E+04
       184   5  4.396110E+05 -1.089507E+03  2.458855E+04 -4.450325E+04 -2.359584E+04 -3.877035E+04
       184   6  4.422980E+05  1.234630E+04  4.643525E+04 -7.869116E+04 -3.602127E+04 -4.354070E+04
       184   7 -3.031748E+05 -1.839334E+05 -1.563647E+05 -8.046564E+04 -1.662336E+04 -3.228134E+04
       184   8 -4.406705E+05 -2.174130E+05 -1.767031E+05 -4.326084E+04 -2.776324E+04 -3.877287E+04
       184   9 -5.729202E+05 -2.372688E+05 -1.863015E+05 -7.444131E+04 -3.889215E+04 -4.354594E+04
       184  10  1.188423E+06  1.825180E+05  1.850632E+05 -7.692008E+04 -1.847939E-09  4.136845E-10
       184  11  1.320610E+06  2.151785E+05  2.258260E+05 -4.574796E+04 -1.950001E-10  4.888622E-10
       184  12  1.458469E+06  2.618874E+05  2.790986E+05 -8.294913E+04  9.719180E-10 -2.321841E-10
       184  13  4.423662E+05 -6.889678E+02  1.436629E+04 -7.869421E+04 -8.213232E-12  4.627714E-10
       184  14  4.396100E+05 -1.091271E+03  2.458468E+04 -4.450399E+04 -1.475089E-09  7.120684E-10
       184  15  4.422961E+05  1.234391E+04  4.642925E+04 -7.869242E+04 -7.921112E-10 -3.528105E-10
       184  16 -3.031754E+05 -1.839346E+05 -1.563671E+05 -8.046607E+04  7.375237E-10  4.573810E-10
       184  17 -4.406717E+05 -2.174148E+05 -1.767074E+05 -4.326171E+04 -5.028167E-10  6.004120E-10
       184  18 -5.729224E+05 -2.372713E+05 -1.863079E+05 -7.444268E+04 -5.550756E-10 -5.653244E-10
       184  19  1.188423E+06  1.825191E+05  1.850652E+05 -7.691993E+04  5.693726E+03  3.228382E+04
       184  20  1.320611E+06  2.151802E+05  2.258295E+05 -4.574735E+04  1.942256E+04  3.876785E+04
       184  21  1.458471E+06  2.618897E+05  2.791042E+05 -8.294797E+04  3.314570E+04  4.353551E+04
       184  22  4.423666E+05 -6.878150E+02  1.436848E+04 -7.869392E+04  1.116180E+04  3.228260E+04
       184  23  4.396110E+05 -1.089507E+03  2.458855E+04 -4.450325E+04  2.359584E+04  3.877035E+04
       184  24  4.422980E+05  1.234630E+04  4.643525E+04 -7.869116E+04  3.602127E+04  4.354070E+04
       184  25 -3.031748E+05 -1.839334E+05 -1.563647E+05 -8.046564E+04  1.662336E+04  3.228134E+04
       184  26 -4.406705E+05 -2.174130E+05 -1.767031E+05 -4.326084E+04  2.776324E+04  3.877287E+04
       184  27 -5.729202E+05 -2.372688E+05 -1.863015E+05 -7.444131E+04  3.889215E+04  4.354594E+04
       185   1  1.596383E+06  2.707114E+05  3.182697E+05 -5.240415E+04 -3.053296E+04 -5.161251E+04
       185   2  1.703457E+06  3.028591E+05  3.895536E+05 -6.767172E+04 -1.087020E+05 -5.246638E+04
       185   3  1.869440E+06  5.261647E+05  5.596300E+05 -1.507298E+05 -1.869392E+05 -1.728412E+04
       185   4  4.531039E+05 -9.788431E+03  5.779156E+04 -7.851270E+04 -4.452274E+04 -5.162152E+04
       185   5  4.258747E+05 -1.101883E+04  9.594897E+04 -4.471377E+04 -9.573319E+04 -5.246753E+04
       185   6  4.529767E+05  1.744384E+05  2.143197E+05 -7.869928E+04 -1.469911E+05 -1.725671E+04
       185   7 -6.889631E+05 -2.903761E+05 -2.027706E+05 -1.045729E+05 -5.848697E+04 -5.162937E+04
       185   8 -8.501990E+05 -3.250085E+05 -1.977626E+05 -2.180358E+04 -8.279067E+04 -5.246772E+04
       185   9 -9.616464E+05 -1.774150E+05 -1.311275E+05 -6.833521E+03 -1.071335E+05 -1.722005E+04
       185  10  1.596381E+06  2.707083E+05  3.182629E+05 -5.240542E+04 -1.098978E-09 -1.735684E-10
       185  11  1.703444E+06  3.028530E+05  3.895263E+05 -6.767631E+04 -1.696562E-10  2.158305E-10
       185  12  1.869403E+06  5.261550E+05  5.595639E+05 -1.507324E+05  4.345854E-10 -1.755637E-10
       185  13  4.531011E+05 -9.791826E+03  5.778283E+04 -7.851455E+04  1.454310E-10 -1.523119E-10
       185  14  4.258641E+05 -1.102425E+04  9.592658E+04 -4.471781E+04  3.571309E-10  1.629112E-09
       185  15  4.529534E+05  1.744323E+05  2.142786E+05 -7.870133E+04  3.490340E-10 -7.821543E-11
       185  16 -6.889675E+05 -2.903799E+05 -2.027820E+05 -1.045753E+05  3.903829E-10 -4.273671E-10
       185  17 -8.502072E+05 -3.250133E+05 -1.977807E+05 -2.180708E+04  2.356542E-10  3.563363E-10
       185  18 -9.616588E+05 -1.774184E+05 -1.311497E+05 -6.835007E+03 -6.300903E-10 -3.876128E-10
       185  19  1.596383E+06  2.707114E+05  3.182697E+05 -5.240415E+04  3.053296E+04  5.161251E+04
       185  20  1.703457E+06  3.028591E+05  3.895536E+05 -6.767172E+04  1.087020E+05  5.246638E+04
       185  21  1.869440E+06  5.261647E+05  5.596300E+05 -1.507298E+05  1.869392E+05  1.728412E+04
       185  22  4.531039E+05 -9.788431E+03  5.779156E+04 -7.851270E+04  4.452274E+04  5.162152E+04
       185  23  4.258747E+05 -1.101883E+04  9.594897E+04 -4.471377E+04  9.573319E+04  5.246753E+04
       185  24  4.529767E+05  1.744384E+05  2.143197E+05 -7.869928E+04  1.469911E+05  1.725671E+04
       185  25 -6.889631E+05 -2.903761E+05 -2.027706E+05 -1.045729E+05  5.848697E+04  5.162937E+04
       185  26 -8.501990E+05 -3.250085E+05 -1.977626E+05 -2.180358E+04  8.279067E+04  5.246772E+04
       185  27 -9.616464E+05 -1.774150E+05 -1.311275E+05 -6.833521E+03  1.071335E+05  1.722005E+04
       186   1  2.523782E+05  8.261770E+05  2.714426E+05 -2.107157E+05  5.214682E+03  9.182408E+04
       186   2  7.567079E+04  5.210844E+05  1.312209E+05 -1.097791E+05  1.233110E+04  4.883096E+04
       186   3  5.963273E+03  2.474734E+05  4.551946E+04 -1.546812E+05  1.109475E+03  5.806814E+03
       186   4  9.785850E+04  2.067375E+05  1.192819E+05 -1.686262E+05  5.255226E+03  7.974937E+04
       186   5 -5.397976E+03  1.922318E+05  5.506752E+04 -9.585221E+04  1.232792E+04  5.043798E+04
       186   6 -3.985920E+03  2.067962E+05  3.591982E+04 -1.689085E+05  1.062035E+03  2.107554E+04
       186   7 -5.668316E+04 -4.123491E+05 -3.290551E+04 -1.265785E+05  5.294158E+03  6.768663E+04
       186   8 -8.647365E+04 -1.365206E+05 -2.109299E+04 -8.193269E+04  1.232482E+04  5.204415E+04
       186   9 -1.393434E+04  1.661215E+05  2.632105E+04 -1.831348E+05  1.013893E+03  3.634327E+04
       186  10  2.523759E+05  8.261679E+05  2.714267E+05 -2.107161E+05  6.291848E-10 -2.013379E-10
       186  11  7.566999E+04  5.210818E+05  1.312161E+05 -1.097796E+05 -6.080505E-10 -1.233297E-09
       186  12  5.963263E+03  2.474733E+05  4.551939E+04 -1.546812E+05 -9.721014E-10 -7.102511E-10
       186  13  9.785676E+04  2.067307E+05  1.192699E+05 -1.686266E+05  1.111245E-09 -7.227836E-10
       186  14 -5.398822E+03  1.922290E+05  5.506246E+04 -9.585271E+04 -2.022183E-10 -7.765424E-10
       186  15 -3.986040E+03  2.067957E+05  3.591898E+04 -1.689085E+05  8.305011E-10  3.523183E-10
       186  16 -5.668442E+04 -4.123540E+05 -3.291418E+04 -1.265788E+05  3.519767E-10 -5.782869E-10
       186  17 -8.647454E+04 -1.365235E+05 -2.109837E+04 -8.193320E+04  2.854321E-09  6.051060E-10
       186  18 -1.393470E+04  1.661201E+05  2.631857E+04 -1.831348E+05  1.048188E-10  2.097187E-10
       186  19  2.523782E+05  8.261770E+05  2.714426E+05 -2.107157E+05 -5.214682E+03 -9.182408E+04
       186  20  7.567079E+04  5.210844E+05  1.312209E+05 -1.097791E+05 -1.233110E+04 -4.883096E+04
       186  21  5.963273E+03  2.474734E+05  4.551946E+04 -1.546812E+05 -1.109475E+03 -5.806814E+03
       186  22  9.785850E+04  2.067375E+05  1.192819E+05 -1.686262E+05 -5.255226E+03 -7.974937E+04
       186  23 -5.397976E+03  1.922318E+05  5.506752E+04 -9.585221E+04 -1.232792E+04 -5.043798E+04
       186  24 -3.985920E+03  2.067962E+05  3.591982E+04 -1.689085E+05 -1.062035E+03 -2.107554E+04
       186  25 -5.668316E+04 -4.123491E+05 -3.290551E+04 -1.265785E+05 -5.294158E+03 -6.768663E+04
       186  26 -8.647365E+04 -1.365206E+05 -2.109299E+04 -8.193269E+04 -1.232482E+04 -5.204415E+04
       186  27 -1.393434E+04  1.661215E+05  2.632105E+04 -1.831348E+05 -1.013893E+03 -3.634327E+04
       187   1 -4.880781E+04 -2.862183E+04 -2.181230E+04 -1.716741E+05 -9.695970E+03  5.279615E+03
       187   2 -1.279778E+05 -3.198703E+05 -9.589718E+04 -9.482241E+04 -2.282924E+04 -5.376013E+03
       187   3 -1.936434E+05 -6.070785E+05 -1.598641E+05 -1.645925E+05 -3.474758E+04 -1.601309E+04
       187   4  7.691859E+03  2.012371E+05  3.095433E+04 -1.689947E+05 -9.727228E+03  1.553050E+04
       187   5 -4.247291E+02  1.991377E+05  2.280047E+04 -9.569219E+04 -2.285411E+04  3.963867E+03
       187   6  5.121482E+03  2.011566E+05  2.539823E+04 -1.690024E+05 -3.476669E+04 -7.589035E+03
       187   7  6.418793E+04  4.311453E+05  8.371787E+04 -1.663142E+05 -9.758392E+03  2.578514E+04
       187   8  1.271097E+05  7.183956E+05  1.414808E+05 -9.656252E+04 -2.287899E+04  1.331149E+04
       187   9  2.038410E+05  1.009997E+06  2.106179E+05 -1.734175E+05 -3.478591E+04  8.459121E+02
       187  10 -4.880792E+04 -2.862189E+04 -2.181253E+04 -1.716740E+05 -1.585795E-09 -1.110013E-10
       187  11 -1.279784E+05 -3.198705E+05 -9.589822E+04 -9.482251E+04 -1.841221E-10 -1.590622E-09
       187  12 -1.936448E+05 -6.070791E+05 -1.598669E+05 -1.645930E+05 -8.108360E-10 -4.162932E-10
       187  13  7.691693E+03  2.012369E+05  3.095370E+04 -1.689945E+05 -5.440352E-10 -7.440882E-10
       187  14 -4.252942E+02  1.991376E+05  2.279945E+04 -9.569212E+04  1.734493E-10 -7.638462E-10
       187  15  5.120168E+03  2.011563E+05  2.539585E+04 -1.690026E+05 -8.143191E-10  3.599147E-10
       187  16  6.418765E+04  4.311445E+05  8.371645E+04 -1.663140E+05 -3.755359E-10 -5.897794E-10
       187  17  1.271091E+05  7.183953E+05  1.414795E+05 -9.656227E+04 -9.056986E-10  8.945129E-10
       187  18  2.038397E+05  1.009997E+06  2.106156E+05 -1.734175E+05 -2.881673E-11  5.439759E-11
       187  19 -4.880781E+04 -2.862183E+04 -2.181230E+04 -1.716741E+05  9.695970E+03 -5.279615E+03
       187  20 -1.279778E+05 -3.198703E+05 -9.589718E+04 -9.482241E+04  2.282924E+04  5.376013E+03
       187  21 -1.936434E+05 -6.070785E+05 -1.598641E+05 -1.645925E+05  3.474758E+04  1.601309E+04
       187  22  7.691859E+03  2.012371E+05  3.095433E+04 -1.689947E+05  9.727228E+03 -1.553050E+04
       187  23 -4.247291E+02  1.991377E+05  2.280047E+04 -9.569219E+04  2.285411E+04 -3.963867E+03
       187  24  5.121482E+03  2.011566E+05  2.539823E+04 -1.690024E+05  3.476669E+04  7.589035E+03
       187  25  6.418793E+04  4.311453E+05  8.371787E+04 -1.663142E+05  9.758392E+03 -2.578514E+04
       187  26  1.271097E+05  7.183956E+05  1.414808E+05 -9.656252E+04  2.287899E+04 -1.331149E+04
       187  27  2.038410E+05  1.009997E+06  2.106179E+05 -1.734175E+05  3.478591E+04 -8.459121E+02
       188   1 -2.677319E+05 -8.742357E+05 -2.185580E+05 -1.767805E+05 -4.827765E+04 -3.368201E+04
       188   2 -3.406115E+05 -1.172064E+06 -2.753895E+05 -8.504559E+04 -5.550444E+04 -2.205459E+04
       188   3 -3.456839E+05 -1.453953E+06 -3.227674E+05 -1.385888E+05 -1.888544E+04 -1.037114E+04
       188   4 -2.574189E+03  2.048915E+05  2.789867E+04 -1.687343E+05 -4.832479E+04 -1.206110E+04
       188   5 -4.211609E+03  1.940442E+05  3.944450E+04 -9.605487E+04 -5.547573E+04 -3.304006E+04
       188   6  6.754341E+04  2.046736E+05  8.306299E+04 -1.686261E+05 -1.882449E+04 -5.395793E+04
       188   7  2.625033E+05  1.285100E+06  2.742810E+05 -1.606732E+05 -4.837134E+04  9.597132E+03
       188   8  3.320581E+05  1.561881E+06  3.541551E+05 -1.070877E+05 -5.544666E+04 -4.404948E+04
       188   9  4.805713E+05  1.865817E+06  4.886998E+05 -1.987429E+05 -1.875940E+04 -9.766097E+04
       188  10 -2.677347E+05 -8.742375E+05 -2.185645E+05 -1.767818E+05 -1.070557E-09  5.382000E-10
       188  11 -3.406150E+05 -1.172066E+06 -2.753962E+05 -8.504657E+04  1.033242E-09 -3.981150E-10
       188  12 -3.456843E+05 -1.453954E+06 -3.227683E+05 -1.385889E+05  3.485827E-10 -6.929549E-10
       188  13 -2.576736E+03  2.048907E+05  2.789401E+04 -1.687348E+05  1.679689E-10 -5.833102E-10
       188  14 -4.215207E+03  1.940422E+05  3.943666E+04 -9.605634E+04 -2.094533E-11 -3.340902E-10
       188  15  6.754225E+04  2.046704E+05  8.305685E+04 -1.686269E+05  2.685668E-10  1.027787E-10
       188  16  2.625007E+05  1.285099E+06  2.742764E+05 -1.606728E+05 -1.001812E-09 -9.420125E-10
       188  17  3.320543E+05  1.561878E+06  3.541457E+05 -1.070897E+05  7.910320E-10  1.247479E-11
       188  18  4.805683E+05  1.865806E+06  4.886813E+05 -1.987443E+05  7.033605E-10  3.457148E-10
       188  19 -2.677319E+05 -8.742357E+05 -2.185580E+05 -1.767805E+05  4.827765E+04  3.368201E+04
       188  20 -3.406115E+05 -1.172064E+06 -2.753895E+05 -8.504559E+04  5.550444E+04  2.205459E+04
       188  21 -3.456839E+05 -1.453953E+06 -3.227674E+05 -1.385888E+05  1.888544E+04  1.037114E+04
       188  22 -2.574189E+03  2.048915E+05  2.789867E+04 -1.687343E+05  4.832479E+04  1.206110E+04
       188  23 -4.211609E+03  1.940442E+05  3.944450E+04 -9.605487E+04  5.547573E+04  3.304006E+04
       188  24  6.754341E+04  2.046736E+05  8.306299E+04 -1.686261E+05  1.882449E+04  5.395793E+04
       188  25  2.625033E+05  1.285100E+06  2.742810E+05 -1.606732E+05  4.837134E+04 -9.597132E+03
       188  26  3.320581E+05  1.561881E+06  3.541551E+05 -1.070877E+05  5.544666E+04  4.404948E+04
       188  27  4.805713E+05  1.865817E+06  4.886998E+05 -1.987429E+05  1.875940E+04  9.766097E+04
       189   1 -3.168490E+06 -1.160907E+06 -7.299450E+05 -1.132215E+06 -2.952398E+05 -9.325397E+04
       189   2 -3.061446E+06 -7.297320E+05 -4.565551E+05 -1.119956E+06 -1.922205E+05 -1.655488E+04
       189   3 -3.059106E+06 -6.670610E+05 -3.605133E+05 -1.062681E+06 -7.654899E+04  2.669960E+04
       189   4 -2.037194E+06 -6.137273E+05 -4.012059E+05 -7.013652E+05 -2.609887E+05 -8.039536E+04
       189   5 -1.965523E+06 -2.805764E+05 -1.710189E+05 -7.808478E+05 -1.810184E+05 -1.235350E+04
       189   6 -1.993741E+06 -3.110074E+05 -9.961993E+04 -8.153825E+05 -8.841893E+04  2.223102E+04
       189   7 -9.046126E+05 -6.620923E+04 -7.258472E+04 -2.697198E+05 -2.266685E+05 -6.749399E+04
       189   8 -8.684154E+05  1.687229E+05  1.144161E+05 -4.411710E+05 -1.697945E+05 -8.142119E+03
       189   9 -9.272661E+05  4.506528E+04  1.611887E+05 -5.677232E+05 -1.003111E+05  1.775615E+04
       189  10 -3.168586E+06 -1.160940E+06 -7.301262E+05 -1.132237E+06 -2.161780E-10 -7.130679E-10
       189  11 -3.061486E+06 -7.297423E+05 -4.566254E+05 -1.119959E+06  1.085006E-10  6.422766E-10
       189  12 -3.059113E+06 -6.670634E+05 -3.605257E+05 -1.062680E+06  3.249808E-10  9.515211E-11
       189  13 -2.037269E+06 -6.137527E+05 -4.013465E+05 -7.013821E+05 -3.673750E-10 -5.223732E-10
       189  14 -1.965559E+06 -2.805854E+05 -1.710809E+05 -7.808496E+05  7.923820E-10  2.004936E-10
       189  15 -1.993750E+06 -3.110100E+05 -9.963558E+04 -8.153809E+05 -4.099683E-10  2.987496E-11
       189  16 -9.046691E+05 -6.622794E+04 -7.269000E+04 -2.697322E+05 -6.841271E-10  7.303957E-10
       189  17 -8.684464E+05  1.687150E+05  1.143617E+05 -4.411721E+05  1.132725E-09  3.789464E-10
       189  18 -9.272770E+05  4.506224E+04  1.611692E+05 -5.677218E+05 -4.723617E-10 -5.776993E-10
       189  19 -3.168490E+06 -1.160907E+06 -7.299450E+05 -1.132215E+06  2.952398E+05  9.325397E+04
       189  20 -3.061446E+06 -7.297320E+05 -4.565551E+05 -1.119956E+06  1.922205E+05  1.655488E+04
       189  21 -3.059106E+06 -6.670610E+05 -3.605133E+05 -1.062681E+06  7.654899E+04 -2.669960E+04
       189  22 -2.037194E+06 -6.137273E+05 -4.012059E+05 -7.013652E+05  2.609887E+05  8.039536E+04
       189  23 -1.965523E+06 -2.805764E+05 -1.710189E+05 -7.808478E+05  1.810184E+05  1.235350E+04
       189  24 -1.993741E+06 -3.110074E+05 -9.961993E+04 -8.153825E+05  8.841893E+04 -2.223102E+04
       189  25 -9.046126E+05 -6.620923E+04 -7.258472E+04 -2.697198E+05  2.266685E+05  6.749399E+04
       189  26 -8.684154E+05  1.687229E+05  1.144161E+05 -4.411710E+05  1.697945E+05  8.142119E+03
       189  27 -9.272661E+05  4.506528E+04  1.611887E+05 -5.677232E+05  1.003111E+05 -1.775615E+04
       190   1 -2.914753E+06 -7.054211E+05 -3.184187E+05 -1.058872E+06 -7.092059E+04  2.090692E+04
       190   2 -2.833186E+06 -6.202406E+05 -2.532249E+05 -1.012914E+06 -4.801072E+04  2.591950E+04
       190   3 -2.725573E+06 -5.998546E+05 -2.113225E+05 -1.004533E+06 -2.442256E+04  2.911944E+04
       190   4 -1.980306E+06 -3.472246E+05 -7.992063E+04 -7.950372E+05 -7.254145E+04  2.029106E+04
       190   5 -1.991730E+06 -3.030647E+05 -4.004219E+04 -7.806977E+05 -5.085850E+04  2.484528E+04
       190   6 -1.976858E+06 -3.234283E+05 -2.245213E+04 -8.039385E+05 -2.850134E+04  2.758625E+04
       190   7 -1.044998E+06  1.104116E+04  1.585073E+05 -5.308356E+05 -7.416495E+04  1.967416E+04
       190   8 -1.149578E+06  1.416065E+04  1.730841E+05 -5.481938E+05 -5.371050E+04  2.376946E+04
       190   9 -1.227594E+06 -4.696949E+04  1.663736E+05 -6.031259E+05 -3.258551E+04  2.605110E+04
       190  10 -2.914758E+06 -7.054229E+05 -3.184291E+05 -1.058871E+06 -2.087651E-10 -1.704747E-10
       190  11 -2.833188E+06 -6.202419E+05 -2.532305E+05 -1.012913E+06  2.966218E-09  1.403250E-09
       190  12 -2.725574E+06 -5.998557E+05 -2.113252E+05 -1.004532E+06  3.500400E-09  3.946319E-10
       190  13 -1.980312E+06 -3.472265E+05 -7.993131E+04 -7.950360E+05  6.178010E-10  1.881617E-10
       190  14 -1.991733E+06 -3.030661E+05 -4.004822E+04 -7.806967E+05  2.800740E-09  1.646563E-09
       190  15 -1.976859E+06 -3.234294E+05 -2.245509E+04 -8.039379E+05  1.583920E-09  5.549960E-10
       190  16 -1.045004E+06  1.103927E+04  1.584963E+05 -5.308344E+05  3.348480E-09  2.961022E-10
       190  17 -1.149581E+06  1.415927E+04  1.730776E+05 -5.481927E+05  3.764271E-09  1.114350E-09
       190  18 -1.227595E+06 -4.697050E+04  1.663704E+05 -6.031252E+05 -1.439053E-10  6.478385E-10
       190  19 -2.914753E+06 -7.054211E+05 -3.184187E+05 -1.058872E+06  7.092059E+04 -2.090692E+04
       190  20 -2.833186E+06 -6.202406E+05 -2.532249E+05 -1.012914E+06  4.801072E+04 -2.591950E+04
       190  21 -2.725573E+06 -5.998546E+05 -2.113225E+05 -1.004533E+06  2.442256E+04 -2.911944E+04
       190  22 -1.980306E+06 -3.472246E+05 -7.992063E+04 -7.950372E+05  7.254145E+04 -2.029106E+04
       190  23 -1.991730E+06 -3.030647E+05 -4.004219E+04 -7.806977E+05  5.085850E+04 -2.484528E+04
       190  24 -1.976858E+06 -3.234283E+05 -2.245213E+04 -8.039385E+05  2.850134E+04 -2.758625E+04
       190  25 -1.044998E+06  1.104116E+04  1.585073E+05 -5.308356E+05  7.416495E+04 -1.967416E+04
       190  26 -1.149578E+06  1.416065E+04  1.730841E+05 -5.481938E+05  5.371050E+04 -2.376946E+04
       190  27 -1.227594E+06 -4.696949E+04  1.663736E+05 -6.031259E+05  3.258551E+04 -2.605110E+04
       191   1 -2.622861E+06 -5.689387E+05 -1.806664E+05 -9.797440E+05 -2.050924E+04  2.684848E+04
       191   2 -2.541002E+06 -5.088322E+05 -1.473441E+05 -9.293891E+05 -1.380187E+04  2.338805E+04
       191   3 -2.420466E+06 -4.907098E+05 -1.180750E+05 -9.243684E+05 -7.043630E+03  1.977836E+04
       191   4 -1.975211E+06 -3.264832E+05 -1.725115E+04 -8.026184E+05 -2.410251E+04  2.549885E+04
       191   5 -1.994402E+06 -3.045453E+05 -9.247109E+03 -7.803009E+05 -1.749364E+04  2.200338E+04
       191   6 -1.974905E+06 -3.245690E+05 -5.214116E+03 -8.033195E+05 -1.083475E+04  1.835843E+04
       191   7 -1.327150E+06 -8.400103E+04  1.461299E+05 -6.253253E+05 -2.769988E+04  2.414769E+04
       191   8 -1.447508E+06 -1.002391E+05  1.288261E+05 -6.310933E+05 -2.118897E+04  2.061737E+04
       191   9 -1.529149E+06 -1.584151E+05  1.076314E+05 -6.821912E+05 -1.462887E+04  1.693739E+04
       191  10 -2.622862E+06 -5.689396E+05 -1.806685E+05 -9.797436E+05  3.515586E-10 -5.988174E-10
       191  11 -2.541003E+06 -5.088329E+05 -1.473455E+05 -9.293888E+05  1.415383E-10 -3.429542E-10
       191  12 -2.420466E+06 -4.907102E+05 -1.180758E+05 -9.243683E+05 -3.672897E-10  6.949924E-10
       191  13 -1.975211E+06 -3.264840E+05 -1.725346E+04 -8.026179E+05  5.750877E-11 -3.299796E-10
       191  14 -1.994402E+06 -3.045459E+05 -9.248593E+03 -7.803006E+05  1.545809E-09  4.370715E-10
       191  15 -1.974906E+06 -3.245694E+05 -5.214969E+03 -8.033193E+05 -4.378502E-11  1.009317E-09
       191  16 -1.327151E+06 -8.400186E+04  1.461274E+05 -6.253248E+05 -1.458464E-09  2.351782E-10
       191  17 -1.447508E+06 -1.002397E+05  1.288244E+05 -6.310930E+05 -1.002614E-12  5.080432E-10
       191  18 -1.529149E+06 -1.584154E+05  1.076304E+05 -6.821910E+05 -7.161864E-11 -3.241021E-10
       191  19 -2.622861E+06 -5.689387E+05 -1.806664E+05 -9.797440E+05  2.050924E+04 -2.684848E+04
       191  20 -2.541002E+06 -5.088322E+05 -1.473441E+05 -9.293891E+05  1.380187E+04 -2.338805E+04
       191  21 -2.420466E+06 -4.907098E+05 -1.180750E+05 -9.243684E+05  7.043630E+03 -1.977836E+04
       191  22 -1.975211E+06 -3.264832E+05 -1.725115E+04 -8.026184E+05  2.410251E+04 -2.549885E+04
       191  23 -1.994402E+06 -3.045453E+05 -9.247109E+03 -7.803009E+05  1.749364E+04 -2.200338E+04
       191  24 -1.974905E+06 -3.245690E+05 -5.214116E+03 -8.033195E+05  1.083475E+04 -1.835843E+04
       191  25 -1.327150E+06 -8.400103E+04  1.461299E+05 -6.253253E+05  2.769988E+04 -2.414769E+04
       191  26 -1.447508E+06 -1.002391E+05  1.288261E+05 -6.310933E+05  2.118897E+04 -2.061737E+04
       191  27 -1.529149E+06 -1.584151E+05  1.076314E+05 -6.821912E+05  1.462887E+04 -1.693739E+04
       192   1 -2.318554E+06 -4.533271E+05 -9.054142E+04 -8.971334E+05 -5.096713E+03  1.688017E+04
       192   2 -2.235115E+06 -3.941089E+05 -6.315569E+04 -8.454739E+05 -1.792876E+03  1.187864E+04
       192   3 -2.111141E+06 -3.758071E+05 -3.674742E+04 -8.406123E+05  1.520070E+03  6.845920E+03
       192   4 -1.974562E+06 -3.249578E+05 -4.038379E+03 -8.034025E+05 -8.886472E+03  1.546166E+04
       192   5 -1.994806E+06 -3.044124E+05 -2.475309E+03 -7.800325E+05 -5.603614E+03  1.045311E+04
       192   6 -1.974522E+06 -3.247782E+05 -1.871978E+03 -8.034630E+05 -2.311899E+03  5.413353E+03
       192   7 -1.630454E+06 -1.965810E+05  8.245532E+04 -7.096243E+05 -1.267853E+04  1.404229E+04
       192   8 -1.754441E+06 -2.147123E+05  5.820037E+04 -7.145682E+05 -9.415962E+03  9.026987E+03
       192   9 -1.837885E+06 -2.737483E+05  3.300185E+04 -7.663065E+05 -6.144777E+03  3.980445E+03
       192  10 -2.318554E+06 -4.533274E+05 -9.054201E+04 -8.971334E+05  2.006415E-10  8.994189E-10
       192  11 -2.235115E+06 -3.941091E+05 -6.315596E+04 -8.454739E+05  3.572406E-09  1.412203E-09
       192  12 -2.111141E+06 -3.758072E+05 -3.674751E+04 -8.406123E+05  2.584774E-09  3.218519E-10
       192  13 -1.974562E+06 -3.249581E+05 -4.038976E+03 -8.034024E+05  1.995479E-09  3.424547E-10
       192  14 -1.994806E+06 -3.044125E+05 -2.475573E+03 -7.800325E+05  4.400515E-09  1.466578E-09
       192  15 -1.974522E+06 -3.247782E+05 -1.872043E+03 -8.034630E+05  1.695577E-09  2.018761E-09
       192  16 -1.630454E+06 -1.965812E+05  8.245464E+04 -7.096242E+05  1.741730E-09 -1.937038E-10
       192  17 -1.754441E+06 -2.147124E+05  5.820005E+04 -7.145681E+05  2.005004E-09  3.130397E-10
       192  18 -1.837885E+06 -2.737483E+05  3.300175E+04 -7.663065E+05 -2.299615E-10  1.148171E-10
       192  19 -2.318554E+06 -4.533271E+05 -9.054142E+04 -8.971334E+05  5.096713E+03 -1.688017E+04
       192  20 -2.235115E+06 -3.941089E+05 -6.315569E+04 -8.454739E+05  1.792876E+03 -1.187864E+04
       192  21 -2.111141E+06 -3.758071E+05 -3.674742E+04 -8.406123E+05 -1.520070E+03 -6.845920E+03
       192  22 -1.974562E+06 -3.249578E+05 -4.038379E+03 -8.034025E+05  8.886472E+03 -1.546166E+04
       192  23 -1.994806E+06 -3.044124E+05 -2.475309E+03 -7.800325E+05  5.603614E+03 -1.045311E+04
       192  24 -1.974522E+06 -3.247782E+05 -1.871978E+03 -8.034630E+05  2.311899E+03 -5.413353E+03
       192  25 -1.630454E+06 -1.965810E+05  8.245532E+04 -7.096243E+05  1.267853E+04 -1.404229E+04
       192  26 -1.754441E+06 -2.147123E+05  5.820037E+04 -7.145682E+05  9.415962E+03 -9.026987E+03
       192  27 -1.837885E+06 -2.737483E+05  3.300185E+04 -7.663065E+05  6.144777E+03 -3.980445E+03
       193   1 -2.008270E+06 -3.373944E+05 -9.988012E+03 -8.127659E+05  3.033617E+03  3.747587E+03
       193   2 -1.924401E+06 -2.780765E+05  1.553056E+04 -7.608111E+05  6.211209E+03 -1.354216E+03
       193   3 -1.799825E+06 -2.598394E+05  4.017386E+04 -7.558967E+05  9.385406E+03 -6.444272E+03
       193   4 -1.974482E+06 -3.248248E+05 -1.835444E+03 -8.035125E+05 -8.041048E+02  2.313069E+03
       193   5 -1.994839E+06 -3.043402E+05 -2.247752E+03 -7.799692E+05  2.381073E+03 -2.786188E+03
       193   6 -1.974503E+06 -3.249400E+05 -3.541432E+03 -8.034716E+05  5.562630E+03 -7.873722E+03
       193   7 -1.940692E+06 -3.122550E+05  6.317141E+03 -7.942587E+05 -4.642070E+03  8.784594E+02
       193   8 -2.065272E+06 -3.306037E+05 -2.002644E+04 -7.991253E+05 -1.448596E+03 -4.217986E+03
       193   9 -2.149150E+06 -3.900387E+05 -4.725907E+04 -8.510343E+05  1.741031E+03 -9.302732E+03
       193  10 -2.008270E+06 -3.373944E+05 -9.988056E+03 -8.127659E+05  5.117165E-10 -4.237798E-10
       193  11 -1.924401E+06 -2.780765E+05  1.553048E+04 -7.608111E+05  8.615848E-10  1.248604E-09
       193  12 -1.799825E+06 -2.598394E+05  4.017362E+04 -7.558966E+05 -1.814860E-10  2.342157E-10
       193  13 -1.974482E+06 -3.248248E+05 -1.835456E+03 -8.035125E+05 -4.458767E-10 -7.322008E-10
       193  14 -1.994839E+06 -3.043402E+05 -2.247777E+03 -7.799692E+05  1.796580E-10  1.572278E-09
       193  15 -1.974503E+06 -3.249401E+05 -3.541607E+03 -8.034716E+05  4.078679E-10  1.037922E-09
       193  16 -1.940692E+06 -3.122550E+05  6.317099E+03 -7.942587E+05 -8.403281E-10  6.239327E-10
       193  17 -2.065272E+06 -3.306037E+05 -2.002647E+04 -7.991253E+05 -3.246935E-10  5.957741E-10
       193  18 -2.149150E+06 -3.900387E+05 -4.725924E+04 -8.510343E+05 -8.278453E-10 -5.197324E-10
       193  19 -2.008270E+06 -3.373944E+05 -9.988012E+03 -8.127659E+05 -3.033617E+03 -3.747587E+03
       193  20 -1.924401E+06 -2.780765E+05  1.553056E+04 -7.608111E+05 -6.211209E+03  1.354216E+03
       193  21 -1.799825E+06 -2.598394E+05  4.017386E+04 -7.558967E+05 -9.385406E+03  6.444272E+03
       193  22 -1.974482E+06 -3.248248E+05 -1.835444E+03 -8.035125E+05  8.041048E+02 -2.313069E+03
       193  23 -1.994839E+06 -3.043402E+05 -2.247752E+03 -7.799692E+05 -2.381073E+03  2.786188E+03
       193  24 -1.974503E+06 -3.249400E+05 -3.541432E+03 -8.034716E+05 -5.562630E+03  7.873722E+03
       193  25 -1.940692E+06 -3.122550E+05  6.317141E+03 -7.942587E+05  4.642070E+03 -8.784594E+02
       193  26 -2.065272E+06 -3.306037E+05 -2.002644E+04 -7.991253E+05  1.448596E+03  4.217986E+03
       193  27 -2.149150E+06 -3.900387E+05 -4.725907E+04 -8.510343E+05 -1.741031E+03  9.302732E+03
       194   1 -1.697477E+06 -2.214177E+05  6.578031E+04 -7.282769E+05  1.125836E+04 -9.402272E+03
       194   2 -1.614567E+06 -1.624993E+05  8.794339E+04 -6.765566E+05  1.722632E+04 -1.338665E+04
       194   3 -1.492325E+06 -1.458064E+05  1.067198E+05 -6.709386E+05  2.315417E+04 -1.725075E+04
       194   4 -1.974749E+06 -3.246658E+05 -4.541070E+03 -8.034678E+05  7.425684E+03 -1.083594E+04
       194   5 -1.994530E+06 -3.043561E+05 -7.977989E+03 -7.801155E+05  1.347382E+04 -1.479171E+04
       194   6 -1.975004E+06 -3.262911E+05 -1.486639E+04 -8.028715E+05  1.948113E+04 -1.862737E+04
       194   7 -2.251945E+06 -4.279088E+05 -7.486828E+04 -8.786280E+05  3.594897E+03 -1.226891E+04
       194   8 -2.374350E+06 -4.462037E+05 -1.039108E+05 -8.836169E+05  9.723838E+03 -1.619582E+04
       194   9 -2.457456E+06 -5.067612E+05 -1.364716E+05 -9.347118E+05  1.581121E+04 -2.000283E+04
       194  10 -1.697477E+06 -2.214178E+05  6.577991E+04 -7.282768E+05  4.700025E-10  3.698070E-10
       194  11 -1.614568E+06 -1.624996E+05  8.794250E+04 -6.765564E+05  5.281001E-10 -3.490456E-10
       194  12 -1.492326E+06 -1.458069E+05  1.067182E+05 -6.709382E+05  2.433385E-11  7.073540E-10
       194  13 -1.974749E+06 -3.246660E+05 -4.541394E+03 -8.034677E+05 -1.255317E-10  6.738388E-10
       194  14 -1.994530E+06 -3.043564E+05 -7.978741E+03 -7.801153E+05 -1.340772E-09 -1.392996E-09
       194  15 -1.975004E+06 -3.262915E+05 -1.486776E+04 -8.028712E+05  1.585296E-10  3.088114E-10
       194  16 -2.251945E+06 -4.279090E+05 -7.486859E+04 -8.786279E+05 -7.845506E-10  5.998623E-11
       194  17 -2.374350E+06 -4.462040E+05 -1.039115E+05 -8.836168E+05  2.977533E-10 -1.084561E-10
       194  18 -2.457456E+06 -5.067617E+05 -1.364728E+05 -9.347115E+05  4.902486E-10  2.064076E-10
       194  19 -1.697477E+06 -2.214177E+05  6.578031E+04 -7.282769E+05 -1.125836E+04  9.402272E+03
       194  20 -1.614567E+06 -1.624993E+05  8.794339E+04 -6.765566E+05 -1.722632E+04  1.338665E+04
       194  21 -1.492325E+06 -1.458064E+05  1.067198E+05 -6.709386E+05 -2.315417E+04  1.725075E+04
       194  22 -1.974749E+06 -3.246658E+05 -4.541070E+03 -8.034678E+05 -7.425684E+03  1.083594E+04
       194  23 -1.994530E+06 -3.043561E+05 -7.977989E+03 -7.801155E+05 -1.347382E+04  1.479171E+04
       194  24 -1.975004E+06 -3.262911E+05 -1.486639E+04 -8.028715E+05 -1.948113E+04  1.862737E+04
       194  25 -2.251945E+06 -4.279088E+05 -7.486828E+04 -8.786280E+05 -3.594897E+03  1.226891E+04
       194  26 -2.374350E+06 -4.462037E+05 -1.039108E+05 -8.836169E+05 -9.723838E+03  1.619582E+04
       194  27 -2.457456E+06 -5.067612E+05 -1.364716E+05 -9.347118E+05 -1.581121E+04  2.000283E+04
       195   1 -1.390972E+06 -1.081501E+05  1.282007E+05 -6.476661E+05  2.756272E+04 -1.937690E+04
       195   2 -1.310831E+06 -4.649142E+04  1.379777E+05 -5.924525E+05  4.603592E+04 -1.827125E+04
       195   3 -1.201695E+06 -4.642441E+04  1.294130E+05 -5.768579E+05  6.392107E+04 -1.557285E+04
       195   4 -1.976395E+06 -3.236961E+05 -1.934257E+04 -8.040463E+05  2.345460E+04 -2.091758E+04
       195   5 -1.992255E+06 -3.030258E+05 -3.446501E+04 -7.804076E+05  4.301450E+04 -1.940725E+04
       195   6 -1.979353E+06 -3.441845E+05 -6.880824E+04 -7.963946E+05  6.198318E+04 -1.630466E+04
       195   7 -2.561483E+06 -5.392227E+05 -1.669130E+05 -9.602937E+05  1.935072E+04 -2.245673E+04
       195   8 -2.673221E+06 -5.595278E+05 -2.069446E+05 -9.681743E+05  3.999670E+04 -2.054187E+04
       195   9 -2.756416E+06 -6.418965E+05 -2.670778E+05 -1.015678E+06  6.004794E+04 -1.703544E+04
       195  10 -1.390973E+06 -1.081507E+05  1.281985E+05 -6.476657E+05  1.086883E-09  6.318934E-10
       195  11 -1.310834E+06 -4.649234E+04  1.379731E+05 -5.924519E+05  1.616438E-11 -3.790886E-10
       195  12 -1.201699E+06 -4.642576E+04  1.294049E+05 -5.768571E+05 -5.166068E-11 -6.673627E-11
       195  13 -1.976396E+06 -3.236968E+05 -1.934442E+04 -8.040459E+05  4.162399E-10  4.152126E-10
       195  14 -1.992257E+06 -3.030267E+05 -3.446920E+04 -7.804069E+05  1.322291E-09 -4.022924E-10
       195  15 -1.979358E+06 -3.441858E+05 -6.881597E+04 -7.963938E+05  2.913799E-10 -1.050123E-10
       195  16 -2.561483E+06 -5.392234E+05 -1.669146E+05 -9.602933E+05 -1.126785E-09 -6.419229E-10
       195  17 -2.673223E+06 -5.595287E+05 -2.069484E+05 -9.681736E+05 -1.887268E-10 -5.122131E-10
       195  18 -2.756420E+06 -6.418978E+05 -2.670851E+05 -1.015677E+06  3.004560E-10  2.069461E-11
       195  19 -1.390972E+06 -1.081501E+05  1.282007E+05 -6.476661E+05 -2.756272E+04  1.937690E+04
       195  20 -1.310831E+06 -4.649142E+04  1.379777E+05 -5.924525E+05 -4.603592E+04  1.827125E+04
       195  21 -1.201695E+06 -4.642441E+04  1.294130E+05 -5.768579E+05 -6.392107E+04  1.557285E+04
       195  22 -1.976395E+06 -3.236961E+05 -1.934257E+04 -8.040463E+05 -2.345460E+04  2.091758E+04
       195  23 -1.992255E+06 -3.030258E+05 -3.446501E+04 -7.804076E+05 -4.301450E+04  1.940725E+04
       195  24 -1.979353E+06 -3.441845E+05 -6.880824E+04 -7.963946E+05 -6.198318E+04  1.630466E+04
       195  25 -2.561483E+06 -5.392227E+05 -1.669130E+05 -9.602937E+05 -1.935072E+04  2.245673E+04
       195  26 -2.673221E+06 -5.595278E+05 -2.069446E+05 -9.681743E+05 -3.999670E+04  2.054187E+04
       195  27 -2.756416E+06 -6.418965E+05 -2.670778E+05 -1.015678E+06 -6.004794E+04  1.703544E+04
       196   1 -1.084528E+06 -1.117540E+04  1.357932E+05 -6.043596E+05  8.688139E+04 -1.443472E+04
       196   2 -1.020710E+06  1.042776E+05  9.959251E+04 -4.874014E+05  1.464678E+05  6.863542E+03
       196   3 -1.032390E+06 -9.535786E+04 -5.697484E+04 -3.392005E+05  1.949491E+05  5.769802E+04
       196   4 -1.990937E+06 -3.129904E+05 -8.576733E+04 -8.138916E+05  7.587372E+04 -1.856846E+04
       196   5 -1.969701E+06 -2.836564E+05 -1.472212E+05 -7.805295E+05  1.558867E+05  1.039178E+04
       196   6 -2.028209E+06 -5.737704E+05 -3.454134E+05 -7.158958E+05  2.247779E+05  6.889105E+04
       196   7 -2.896547E+06 -6.147932E+05 -3.073895E+05 -1.023165E+06  6.488355E+04 -2.269730E+04
       196   8 -2.917804E+06 -6.714827E+05 -3.941099E+05 -1.073233E+06  1.652897E+05  1.391277E+04
       196   9 -3.023027E+06 -1.051924E+06 -6.339407E+05 -1.091979E+06  2.545536E+05  8.005165E+04
       196  10 -1.084536E+06 -1.117765E+04  1.357786E+05 -6.043586E+05  1.437729E-09  9.971651E-11
       196  11 -1.020733E+06  1.042718E+05  9.955204E+04 -4.874022E+05  4.154977E-11 -8.654194E-10
       196  12 -1.032432E+06 -9.537166E+04 -5.705266E+04 -3.392095E+05 -9.975496E-10 -8.926098E-10
       196  13 -1.990944E+06 -3.129923E+05 -8.577882E+04 -8.138904E+05 -1.327205E-10 -1.783785E-10
       196  14 -1.969728E+06 -2.836630E+05 -1.472672E+05 -7.805309E+05 -4.524998E-10 -1.341247E-09
       196  15 -2.028264E+06 -5.737892E+05 -3.455176E+05 -7.159083E+05  4.858331E-10  2.033432E-10
       196  16 -2.896552E+06 -6.147949E+05 -3.073984E+05 -1.023164E+06 -1.104946E-09 -6.526731E-10
       196  17 -2.917833E+06 -6.714902E+05 -3.941619E+05 -1.073235E+06 -1.351309E-09 -1.747681E-10
       196  18 -3.023099E+06 -1.051948E+06 -6.340753E+05 -1.091995E+06  3.095378E-10  2.472278E-10
       196  19 -1.084528E+06 -1.117540E+04  1.357932E+05 -6.043596E+05 -8.688139E+04  1.443472E+04
       196  20 -1.020710E+06  1.042776E+05  9.959251E+04 -4.874014E+05 -1.464678E+05 -6.863542E+03
       196  21 -1.032390E+06 -9.535786E+04 -5.697484E+04 -3.392005E+05 -1.949491E+05 -5.769802E+04
       196  22 -1.990937E+06 -3.129904E+05 -8.576733E+04 -8.138916E+05 -7.587372E+04  1.856846E+04
       196  23 -1.969701E+06 -2.836564E+05 -1.472212E+05 -7.805295E+05 -1.558867E+05 -1.039178E+04
       196  24 -2.028209E+06 -5.737704E+05 -3.454134E+05 -7.158958E+05 -2.247779E+05 -6.889105E+04
       196  25 -2.896547E+06 -6.147932E+05 -3.073895E+05 -1.023165E+06 -6.488355E+04  2.269730E+04
       196  26 -2.917804E+06 -6.714827E+05 -3.941099E+05 -1.073233E+06 -1.652897E+05 -1.391277E+04
       196  27 -3.023027E+06 -1.051924E+06 -6.339407E+05 -1.091979E+06 -2.545536E+05 -8.005165E+04
       197   1  4.600219E+04  3.417877E+04  9.665407E+04  6.351667E+04  1.913597E+05  1.124106E+04
       197   2  8.481173E+04 -2.178676E+05 -4.732229E+04  9.964789E+03  1.327425E+05  3.392035E+04
       197   3  1.998298E+05 -1.975931E+05 -8.494931E+04 -8.182359E+04  7.414692E+04  3.381681E+04
       197   4  9.463758E+05  2.576719E+05  3.162445E+05 -4.363291E+04  2.170051E+05  1.124307E+04
       197   5  9.069275E+05 -1.581203E+04  1.417151E+05 -2.435081E+04  1.413317E+05  3.391920E+04
       197   6  9.465223E+05 -1.423217E+04  8.526151E+04 -4.329937E+04  6.568967E+04  3.381219E+04
       197   7  1.847515E+06  4.811491E+05  5.357848E+05 -1.509384E+05  2.426875E+05  1.123626E+04
       197   8  1.729671E+06  1.862010E+05  3.307088E+05 -5.871235E+04  1.499320E+05  3.391710E+04
       197   9  1.693735E+06  1.690957E+05  2.554371E+05 -4.728500E+03  5.722231E+04  3.380653E+04
       197  10  4.596284E+04  3.416881E+04  9.658502E+04  6.351494E+04 -1.352104E-09  6.637095E-10
       197  11  8.479251E+04 -2.178736E+05 -4.735756E+04  9.961162E+03  3.810514E-10  1.201778E-11
       197  12  1.998236E+05 -1.975958E+05 -8.496179E+04 -8.182561E+04 -7.172499E-10 -4.425126E-11
       197  13  9.463253E+05  2.576591E+05  3.161559E+05 -4.363487E+04  5.382581E-10  3.377511E-10
       197  14  9.069058E+05 -1.581862E+04  1.416755E+05 -2.435466E+04 -1.720538E-09 -1.001963E-09
       197  15  9.465174E+05 -1.423456E+04  8.525127E+04 -4.330116E+04  8.814441E-11  1.457729E-10
       197  16  1.847451E+06  4.811332E+05  5.356742E+05 -1.509406E+05  1.721180E-09 -7.465616E-12
       197  17  1.729647E+06  1.861937E+05  3.306645E+05 -5.871644E+04 -5.200459E-10  2.154500E-10
       197  18  1.693731E+06  1.690936E+05  2.554288E+05 -4.730057E+03 -2.461737E-10 -1.601010E-10
       197  19  4.600219E+04  3.417877E+04  9.665407E+04  6.351667E+04 -1.913597E+05 -1.124106E+04
       197  20  8.481173E+04 -2.178676E+05 -4.732229E+04  9.964789E+03 -1.327425E+05 -3.392035E+04
       197  21  1.998298E+05 -1.975931E+05 -8.494931E+04 -8.182359E+04 -7.414692E+04 -3.381681E+04
       197  22  9.463758E+05  2.576719E+05  3.162445E+05 -4.363291E+04 -2.170051E+05 -1.124307E+04
       197  23  9.069275E+05 -1.581203E+04  1.417151E+05 -2.435081E+04 -1.413317E+05 -3.391920E+04
       197  24  9.465223E+05 -1.423217E+04  8.526151E+04 -4.329937E+04 -6.568967E+04 -3.381219E+04
       197  25  1.847515E+06  4.811491E+05  5.357848E+05 -1.509384E+05 -2.426875E+05 -1.123626E+04
       197  26  1.729671E+06  1.862010E+05  3.307088E+05 -5.871235E+04 -1.499320E+05 -3.391710E+04
       197  27  1.693735E+06  1.690957E+05  2.554371E+05 -4.728500E+03 -5.722231E+04 -3.380653E+04
       198   1  2.548621E+05 -1.476412E+05 -8.628135E+04 -3.731633E+04  5.457697E+04  2.898640E+04
       198   2  3.261251E+05 -1.490147E+05 -1.009373E+05 -2.294020E+04  3.703419E+04  2.646966E+04
       198   3  4.049415E+05 -1.302428E+05 -9.908675E+04 -4.657622E+04  1.948731E+04  2.288081E+04
       198   4  9.306641E+05  1.838766E+04  6.853071E+04 -4.334522E+04  5.314921E+04  2.898282E+04
       198   5  9.268432E+05 -1.500114E+03  3.632347E+04 -2.433637E+04  3.479012E+04  2.646699E+04
       198   6  9.307038E+05 -1.112444E+03  2.117583E+04 -4.333688E+04  1.642905E+04  2.287928E+04
       198   7  1.606889E+06  1.843850E+05  2.233128E+05 -4.938077E+04  5.171988E+04  2.897928E+04
       198   8  1.527895E+06  1.459895E+05  1.735606E+05 -2.573393E+04  3.254390E+04  2.646434E+04
       198   9  1.456722E+06  1.279988E+05  1.414203E+05 -4.009477E+04  1.336822E+04  2.287772E+04
       198  10  2.548587E+05 -1.476429E+05 -8.628853E+04 -3.731761E+04 -9.138603E-10 -6.743836E-10
       198  11  3.261235E+05 -1.490159E+05 -1.009412E+05 -2.294099E+04 -4.899383E-10  1.158392E-10
       198  12  4.049410E+05 -1.302435E+05 -9.908845E+04 -4.657658E+04 -5.583819E-11 -2.038583E-10
       198  13  9.306608E+05  1.838600E+04  6.852383E+04 -4.334646E+04 -1.657822E-11 -4.092819E-10
       198  14  9.268418E+05 -1.501191E+03  3.631988E+04 -2.433711E+04  2.135778E-10 -4.368813E-10
       198  15  9.307034E+05 -1.113079E+03  2.117434E+04 -4.333718E+04  1.783037E-10 -2.224609E-10
       198  16  1.606886E+06  1.843833E+05  2.233062E+05 -4.938197E+04  1.344393E-09  8.183875E-11
       198  17  1.527894E+06  1.459885E+05  1.735573E+05 -2.573462E+04 -1.269985E-09 -9.850701E-10
       198  18  1.456722E+06  1.279982E+05  1.414190E+05 -4.009501E+04  5.411282E-10 -1.773733E-10
       198  19  2.548621E+05 -1.476412E+05 -8.628135E+04 -3.731633E+04 -5.457697E+04 -2.898640E+04
       198  20  3.261251E+05 -1.490147E+05 -1.009373E+05 -2.294020E+04 -3.703419E+04 -2.646966E+04
       198  21  4.049415E+05 -1.302428E+05 -9.908675E+04 -4.657622E+04 -1.948731E+04 -2.288081E+04
       198  22  9.306641E+05  1.838766E+04  6.853071E+04 -4.334522E+04 -5.314921E+04 -2.898282E+04
       198  23  9.268432E+05 -1.500114E+03  3.632347E+04 -2.433637E+04 -3.479012E+04 -2.646699E+04
       198  24  9.307038E+05 -1.112444E+03  2.117583E+04 -4.333688E+04 -1.642905E+04 -2.287928E+04
       198  25  1.606889E+06  1.843850E+05  2.233128E+05 -4.938077E+04 -5.171988E+04 -2.897928E+04
       198  26  1.527895E+06  1.459895E+05  1.735606E+05 -2.573393E+04 -3.254390E+04 -2.646434E+04
       198  27  1.456722E+06  1.279988E+05  1.414203E+05 -4.009477E+04 -1.336822E+04 -2.287772E+04
       199   1  4.729718E+05 -1.107876E+05 -8.767340E+04 -4.317182E+04  1.583573E+04  2.057524E+04
       199   2  5.464599E+05 -9.404438E+04 -7.810818E+04 -2.456166E+04  1.129611E+04  1.690703E+04
       199   3  6.209884E+05 -7.579394E+04 -6.519730E+04 -4.348428E+04  6.753747E+03  1.320036E+04
       199   4  9.292430E+05  1.200102E+03  1.634029E+04 -4.323283E+04  1.312546E+04  2.057425E+04
       199   5  9.287329E+05 -1.911304E+02  9.192376E+03 -2.446729E+04  8.553976E+03  1.690676E+04
       199   6  9.292612E+05 -7.044678E+01  5.410113E+03 -4.323307E+04  3.980276E+03  1.320084E+04
       199   7  1.385707E+06  1.131734E+05  1.203405E+05 -4.329389E+04  1.041322E+04  2.057327E+04
       199   8  1.311141E+06  9.365199E+04  9.648342E+04 -2.437285E+04  5.810166E+03  1.690650E+04
       199   9  1.237622E+06  7.564645E+04  7.601132E+04 -4.298173E+04  1.205441E+03  1.320132E+04
       199  10  4.729714E+05 -1.107881E+05 -8.767467E+04 -4.317208E+04  4.181178E-10 -1.992887E-12
       199  11  5.464597E+05 -9.404472E+04 -7.810896E+04 -2.456182E+04 -7.655496E-10  2.845578E-10
       199  12  6.209883E+05 -7.579414E+04 -6.519772E+04 -4.348435E+04 -9.754287E-10  6.636771E-10
       199  13  9.292427E+05  1.199602E+03  1.633917E+04 -4.323305E+04 -1.111064E-09 -9.092735E-11
       199  14  9.287327E+05 -1.914570E+02  9.191702E+03 -2.446740E+04  1.527978E-09 -1.036182E-10
       199  15  9.292612E+05 -7.063824E+01  5.409755E+03 -4.323311E+04  2.925164E-09  4.843764E-10
       199  16  1.385707E+06  1.131729E+05  1.203395E+05 -4.329406E+04  9.891811E-10 -1.077535E-10
       199  17  1.311141E+06  9.365168E+04  9.648281E+04 -2.437293E+04  9.811067E-10 -2.765354E-10
       199  18  1.237622E+06  7.564626E+04  7.601099E+04 -4.298175E+04  2.490650E-09  7.063794E-10
       199  19  4.729718E+05 -1.107876E+05 -8.767340E+04 -4.317182E+04 -1.583573E+04 -2.057524E+04
       199  20  5.464599E+05 -9.404438E+04 -7.810818E+04 -2.456166E+04 -1.129611E+04 -1.690703E+04
       199  21  6.209884E+05 -7.579394E+04 -6.519730E+04 -4.348428E+04 -6.753747E+03 -1.320036E+04
       199  22  9.292430E+05  1.200102E+03  1.634029E+04 -4.323283E+04 -1.312546E+04 -2.057425E+04
       199  23  9.287329E+05 -1.911304E+02  9.192376E+03 -2.446729E+04 -8.553976E+03 -1.690676E+04
       199  24  9.292612E+05 -7.044678E+01  5.410113E+03 -4.323307E+04 -3.980276E+03 -1.320084E+04
       199  25  1.385707E+06  1.131734E+05  1.203405E+05 -4.329389E+04 -1.041322E+04 -2.057327E+04
       199  26  1.311141E+06  9.365199E+04  9.648342E+04 -2.437285E+04 -5.810166E+03 -1.690650E+04
       199  27  1.237622E+06  7.564645E+04  7.601132E+04 -4.298173E+04 -1.205441E+03 -1.320132E+04
       200   1  6.895556E+05 -5.868089E+04 -5.027725E+04 -4.319212E+04  5.864569E+03  1.103889E+04
       200   2  7.629099E+05 -4.078600E+04 -3.529140E+04 -2.455482E+04  4.559238E+03  7.345776E+03
       200   3  8.364525E+05 -2.274834E+04 -1.942631E+04 -4.315848E+04  3.252817E+03  3.656217E+03
       200   4  9.290803E+05  7.722191E+01  4.202264E+03 -4.316834E+04  3.113561E+03  1.103970E+04
       200   5  9.289925E+05 -1.604792E+01  2.631206E+03 -2.454819E+04  1.810286E+03  7.346890E+03
       200   6  9.290874E+05  3.334537E+01  1.937890E+03 -4.316839E+04  5.060725E+02  3.657656E+03
       200   7  1.168658E+06  5.883138E+04  5.867808E+04 -4.314454E+04  3.615015E+02  1.104051E+04
       200   8  1.095101E+06  4.075200E+04  4.055204E+04 -2.454156E+04 -9.393951E+02  7.348004E+03
       200   9  1.021730E+06  2.281444E+04  2.330155E+04 -4.317830E+04 -2.241079E+03  3.659096E+03
       200  10  6.895555E+05 -5.868103E+04 -5.027754E+04 -4.319217E+04  8.503884E-10  3.819097E-10
       200  11  7.629098E+05 -4.078606E+04 -3.529155E+04 -2.455485E+04  6.284959E-10  1.712942E-10
       200  12  8.364525E+05 -2.274836E+04 -1.942635E+04 -4.315848E+04 -4.792512E-10  9.701529E-11
       200  13  9.290802E+05  7.708838E+01  4.202017E+03 -4.316837E+04  1.768926E-09  7.130055E-10
       200  14  9.289924E+05 -1.610679E+01  2.631098E+03 -2.454821E+04  2.635884E-09 -6.805166E-10
       200  15  9.290874E+05  3.333093E+01  1.937864E+03 -4.316839E+04 -2.015193E-10 -2.883940E-10
       200  16  1.168658E+06  5.883125E+04  5.867786E+04 -4.314455E+04  1.507315E-09 -7.338071E-11
       200  17  1.095101E+06  4.075194E+04  4.055194E+04 -2.454155E+04  1.193487E-09 -7.117341E-10
       200  18  1.021730E+06  2.281442E+04  2.330151E+04 -4.317829E+04  1.455450E-09 -3.509545E-10
       200  19  6.895556E+05 -5.868089E+04 -5.027725E+04 -4.319212E+04 -5.864569E+03 -1.103889E+04
       200  20  7.629099E+05 -4.078600E+04 -3.529140E+04 -2.455482E+04 -4.559238E+03 -7.345776E+03
       200  21  8.364525E+05 -2.274834E+04 -1.942631E+04 -4.315848E+04 -3.252817E+03 -3.656217E+03
       200  22  9.290803E+05  7.722191E+01  4.202264E+03 -4.316834E+04 -3.113561E+03 -1.103970E+04
       200  23  9.289925E+05 -1.604792E+01  2.631206E+03 -2.454819E+04 -1.810286E+03 -7.346890E+03
       200  24  9.290874E+05  3.334537E+01  1.937890E+03 -4.316839E+04 -5.060725E+02 -3.657656E+03
       200  25  1.168658E+06  5.883138E+04  5.867808E+04 -4.314454E+04 -3.615015E+02 -1.104051E+04
       200  26  1.095101E+06  4.075200E+04  4.055204E+04 -2.454156E+04  9.393951E+02 -7.348004E+03
       200  27  1.021730E+06  2.281444E+04  2.330155E+04 -4.317830E+04  2.241079E+03 -3.659096E+03
       201   1  9.048769E+05 -5.861669E+03 -3.488253E+03 -4.314802E+04  2.909243E+03  1.510657E+03
       201   2  9.781535E+05  1.206105E+04  1.323186E+04 -2.455784E+04  1.911050E+03 -2.174516E+03
       201   3  1.051550E+06  3.009125E+04  3.061754E+04 -4.314628E+04  9.130325E+02 -5.859379E+03
       201   4  9.290744E+05  3.503191E+01  1.822425E+03 -4.315471E+04  1.638335E+02  1.512167E+03
       201   5  9.290155E+05  2.336222E-01  2.013276E+03 -2.456529E+04 -8.342108E+02 -2.173111E+03
       201   6  9.290722E+05  7.351910E+01  2.870156E+03 -4.315468E+04 -1.831963E+03 -5.858057E+03
       201   7  9.532726E+05  5.931697E+03  7.133096E+03 -4.316140E+04 -2.581682E+03  1.513677E+03
       201   8  8.798798E+05 -1.206075E+04 -9.205439E+03 -2.457274E+04 -3.579256E+03 -2.171705E+03
       201   9  8.066088E+05 -2.994524E+04 -2.487817E+04 -4.316307E+04 -4.576423E+03 -5.856734E+03
       201  10  9.048769E+05 -5.861673E+03 -3.488273E+03 -4.314803E+04  7.158827E-10 -5.151548E-11
       201  11  9.781535E+05  1.206105E+04  1.323185E+04 -2.455784E+04 -2.589222E-09 -2.922666E-10
       201  12  1.051550E+06  3.009121E+04  3.061748E+04 -4.314627E+04 -6.830770E-09 -5.774558E-10
       201  13  9.290744E+05  3.502944E+01  1.822421E+03 -4.315471E+04 -3.187473E-10  9.561694E-10
       201  14  9.290155E+05  2.283624E-01  2.013266E+03 -2.456529E+04 -1.351711E-09  7.579618E-10
       201  15  9.290722E+05  7.348133E+01  2.870085E+03 -4.315469E+04 -5.846677E-10 -1.294763E-09
       201  16  9.532726E+05  5.931693E+03  7.133079E+03 -4.316139E+04 -1.697593E-10  9.057048E-10
       201  17  8.798798E+05 -1.206076E+04 -9.205472E+03 -2.457275E+04  2.269141E-09  1.078801E-09
       201  18  8.066088E+05 -2.994528E+04 -2.487827E+04 -4.316310E+04  6.498495E-09 -8.890517E-10
       201  19  9.048769E+05 -5.861669E+03 -3.488253E+03 -4.314802E+04 -2.909243E+03 -1.510657E+03
       201  20  9.781535E+05  1.206105E+04  1.323186E+04 -2.455784E+04 -1.911050E+03  2.174516E+03
       201  21  1.051550E+06  3.009125E+04  3.061754E+04 -4.314628E+04 -9.130325E+02  5.859379E+03
       201  22  9.290744E+05  3.503191E+01  1.822425E+03 -4.315471E+04 -1.638335E+02 -1.512167E+03
       201  23  9.290155E+05  2.336222E-01  2.013276E+03 -2.456529E+04  8.342108E+02  2.173111E+03
       201  24  9.290722E+05  7.351910E+01  2.870156E+03 -4.315468E+04  1.831963E+03  5.858057E+03
       201  25  9.532726E+05  5.931697E+03  7.133096E+03 -4.316140E+04  2.581682E+03 -1.513677E+03
       201  26  8.798798E+05 -1.206075E+04 -9.205439E+03 -2.457274E+04  3.579256E+03  2.171705E+03
       201  27  8.066088E+05 -2.994524E+04 -2.487817E+04 -4.316307E+04  4.576423E+03  5.856734E+03
       202   1  1.120209E+06  4.690388E+04  4.741275E+04 -4.305434E+04  3.473712E+02 -8.012353E+03
       202   2  1.193558E+06  6.485617E+04  6.636692E+04 -2.450270E+04 -2.636538E+03 -1.170216E+04
       202   3  1.267555E+06  8.378936E+04  8.750695E+04 -4.328961E+04 -5.619343E+03 -1.535574E+04
       202   4  9.291830E+05 -2.120135E+01  3.592315E+03 -4.319049E+04 -2.415589E+03 -8.011213E+03
       202   5  9.288580E+05 -1.059830E+02  5.939907E+03 -2.452057E+04 -5.371533E+03 -1.170155E+04
       202   6  9.291706E+05  7.857387E+02  1.045472E+04 -4.319017E+04 -8.326027E+03 -1.535563E+04
       202   7  7.381911E+05 -4.694882E+04 -4.023049E+04 -4.332659E+04 -5.177708E+03 -8.010073E+03
       202   8  6.642229E+05 -6.507298E+04 -5.449166E+04 -2.453843E+04 -8.105374E+03 -1.170093E+04
       202   9  5.908918E+05 -8.222579E+04 -6.660492E+04 -4.309077E+04 -1.103125E+04 -1.535552E+04
       202  10  1.120209E+06  4.690382E+04  4.741263E+04 -4.305434E+04  4.023993E-09 -1.767534E-10
       202  11  1.193558E+06  6.485602E+04  6.636665E+04 -2.450272E+04  3.020226E-09  2.444328E-11
       202  12  1.267555E+06  8.378910E+04  8.750645E+04 -4.328968E+04 -8.417981E-10  1.383330E-09
       202  13  9.291829E+05 -2.127186E+01  3.592184E+03 -4.319050E+04 -1.826073E-09 -1.199578E-09
       202  14  9.288579E+05 -1.061379E+02  5.939595E+03 -2.452062E+04 -5.621345E-12 -4.510313E-10
       202  15  9.291704E+05  7.854668E+02  1.045415E+04 -4.319027E+04 -2.715816E-10  1.235801E-09
       202  16  7.381911E+05 -4.694890E+04 -4.023066E+04 -4.332662E+04 -6.009180E-09 -6.480586E-10
       202  17  6.642228E+05 -6.507315E+04 -5.449204E+04 -2.453850E+04 -4.483729E-09 -3.309084E-10
       202  18  5.908916E+05 -8.222608E+04 -6.660559E+04 -4.309091E+04  1.884061E-09  7.243329E-10
       202  19  1.120209E+06  4.690388E+04  4.741275E+04 -4.305434E+04 -3.473712E+02  8.012353E+03
       202  20  1.193558E+06  6.485617E+04  6.636692E+04 -2.450270E+04  2.636538E+03  1.170216E+04
       202  21  1.267555E+06  8.378936E+04  8.750695E+04 -4.328961E+04  5.619343E+03  1.535574E+04
       202  22  9.291830E+05 -2.120135E+01  3.592315E+03 -4.319049E+04  2.415589E+03  8.011213E+03
       202  23  9.288580E+05 -1.059830E+02  5.939907E+03 -2.452057E+04  5.371533E+03  1.170155E+04
       202  24  9.291706E+05  7.857387E+02  1.045472E+04 -4.319017E+04  8.326027E+03  1.535563E+04
       202  25  7.381911E+05 -4.694882E+04 -4.023049E+04 -4.332659E+04  5.177708E+03  8.010073E+03
       202  26  6.642229E+05 -6.507298E+04 -5.449166E+04 -2.453843E+04  8.105374E+03  1.170093E+04
       202  27  5.908918E+05 -8.222579E+04 -6.660492E+04 -4.309077E+04  1.103125E+04  1.535552E+04
       203   1  1.337576E+06  9.934202E+04  1.067210E+05 -4.128243E+04 -7.429317E+03 -1.762849E+04
       203   2  1.409537E+06  1.173118E+05  1.331951E+05 -2.539419E+04 -1.983939E+04 -2.120336E+04
       203   3  1.486504E+06  1.483218E+05  1.710224E+05 -4.720881E+04 -3.224868E+04 -2.384287E+04
       203   4  9.301021E+05 -6.871581E+02  1.352339E+04 -4.327108E+04 -1.043824E+04 -1.762876E+04
       203   5  9.276463E+05 -9.473974E+02  2.315336E+04 -2.441956E+04 -2.214313E+04 -2.120463E+04
       203   6  9.300727E+05  1.171685E+04  4.365435E+04 -4.327236E+04 -3.384579E+04 -2.384492E+04
       203   7  5.227820E+05 -1.007278E+05 -7.968502E+04 -4.525840E+04 -1.344521E+04 -1.762901E+04
       203   8  4.459700E+05 -1.192227E+05 -8.690353E+04 -2.344568E+04 -2.444511E+04 -2.120591E+04
       203   9  3.739279E+05 -1.249095E+05 -8.373396E+04 -3.933947E+04 -3.544148E+04 -2.384699E+04
       203  10  1.337576E+06  9.934167E+04  1.067203E+05 -4.128254E+04  2.350235E-09  1.007711E-09
       203  11  1.409537E+06  1.173112E+05  1.331935E+05 -2.539453E+04 -2.791935E-09 -4.974227E-10
       203  12  1.486502E+06  1.483209E+05  1.710193E+05 -4.720943E+04 -7.411118E-09 -1.068475E-09
       203  13  9.301019E+05 -6.875212E+02  1.352261E+04 -4.327122E+04  5.050000E-10  9.717869E-10
       203  14  9.276456E+05 -9.480119E+02  2.315159E+04 -2.441993E+04  1.610248E-10 -1.927377E-10
       203  15  9.300713E+05  1.171593E+04  4.365113E+04 -4.327301E+04  8.979145E-10 -6.838944E-10
       203  16  5.227817E+05 -1.007282E+05 -7.968594E+04 -4.525859E+04 -1.829342E-09  8.244098E-10
       203  17  4.459692E+05 -1.192233E+05 -8.690550E+04 -2.344610E+04  2.407339E-09  1.353425E-10
       203  18  3.739264E+05 -1.249105E+05 -8.373739E+04 -3.934015E+04  6.681394E-09  3.097486E-11
       203  19  1.337576E+06  9.934202E+04  1.067210E+05 -4.128243E+04  7.429317E+03  1.762849E+04
       203  20  1.409537E+06  1.173118E+05  1.331951E+05 -2.539419E+04  1.983939E+04  2.120336E+04
       203  21  1.486504E+06  1.483218E+05  1.710224E+05 -4.720881E+04  3.224868E+04  2.384287E+04
       203  22  9.301021E+05 -6.871581E+02  1.352339E+04 -4.327108E+04  1.043824E+04  1.762876E+04
       203  23  9.276463E+05 -9.473974E+02  2.315336E+04 -2.441956E+04  2.214313E+04  2.120463E+04
       203  24  9.300727E+05  1.171685E+04  4.365435E+04 -4.327236E+04  3.384579E+04  2.384492E+04
       203  25  5.227820E+05 -1.007278E+05 -7.968502E+04 -4.525840E+04  1.344521E+04  1.762901E+04
       203  26  4.459700E+05 -1.192227E+05 -8.690353E+04 -2.344568E+04  2.444511E+04  2.120591E+04
       203  27  3.739279E+05 -1.249095E+05 -8.373396E+04 -3.933947E+04  3.544148E+04  2.384699E+04
       204   1  1.566920E+06  1.446871E+05  1.970681E+05 -1.877669E+04 -3.411670E+04 -2.830060E+04
       204   2  1.616392E+06  1.622078E+05  2.514137E+05 -4.640447E+04 -9.710923E+04 -2.881041E+04
       204   3  1.718753E+06  3.573922E+05  3.911789E+05 -1.117783E+05 -1.601282E+05 -9.500800E+03
       204   4  9.401770E+05 -9.059403E+03  5.430708E+04 -4.324414E+04 -4.183434E+04 -2.830406E+04
       204   5  9.149391E+05 -1.008204E+04  9.024189E+04 -2.444061E+04 -9.000882E+04 -2.881144E+04
       204   6  9.400738E+05  1.640917E+05  2.013809E+05 -4.337840E+04 -1.382007E+05 -9.498833E+03
       204   7  3.137992E+05 -1.628307E+05 -8.847893E+04 -6.768674E+04 -4.954426E+04 -2.830691E+04
       204   8  2.139413E+05 -1.824043E+05 -7.096191E+04 -2.501769E+03 -8.291630E+04 -2.881196E+04
       204   9  1.619579E+05 -2.923558E+04  1.154334E+04  2.493563E+04 -1.163004E+05 -9.492053E+03
       204  10  1.566918E+06  1.446859E+05  1.970644E+05 -1.877747E+04  6.160752E-09 -5.264099E-10
       204  11  1.616382E+06  1.622044E+05  2.513944E+05 -4.640672E+04  3.674851E-09  7.895805E-11
       204  12  1.718725E+06  3.573852E+05  3.911306E+05 -1.117796E+05 -4.650801E-10  5.437526E-10
       204  13  9.401749E+05 -9.060733E+03  5.430229E+04 -4.324509E+04 -6.512649E-10 -1.202661E-09
       204  14  9.149302E+05 -1.008510E+04  9.022513E+04 -2.444270E+04 -1.705775E-09 -1.251155E-10
       204  15  9.400533E+05  1.640864E+05  2.013449E+05 -4.337946E+04  8.700554E-10 -3.684389E-10
       204  16  3.137964E+05 -1.628323E+05 -8.848505E+04 -6.768787E+04 -5.475416E-09 -3.238360E-10
       204  17  2.139337E+05 -1.824070E+05 -7.097639E+04 -2.503693E+03 -4.154989E-09 -7.134257E-10
       204  18  1.619433E+05 -2.923931E+04  1.151776E+04  2.493474E+04 -3.498754E-10  6.480165E-10
       204  19  1.566920E+06  1.446871E+05  1.970681E+05 -1.877669E+04  3.411670E+04  2.830060E+04
       204  20  1.616392E+06  1.622078E+05  2.514137E+05 -4.640447E+04  9.710923E+04  2.881041E+04
       204  21  1.718753E+06  3.573922E+05  3.911789E+05 -1.117783E+05  1.601282E+05  9.500800E+03
       204  22  9.401770E+05 -9.059403E+03  5.430708E+04 -4.324414E+04  4.183434E+04  2.830406E+04
       204  23  9.149391E+05 -1.008204E+04  9.024189E+04 -2.444061E+04  9.000882E+04  2.881144E+04
       204  24  9.400738E+05  1.640917E+05  2.013809E+05 -4.337840E+04  1.382007E+05  9.498833E+03
       204  25  3.137992E+05 -1.628307E+05 -8.847893E+04 -6.768674E+04  4.954426E+04  2.830691E+04
       204  26  2.139413E+05 -1.824043E+05 -7.096191E+04 -2.501769E+03  8.291630E+04  2.881196E+04
       204  27  1.619579E+05 -2.923558E+04  1.154334E+04  2.493563E+04  1.163004E+05  9.492053E+03
       205   1  5.323748E+05  1.649849E+06  5.216520E+05 -5.357897E+05  1.958385E+04  1.580680E+05
       205   2  3.416952E+05  1.146527E+06  3.151602E+05 -4.549362E+05  5.850039E+04  5.948943E+04
       205   3  2.094426E+05  6.705320E+05  1.872954E+05 -4.838864E+05  5.096147E+04 -3.908426E+04
       205   4  7.583709E+04 -1.941239E+05  8.256096E+04 -4.862668E+05  1.985464E+04  5.530363E+04
       205   5  1.756798E+04 -2.008130E+05  4.174910E+04 -4.314567E+05  5.858123E+04  3.388075E+04
       205   6  4.438021E+03 -1.937042E+05  2.612415E+04 -4.864444E+05  5.081433E+04  1.238249E+04
       205   7 -3.809317E+05 -2.034955E+06 -3.567277E+05 -4.368883E+05  2.010958E+04 -4.715775E+04
       205   8 -3.066700E+05 -1.546424E+06 -2.317539E+05 -4.080274E+05  5.866025E+04  8.326468E+03
       205   9 -2.006081E+05 -1.057212E+06 -1.350690E+05 -4.889980E+05  5.066663E+04  6.377947E+04
       205  10  5.323677E+05  1.649822E+06  5.216044E+05 -5.357922E+05  1.444271E-10 -7.980717E-10
       205  11  3.416906E+05  1.146522E+06  3.151471E+05 -4.549390E+05 -1.128529E-09 -9.616032E-10
       205  12  2.094394E+05  6.705296E+05  1.872876E+05 -4.838848E+05  1.901504E-10 -7.217660E-10
       205  13  7.583585E+04 -1.941273E+05  8.255447E+04 -4.862677E+05 -5.580878E-10  3.661730E-11
       205  14  1.756398E+04 -2.008152E+05  4.174049E+04 -4.314583E+05 -4.463013E-10  1.123432E-09
       205  15  4.435207E+03 -1.937050E+05  2.611901E+04 -4.864449E+05 -7.854286E-10 -4.261887E-10
       205  16 -3.809327E+05 -2.034957E+06 -3.567326E+05 -4.368876E+05 -6.310896E-10  7.578968E-10
       205  17 -3.066737E+05 -1.546425E+06 -2.317605E+05 -4.080278E+05  9.349520E-10  7.747682E-10
       205  18 -2.006120E+05 -1.057217E+06 -1.350815E+05 -4.890006E+05 -1.463387E-09  1.651798E-09
       205  19  5.323748E+05  1.649849E+06  5.216520E+05 -5.357897E+05 -1.958385E+04 -1.580680E+05
       205  20  3.416952E+05  1.146527E+06  3.151602E+05 -4.549362E+05 -5.850039E+04 -5.948943E+04
       205  21  2.094426E+05  6.705320E+05  1.872954E+05 -4.838864E+05 -5.096147E+04  3.908426E+04
       205  22  7.583709E+04 -1.941239E+05  8.256096E+04 -4.862668E+05 -1.985464E+04 -5.530363E+04
       205  23  1.756798E+04 -2.008130E+05  4.174910E+04 -4.314567E+05 -5.858123E+04 -3.388075E+04
       205  24  4.438021E+03 -1.937042E+05  2.612415E+04 -4.864444E+05 -5.081433E+04 -1.238249E+04
       205  25 -3.809317E+05 -2.034955E+06 -3.567277E+05 -4.368883E+05 -2.010958E+04  4.715775E+04
       205  26 -3.066700E+05 -1.546424E+06 -2.317539E+05 -4.080274E+05 -5.866025E+04 -8.326468E+03
       205  27 -2.006081E+05 -1.057212E+06 -1.350690E+05 -4.889980E+05 -5.066663E+04 -6.377947E+04
       206   1  1.343063E+05  3.453494E+05  1.235927E+05 -4.900964E+05  3.183056E+04 -3.769581E+04
       206   2  1.557130E+04 -1.449534E+05  2.855500E+04 -4.308038E+05  3.807206E+03 -4.780257E+04
       206   3 -9.770902E+04 -6.329320E+05 -5.871678E+04 -4.841202E+05 -2.442882E+04 -5.790345E+04
       206   4  5.746701E+03 -1.962316E+05  2.240134E+04 -4.870476E+05  3.169125E+04  8.590701E+03
       206   5  3.287208E+03 -1.972388E+05  1.942648E+04 -4.307432E+05  3.666315E+03 -1.176983E+03
       206   6  6.235030E+03 -1.962146E+05  2.398249E+04 -4.870462E+05 -2.457171E+04 -1.094629E+04
       206   7 -1.228287E+05 -7.375244E+05 -7.879459E+04 -4.840012E+05  3.155231E+04  5.483786E+04
       206   8 -8.995861E+03 -2.495169E+05  1.030603E+04 -4.306826E+05  3.525427E+03  4.544479E+04
       206   9  1.101691E+05  2.406916E+05  1.066816E+05 -4.899742E+05 -2.471498E+04  3.604313E+04
       206  10  1.343049E+05  3.453477E+05  1.235882E+05 -4.900955E+05  1.167786E-10  3.650187E-09
       206  11  1.557067E+04 -1.449559E+05  2.855068E+04 -4.308037E+05  5.425144E-11 -1.016785E-08
       206  12 -9.771057E+04 -6.329357E+05 -5.872422E+04 -4.841213E+05  1.045757E-09 -2.198346E-08
       206  13  5.745603E+03 -1.962320E+05  2.239931E+04 -4.870478E+05 -7.550286E-10  1.452776E-10
       206  14  3.287193E+03 -1.972388E+05  1.942645E+04 -4.307432E+05 -2.630143E-09  1.110284E-09
       206  15  6.234349E+03 -1.962149E+05  2.398113E+04 -4.870465E+05  9.948327E-10 -4.787313E-10
       206  16 -1.228306E+05 -7.375279E+05 -7.880212E+04 -4.840026E+05 -1.092071E-09 -3.726137E-09
       206  17 -8.996430E+03 -2.495191E+05  1.030213E+04 -4.306827E+05 -8.066584E-10  9.504782E-09
       206  18  1.101681E+05  2.406901E+05  1.066780E+05 -4.899735E+05  1.539954E-09  2.313011E-08
       206  19  1.343063E+05  3.453494E+05  1.235927E+05 -4.900964E+05 -3.183056E+04  3.769581E+04
       206  20  1.557130E+04 -1.449534E+05  2.855500E+04 -4.308038E+05 -3.807206E+03  4.780257E+04
       206  21 -9.770902E+04 -6.329320E+05 -5.871678E+04 -4.841202E+05  2.442882E+04  5.790345E+04
       206  22  5.746701E+03 -1.962316E+05  2.240134E+04 -4.870476E+05 -3.169125E+04 -8.590701E+03
       206  23  3.287208E+03 -1.972388E+05  1.942648E+04 -4.307432E+05 -3.666315E+03  1.176983E+03
       206  24  6.235030E+03 -1.962146E+05  2.398249E+04 -4.870462E+05  2.457171E+04  1.094629E+04
       206  25 -1.228287E+05 -7.375244E+05 -7.879459E+04 -4.840012E+05 -3.155231E+04 -5.483786E+04
       206  26 -8.995861E+03 -2.495169E+05  1.030603E+04 -4.306826E+05 -3.525427E+03 -4.544479E+04
       206  27  1.101691E+05  2.406916E+05  1.066816E+05 -4.899742E+05  2.471498E+04 -3.604313E+04
       207   1 -1.756002E+05 -9.521378E+05 -1.139586E+05 -4.898828E+05 -4.364757E+04 -6.680870E+04
       207   2 -2.795331E+05 -1.442603E+06 -2.064417E+05 -4.053555E+05 -5.309171E+04 -1.811417E+04
       207   3 -3.449971E+05 -1.929876E+06 -3.211471E+05 -4.308257E+05 -1.846351E+04  3.061665E+04
       207   4  4.758469E+03 -1.932753E+05  2.859584E+04 -4.864833E+05 -4.379959E+04 -1.502221E+04
       207   5  1.980496E+04 -2.012647E+05  4.692450E+04 -4.314000E+05 -5.302490E+04 -3.920824E+04
       207   6  8.594506E+04 -1.936611E+05  9.366844E+04 -4.862784E+05 -1.822283E+04 -6.331961E+04
       207   7  1.850853E+05  5.661503E+05  1.711353E+05 -4.830790E+05 -4.395093E+04  3.682608E+04
       207   8  3.190491E+05  1.041543E+06  3.002115E+05 -4.574963E+05 -5.295641E+04 -6.034373E+04
       207   9  5.166845E+05  1.545349E+06  5.083063E+05 -5.418846E+05 -1.796576E+04 -1.575178E+05
       207  10 -1.756035E+05 -9.521431E+05 -1.139706E+05 -4.898852E+05  2.341152E-09  2.263844E-08
       207  11 -2.795362E+05 -1.442604E+06 -2.064477E+05 -4.053563E+05  2.587328E-09  9.487726E-09
       207  12 -3.449977E+05 -1.929877E+06 -3.211495E+05 -4.308252E+05  7.737299E-10 -5.485897E-09
       207  13  4.756348E+03 -1.932761E+05  2.859181E+04 -4.864839E+05  2.252677E-09  9.489223E-12
       207  14  1.980153E+04 -2.012672E+05  4.691632E+04 -4.314017E+05 -9.426276E-10  1.185139E-09
       207  15  8.594363E+04 -1.936655E+05  9.366028E+04 -4.862793E+05  1.277556E-09 -3.514337E-10
       207  16  1.850828E+05  5.661483E+05  1.711291E+05 -4.830776E+05  5.649667E-10 -2.246972E-08
       207  17  3.190451E+05  1.041539E+06  3.001994E+05 -4.574988E+05  8.814798E-10 -1.007852E-08
       207  18  5.166775E+05  1.545322E+06  5.082591E+05 -5.418869E+05  5.652997E-10  6.373682E-09
       207  19 -1.756002E+05 -9.521378E+05 -1.139586E+05 -4.898828E+05  4.364757E+04  6.680870E+04
       207  20 -2.795331E+05 -1.442603E+06 -2.064417E+05 -4.053555E+05  5.309171E+04  1.811417E+04
       207  21 -3.449971E+05 -1.929876E+06 -3.211471E+05 -4.308257E+05  1.846351E+04 -3.061665E+04
       207  22  4.758469E+03 -1.932753E+05  2.859584E+04 -4.864833E+05  4.379959E+04  1.502221E+04
       207  23  1.980496E+04 -2.012647E+05  4.692450E+04 -4.314000E+05  5.302490E+04  3.920824E+04
       207  24  8.594506E+04 -1.936611E+05  9.366844E+04 -4.862784E+05  1.822283E+04  6.331961E+04
       207  25  1.850853E+05  5.661503E+05  1.711353E+05 -4.830790E+05  4.395093E+04 -3.682608E+04
       207  26  3.190491E+05  1.041543E+06  3.002115E+05 -4.574963E+05  5.295641E+04  6.034373E+04
       207  27  5.166845E+05  1.545349E+06  5.083063E+05 -5.418846E+05  1.796576E+04  1.575178E+05
       208   1 -2.324136E+06 -9.075203E+05 -4.902597E+05 -8.859839E+05 -1.876824E+05 -4.570888E+04
       208   2 -2.198068E+06 -7.383038E+05 -3.339874E+05 -8.369972E+05 -1.192633E+05  3.701980E+04
       208   3 -2.087115E+06 -6.616188E+05 -2.616145E+05 -7.986297E+05 -3.611820E+04  8.075872E+04
       208   4 -9.036892E+05 -3.185948E+05 -1.118416E+05 -4.408311E+05 -8.050807E+04 -5.385722E+03
       208   5 -8.959270E+05 -2.349413E+05 -5.157927E+04 -4.518028E+05 -7.228773E+04  5.466910E+04
       208   6 -8.912606E+05 -2.317783E+05 -2.731777E+04 -4.734177E+05 -4.937972E+04  7.575747E+04
       208   7  5.187255E+05  2.705773E+05  2.664389E+05  5.285653E+03  2.693291E+04  3.506182E+04
       208   8  4.079464E+05  2.686064E+05  2.307364E+05 -6.584574E+04 -2.520579E+04  7.236304E+04
       208   9  3.060935E+05  1.981833E+05  2.069189E+05 -1.476242E+05 -6.266889E+04  7.074622E+04
       208  10 -2.324174E+06 -9.075321E+05 -4.903301E+05 -8.859908E+05  2.892829E-10  3.013805E-10
       208  11 -2.198084E+06 -7.383091E+05 -3.340167E+05 -8.369937E+05  1.173620E-09 -7.386078E-10
       208  12 -2.087118E+06 -6.616261E+05 -2.616292E+05 -7.986273E+05  1.238374E-09 -1.002700E-09
       208  13 -9.036961E+05 -3.185966E+05 -1.118539E+05 -4.408315E+05  9.686547E-10  4.653713E-10
       208  14 -8.959334E+05 -2.349459E+05 -5.159470E+04 -4.517996E+05 -1.499064E-09 -4.266525E-10
       208  15 -8.912648E+05 -2.317851E+05 -2.733313E+04 -4.734147E+05 -3.838704E-10 -8.455148E-10
       208  16  5.187244E+05  2.705757E+05  2.664352E+05  5.284893E+03 -1.669790E-09 -1.056313E-09
       208  17  4.079444E+05  2.686006E+05  2.307253E+05 -6.584427E+04 -8.567568E-10 -1.146749E-09
       208  18  3.060879E+05  1.981769E+05  2.069022E+05 -1.476207E+05 -3.025325E-11 -1.430305E-09
       208  19 -2.324136E+06 -9.075203E+05 -4.902597E+05 -8.859839E+05  1.876824E+05  4.570888E+04
       208  20 -2.198068E+06 -7.383038E+05 -3.339874E+05 -8.369972E+05  1.192633E+05 -3.701980E+04
       208  21 -2.087115E+06 -6.616188E+05 -2.616145E+05 -7.986297E+05  3.611820E+04 -8.075872E+04
       208  22 -9.036892E+05 -3.185948E+05 -1.118416E+05 -4.408311E+05  8.050807E+04  5.385722E+03
       208  23 -8.959270E+05 -2.349413E+05 -5.157927E+04 -4.518028E+05  7.228773E+04 -5.466910E+04
       208  24 -8.912606E+05 -2.317783E+05 -2.731777E+04 -4.734177E+05  4.937972E+04 -7.575747E+04
       208  25  5.187255E+05  2.705773E+05  2.664389E+05  5.285653E+03 -2.693291E+04 -3.506182E+04
       208  26  4.079464E+05  2.686064E+05  2.307364E+05 -6.584574E+04  2.520579E+04 -7.236304E+04
       208  27  3.060935E+05  1.981833E+05  2.069189E+05 -1.476242E+05  6.266889E+04 -7.074622E+04
       209   1 -1.986711E+06 -6.364831E+05 -2.360157E+05 -7.784957E+05 -3.737151E+04  7.422488E+04
       209   2 -1.863728E+06 -5.704731E+05 -1.958292E+05 -7.276596E+05 -2.500304E+04  7.208256E+04
       209   3 -1.719242E+06 -5.321659E+05 -1.641209E+05 -7.037436E+05 -1.151618E+04  6.694846E+04
       209   4 -8.875676E+05 -2.340793E+05 -2.073198E+04 -4.716597E+05 -4.427147E+04  7.161772E+04
       209   5 -8.984480E+05 -2.187468E+05 -1.095758E+04 -4.589057E+05 -3.651762E+04  6.774733E+04
       209   6 -8.869250E+05 -2.301953E+05 -5.989713E+03 -4.730755E+05 -2.764870E+04  6.088688E+04
       209   7  2.128317E+05  1.684342E+05  1.944971E+05 -1.643180E+05 -5.118456E+04  6.900559E+04
       209   8  6.780019E+04  1.330629E+05  1.738739E+05 -1.897639E+05 -4.805136E+04  6.340491E+04
       209   9 -5.389186E+04  7.183492E+04  1.521118E+05 -2.421219E+05 -4.380428E+04  5.481670E+04
       209  10 -1.986714E+06 -6.364894E+05 -2.360287E+05 -7.784935E+05 -4.292611E-09 -2.730641E-09
       209  11 -1.863730E+06 -5.704789E+05 -1.958402E+05 -7.276582E+05  8.195971E-09  4.484190E-09
       209  12 -1.719243E+06 -5.321708E+05 -1.641296E+05 -7.037429E+05  2.270060E-08  9.850184E-09
       209  13 -8.875711E+05 -2.340854E+05 -2.074530E+04 -4.716571E+05 -1.286851E-09 -8.010952E-10
       209  14 -8.984506E+05 -2.187521E+05 -1.096870E+04 -4.589037E+05  6.093230E-10  1.049397E-10
       209  15 -8.869269E+05 -2.301994E+05 -5.998111E+03 -4.730742E+05  5.490888E-09  2.373304E-09
       209  16  2.128277E+05  1.684284E+05  1.944833E+05 -1.643152E+05  4.818569E-09  1.107615E-09
       209  17  6.779663E+04  1.330579E+05  1.738620E+05 -1.897615E+05 -7.429592E-09 -3.076321E-09
       209  18 -5.389473E+04  7.183118E+04  1.521026E+05 -2.421200E+05 -1.608195E-08 -4.934671E-09
       209  19 -1.986711E+06 -6.364831E+05 -2.360157E+05 -7.784957E+05  3.737151E+04 -7.422488E+04
       209  20 -1.863728E+06 -5.704731E+05 -1.958292E+05 -7.276596E+05  2.500304E+04 -7.208256E+04
       209  21 -1.719242E+06 -5.321659E+05 -1.641209E+05 -7.037436E+05  1.151618E+04 -6.694846E+04
       209  22 -8.875676E+05 -2.340793E+05 -2.073198E+04 -4.716597E+05  4.427147E+04 -7.161772E+04
       209  23 -8.984480E+05 -2.187468E+05 -1.095758E+04 -4.589057E+05  3.651762E+04 -6.774733E+04
       209  24 -8.869250E+05 -2.301953E+05 -5.989713E+03 -4.730755E+05  2.764870E+04 -6.088688E+04
       209  25  2.128317E+05  1.684342E+05  1.944971E+05 -1.643180E+05  5.118456E+04 -6.900559E+04
       209  26  6.780019E+04  1.330629E+05  1.738739E+05 -1.897639E+05  4.805136E+04 -6.340491E+04
       209  27 -5.389186E+04  7.183492E+04  1.521118E+05 -2.421219E+05  4.380428E+04 -5.481670E+04
       210   1 -1.629111E+06 -4.998744E+05 -1.448913E+05 -6.791617E+05 -8.858043E+03  6.098848E+04
       210   2 -1.506335E+06 -4.386200E+05 -1.173860E+05 -6.278730E+05 -3.399714E+03  5.134889E+04
       210   3 -1.359547E+06 -4.017788E+05 -9.111366E+04 -6.043140E+05  2.142427E+03  4.147020E+04
       210   4 -8.866233E+05 -2.303062E+05 -4.512336E+03 -4.729998E+05 -2.452332E+04  5.510583E+04
       210   5 -8.986088E+05 -2.180237E+05 -2.495198E+03 -4.591606E+05 -1.943381E+04  4.533260E+04
       210   6 -8.865324E+05 -2.300825E+05 -1.420001E+03 -4.730575E+05 -1.426093E+04  3.532030E+04
       210   7 -1.435521E+05  3.931495E+04  1.358472E+05 -2.666063E+05 -4.020882E+04  4.921561E+04
       210   8 -2.904928E+05  2.607577E+03  1.123825E+05 -2.902935E+05 -3.548480E+04  3.930998E+04
       210   9 -4.132830E+05 -5.836574E+04  8.826567E+04 -3.417078E+05 -3.067768E+04  2.916539E+04
       210  10 -1.629112E+06 -4.998784E+05 -1.448985E+05 -6.791612E+05 -1.370694E-08 -5.279533E-09
       210  11 -1.506336E+06 -4.386229E+05 -1.173910E+05 -6.278728E+05 -6.221751E-09 -3.421552E-09
       210  12 -1.359548E+06 -4.017806E+05 -9.111691E+04 -6.043141E+05  1.342100E-09 -1.545691E-10
       210  13 -8.866248E+05 -2.303096E+05 -4.519169E+03 -4.729987E+05  4.515515E-09  2.413765E-09
       210  14 -8.986098E+05 -2.180260E+05 -2.499767E+03 -4.591599E+05 -1.298128E-09 -1.152233E-10
       210  15 -8.865329E+05 -2.300839E+05 -1.422726E+03 -4.730571E+05 -6.347933E-09 -2.536316E-09
       210  16 -1.435545E+05  3.931192E+04  1.358396E+05 -2.666047E+05  2.230164E-08  1.016199E-08
       210  17 -2.904945E+05  2.605581E+03  1.123773E+05 -2.902924E+05  5.920574E-09  3.558549E-09
       210  18 -4.132843E+05 -5.836690E+04  8.826230E+04 -3.417071E+05 -1.280044E-08 -5.021440E-09
       210  19 -1.629111E+06 -4.998744E+05 -1.448913E+05 -6.791617E+05  8.858043E+03 -6.098848E+04
       210  20 -1.506335E+06 -4.386200E+05 -1.173860E+05 -6.278730E+05  3.399714E+03 -5.134889E+04
       210  21 -1.359547E+06 -4.017788E+05 -9.111366E+04 -6.043140E+05 -2.142427E+03 -4.147020E+04
       210  22 -8.866233E+05 -2.303062E+05 -4.512336E+03 -4.729998E+05  2.452332E+04 -5.510583E+04
       210  23 -8.986088E+05 -2.180237E+05 -2.495198E+03 -4.591606E+05  1.943381E+04 -4.533260E+04
       210  24 -8.865324E+05 -2.300825E+05 -1.420001E+03 -4.730575E+05  1.426093E+04 -3.532030E+04
       210  25 -1.435521E+05  3.931495E+04  1.358472E+05 -2.666063E+05  4.020882E+04 -4.921561E+04
       210  26 -2.904928E+05  2.607577E+03  1.123825E+05 -2.902935E+05  3.548480E+04 -3.930998E+04
       210  27 -4.132830E+05 -5.836574E+04  8.826567E+04 -3.417078E+05  3.067768E+04 -2.916539E+04
       211   1 -1.269771E+06 -3.690943E+05 -7.310926E+04 -5.794781E+05  4.640633E+03  3.536565E+04
       211   2 -1.146771E+06 -3.079769E+05 -4.758706E+04 -5.280576E+05  9.015011E+03  2.492475E+04
       211   3 -9.995384E+05 -2.711292E+05 -2.236426E+04 -5.044477E+05  1.339472E+04  1.446255E+04
       211   4 -8.864828E+05 -2.300804E+05 -1.111172E+03 -4.730628E+05 -1.173772E+04  2.922717E+04
       211   5 -8.985783E+05 -2.179224E+05 -7.434836E+02 -4.591589E+05 -7.397318E+03  1.877553E+04
       211   6 -8.864535E+05 -2.300288E+05 -6.492250E+02 -4.730725E+05 -3.051666E+03  8.302542E+03
       211   7 -5.030438E+05 -9.105412E+04  7.088126E+04 -3.665871E+05 -2.812675E+04  2.308469E+04
       211   8 -6.503204E+05 -1.278620E+05  4.609876E+04 -3.902343E+05 -2.381668E+04  1.262368E+04
       211   9 -7.733536E+05 -1.889267E+05  2.106670E+04 -4.416915E+05 -1.950141E+04  2.141276E+03
       211  10 -1.269771E+06 -3.690957E+05 -7.311165E+04 -5.794782E+05 -9.595519E-09 -3.345814E-09
       211  11 -1.146771E+06 -3.079776E+05 -4.758838E+04 -5.280578E+05 -1.574193E-09  2.439460E-11
       211  12 -9.995386E+05 -2.711295E+05 -2.236499E+04 -5.044479E+05  7.606915E-10  4.198435E-10
       211  13 -8.864832E+05 -2.300813E+05 -1.113035E+03 -4.730625E+05 -5.955814E-09 -2.773436E-09
       211  14 -8.985785E+05 -2.179227E+05 -7.442485E+02 -4.591587E+05 -1.347130E-09 -6.102599E-10
       211  15 -8.864535E+05 -2.300289E+05 -6.493720E+02 -4.730724E+05 -5.203568E-10  1.107807E-10
       211  16 -5.030448E+05 -9.105491E+04  7.087877E+04 -3.665866E+05 -1.733134E-09 -1.532058E-09
       211  17 -6.503211E+05 -1.278623E+05  4.609739E+04 -3.902341E+05  2.131594E-10 -3.509925E-10
       211  18 -7.733540E+05 -1.889268E+05  2.106598E+04 -4.416914E+05 -5.395287E-10 -5.025294E-10
       211  19 -1.269771E+06 -3.690943E+05 -7.310926E+04 -5.794781E+05 -4.640633E+03 -3.536565E+04
       211  20 -1.146771E+06 -3.079769E+05 -4.758706E+04 -5.280576E+05 -9.015011E+03 -2.492475E+04
       211  21 -9.995384E+05 -2.711292E+05 -2.236426E+04 -5.044477E+05 -1.339472E+04 -1.446255E+04
       211  22 -8.864828E+05 -2.300804E+05 -1.111172E+03 -4.730628E+05  1.173772E+04 -2.922717E+04
       211  23 -8.985783E+05 -2.179224E+05 -7.434836E+02 -4.591589E+05  7.397318E+03 -1.877553E+04
       211  24 -8.864535E+05 -2.300288E+05 -6.492250E+02 -4.730725E+05  3.051666E+03 -8.302542E+03
       211  25 -5.030438E+05 -9.105412E+04  7.088126E+04 -3.665871E+05  2.812675E+04 -2.308469E+04
       211  26 -6.503204E+05 -1.278620E+05  4.609876E+04 -3.902343E+05  2.381668E+04 -1.262368E+04
       211  27 -7.733536E+05 -1.889267E+05  2.106670E+04 -4.416915E+05  1.950141E+04 -2.141276E+03
       212   1 -9.096785E+05 -2.384098E+05 -4.697636E+03 -4.795727E+05  1.582524E+04  8.321339E+03
       212   2 -7.865856E+05 -1.773170E+05  2.015796E+04 -4.281280E+05  2.026174E+04 -2.119976E+03
       212   3 -6.392697E+05 -1.404953E+05  4.467115E+04 -4.045113E+05  2.469310E+04 -1.254474E+04
       212   4 -8.864542E+05 -2.300271E+05 -6.907476E+02 -4.730768E+05 -6.238751E+02  2.160616E+03
       212   5 -8.985600E+05 -2.178900E+05 -9.708953E+02 -4.591609E+05  3.836122E+03 -8.272787E+03
       212   6 -8.864663E+05 -2.300306E+05 -1.612597E+03 -4.730806E+05  8.290861E+03 -1.868963E+04
       212   7 -8.632287E+05 -2.216441E+05  3.317284E+03 -4.665806E+05 -1.707364E+04 -4.000352E+03
       212   8 -1.010520E+06 -2.584614E+05 -2.209895E+04 -4.901883E+05 -1.258624E+04 -1.442439E+04
       212   9 -1.133596E+06 -3.195593E+05 -4.789696E+04 -5.416238E+05 -8.104244E+03 -2.483185E+04
       212  10 -9.096788E+05 -2.384099E+05 -4.698238E+03 -4.795728E+05 -4.170607E-10 -5.762309E-10
       212  11 -7.865860E+05 -1.773171E+05  2.015717E+04 -4.281279E+05 -1.677583E-09 -4.632595E-10
       212  12 -6.392704E+05 -1.404957E+05  4.466970E+04 -4.045110E+05 -8.744092E-10 -6.391135E-10
       212  13 -8.864542E+05 -2.300271E+05 -6.907571E+02 -4.730768E+05 -1.603832E-10  3.793795E-10
       212  14 -8.985601E+05 -2.178901E+05 -9.710515E+02 -4.591608E+05 -4.021940E-10  3.613710E-10
       212  15 -8.864665E+05 -2.300310E+05 -1.613382E+03 -4.730805E+05 -2.019752E-09 -8.646185E-11
       212  16 -8.632291E+05 -2.216442E+05  3.316705E+03 -4.665807E+05  9.866332E-10  1.006526E-09
       212  17 -1.010520E+06 -2.584617E+05 -2.209964E+04 -4.901884E+05 -3.218410E-10  1.027085E-09
       212  18 -1.133596E+06 -3.195600E+05 -4.789824E+04 -5.416240E+05  3.665177E-10  1.067029E-09
       212  19 -9.096785E+05 -2.384098E+05 -4.697636E+03 -4.795727E+05 -1.582524E+04 -8.321339E+03
       212  20 -7.865856E+05 -1.773170E+05  2.015796E+04 -4.281280E+05 -2.026174E+04  2.119976E+03
       212  21 -6.392697E+05 -1.404953E+05  4.467115E+04 -4.045113E+05 -2.469310E+04  1.254474E+04
       212  22 -8.864542E+05 -2.300271E+05 -6.907476E+02 -4.730768E+05  6.238751E+02 -2.160616E+03
       212  23 -8.985600E+05 -2.178900E+05 -9.708953E+02 -4.591609E+05 -3.836122E+03  8.272787E+03
       212  24 -8.864663E+05 -2.300306E+05 -1.612597E+03 -4.730806E+05 -8.290861E+03  1.868963E+04
       212  25 -8.632287E+05 -2.216441E+05  3.317284E+03 -4.665806E+05  1.707364E+04  4.000352E+03
       212  26 -1.010520E+06 -2.584614E+05 -2.209895E+04 -4.901883E+05  1.258624E+04  1.442439E+04
       212  27 -1.133596E+06 -3.195593E+05 -4.789696E+04 -5.416238E+05  8.104244E+03  2.483185E+04
       213   1 -5.494527E+05 -1.078017E+05  6.187662E+04 -3.796593E+05  2.734383E+04 -1.859392E+04
       213   2 -4.264341E+05 -4.678348E+04  8.541221E+04 -3.282411E+05  3.283524E+04 -2.850659E+04
       213   3 -2.793888E+05 -1.013577E+04  1.077654E+05 -3.045984E+05  3.825086E+04 -3.820328E+04
       213   4 -8.865278E+05 -2.300260E+05 -2.111947E+03 -4.730890E+05  1.091396E+04 -2.475055E+04
       213   5 -8.985364E+05 -2.179190E+05 -3.782195E+03 -4.591636E+05  1.673525E+04 -3.454339E+04
       213   6 -8.866052E+05 -2.302529E+05 -6.898296E+03 -4.730240E+05  2.248034E+04 -4.412025E+04
       213   7 -1.223487E+06 -3.522411E+05 -6.610492E+04 -5.664722E+05 -5.506505E+03 -3.090366E+04
       213   8 -1.370408E+06 -3.890352E+05 -9.298518E+04 -5.899941E+05  6.482913E+02 -4.057533E+04
       213   9 -1.493436E+06 -4.503366E+05 -1.215759E+05 -6.412966E+05  6.726319E+03 -5.003106E+04
       213  10 -5.494536E+05 -1.078023E+05  6.187457E+04 -3.796589E+05  1.032484E-09  6.980174E-10
       213  11 -4.264355E+05 -4.678464E+04  8.540866E+04 -3.282403E+05  5.098966E-10  2.593896E-10
       213  12 -2.793908E+05 -1.013773E+04  1.077599E+05 -3.045972E+05 -1.253032E-09 -4.016386E-10
       213  13 -8.865281E+05 -2.300267E+05 -2.113321E+03 -4.730887E+05 -6.322883E-11  3.623274E-10
       213  14 -8.985370E+05 -2.179204E+05 -3.784962E+03 -4.591632E+05 -2.509667E-09 -4.154824E-10
       213  15 -8.866062E+05 -2.302551E+05 -6.902901E+03 -4.730232E+05 -2.118005E-10  4.022987E-10
       213  16 -1.223487E+06 -3.522421E+05 -6.610677E+04 -5.664723E+05 -9.027891E-10  8.472288E-11
       213  17 -1.370408E+06 -3.890369E+05 -9.298828E+04 -5.899941E+05 -7.276001E-10  2.379119E-10
       213  18 -1.493437E+06 -4.503393E+05 -1.215807E+05 -6.412964E+05  2.944200E-10  7.533586E-10
       213  19 -5.494527E+05 -1.078017E+05  6.187662E+04 -3.796593E+05 -2.734383E+04  1.859392E+04
       213  20 -4.264341E+05 -4.678348E+04  8.541221E+04 -3.282411E+05 -3.283524E+04  2.850659E+04
       213  21 -2.793888E+05 -1.013577E+04  1.077654E+05 -3.045984E+05 -3.825086E+04  3.820328E+04
       213  22 -8.865278E+05 -2.300260E+05 -2.111947E+03 -4.730890E+05 -1.091396E+04  2.475055E+04
       213  23 -8.985364E+05 -2.179190E+05 -3.782195E+03 -4.591636E+05 -1.673525E+04  3.454339E+04
       213  24 -8.866052E+05 -2.302529E+05 -6.898296E+03 -4.730240E+05 -2.248034E+04  4.412025E+04
       213  25 -1.223487E+06 -3.522411E+05 -6.610492E+04 -5.664722E+05  5.506505E+03  3.090366E+04
       213  26 -1.370408E+06 -3.890352E+05 -9.298518E+04 -5.899941E+05 -6.482913E+02  4.057533E+04
       213  27 -1.493436E+06 -4.503366E+05 -1.215759E+05 -6.412966E+05 -6.726319E+03  5.003106E+04
       214   1 -1.895730E+05  2.227772E+04  1.232440E+05 -2.804020E+05  4.225407E+04 -4.366795E+04
       214   2 -6.765476E+04  8.374447E+04  1.422532E+05 -2.272898E+05  4.990875E+04 -5.116444E+04
       214   3  7.657548E+04  1.176897E+05  1.571949E+05 -2.009238E+05  5.655009E+04 -5.594077E+04
       214   4 -8.870378E+05 -2.300936E+05 -9.176265E+03 -4.731934E+05  2.605307E+04 -4.974931E+04
       214   5 -8.982154E+05 -2.188167E+05 -1.678044E+04 -4.587438E+05  3.791093E+04 -5.567514E+04
       214   6 -8.879350E+05 -2.359019E+05 -3.179022E+04 -4.710499E+05  4.875377E+04 -5.887918E+04
       214   7 -1.583988E+06 -4.824194E+05 -1.416138E+05 -6.657822E+05  9.871685E+03 -5.582337E+04
       214   8 -1.728057E+06 -5.213148E+05 -1.758427E+05 -6.899100E+05  2.593030E+04 -6.017937E+04
       214   9 -1.851489E+06 -5.894113E+05 -2.208197E+05 -7.407883E+05  4.097035E+04 -6.181269E+04
       214  10 -1.895754E+05  2.227520E+04  1.232370E+05 -2.804006E+05  3.035261E-10  2.715579E-10
       214  11 -6.765813E+04  8.374100E+04  1.422436E+05 -2.272878E+05 -6.599183E-10 -6.531464E-10
       214  12  7.657121E+04  1.176855E+05  1.571830E+05 -2.009212E+05 -2.082808E-09 -4.696002E-10
       214  13 -8.870392E+05 -2.300965E+05 -9.182188E+03 -4.731924E+05 -2.353180E-10  6.145366E-11
       214  14 -8.982178E+05 -2.188204E+05 -1.678897E+04 -4.587421E+05 -3.271953E-10 -4.610425E-10
       214  15 -8.879385E+05 -2.359062E+05 -3.180120E+04 -4.710476E+05  2.966529E-10  5.537795E-10
       214  16 -1.583989E+06 -4.824228E+05 -1.416198E+05 -6.657817E+05 -6.638394E-10 -1.760245E-10
       214  17 -1.728059E+06 -5.213189E+05 -1.758508E+05 -6.899087E+05 -3.428690E-10 -2.356387E-10
       214  18 -1.851492E+06 -5.894158E+05 -2.208300E+05 -7.407862E+05  1.802520E-09  8.096911E-10
       214  19 -1.895730E+05  2.227772E+04  1.232440E+05 -2.804020E+05 -4.225407E+04  4.366795E+04
       214  20 -6.765476E+04  8.374447E+04  1.422532E+05 -2.272898E+05 -4.990875E+04  5.116444E+04
       214  21  7.657548E+04  1.176897E+05  1.571949E+05 -2.009238E+05 -5.655009E+04  5.594077E+04
       214  22 -8.870378E+05 -2.300936E+05 -9.176265E+03 -4.731934E+05 -2.605307E+04  4.974931E+04
       214  23 -8.982154E+05 -2.188167E+05 -1.678044E+04 -4.587438E+05 -3.791093E+04  5.567514E+04
       214  24 -8.879350E+05 -2.359019E+05 -3.179022E+04 -4.710499E+05 -4.875377E+04  5.887918E+04
       214  25 -1.583988E+06 -4.824194E+05 -1.416138E+05 -6.657822E+05 -9.871685E+03  5.582337E+04
       214  26 -1.728057E+06 -5.213148E+05 -1.758427E+05 -6.899100E+05 -2.593030E+04  6.017937E+04
       214  27 -1.851489E+06 -5.894113E+05 -2.208197E+05 -7.407883E+05 -4.097035E+04  6.181269E+04
       215   1  1.713850E+05  1.451816E+05  1.660006E+05 -1.892011E+05  6.916425E+04 -5.735878E+04
       215   2  2.654498E+05  2.200701E+05  1.748833E+05 -8.842123E+04  5.222819E+04 -5.346189E+04
       215   3  3.539012E+05  1.938657E+05  1.720953E+05  9.182828E+03  2.194267E+04 -1.410991E+04
       215   4 -8.933235E+05 -2.325965E+05 -4.189662E+04 -4.740630E+05  5.555611E+04 -6.248191E+04
       215   5 -8.945269E+05 -2.431511E+05 -7.906944E+04 -4.474856E+05  9.357710E+04 -3.793612E+04
       215   6 -9.123164E+05 -3.658072E+05 -1.715274E+05 -4.240821E+05  1.182342E+05  2.210098E+04
       215   7 -1.956859E+06 -6.102900E+05 -2.498442E+05 -7.584786E+05  4.197301E+04 -6.759623E+04
       215   8 -2.053115E+06 -7.061904E+05 -3.330930E+05 -8.059045E+05  1.348425E+05 -2.244798E+04
       215   9 -2.176915E+06 -9.251797E+05 -5.152491E+05 -8.564746E+05  2.143098E+05  5.819768E+04
       215  10  1.713790E+05  1.451767E+05  1.659854E+05 -1.891979E+05 -1.068765E-09  1.195006E-10
       215  11  2.654461E+05  2.200663E+05  1.748728E+05 -8.841898E+04 -2.160212E-10 -7.284895E-10
       215  12  3.539006E+05  1.938654E+05  1.720941E+05  9.183077E+03  1.828154E-10  2.162726E-10
       215  13 -8.933278E+05 -2.326015E+05 -4.190975E+04 -4.740602E+05  6.499710E-10 -5.360577E-10
       215  14 -8.945367E+05 -2.431550E+05 -7.908861E+04 -4.474827E+05 -2.502489E-09  7.902608E-10
       215  15 -9.123316E+05 -3.658115E+05 -1.715546E+05 -4.240842E+05 -1.045649E-09 -2.199912E-10
       215  16 -1.956862E+06 -6.102954E+05 -2.498561E+05 -7.584763E+05  5.181686E-10  7.017087E-10
       215  17 -2.053135E+06 -7.061958E+05 -3.331282E+05 -8.059021E+05 -1.488329E-09  8.260684E-10
       215  18 -2.176966E+06 -9.251958E+05 -5.153421E+05 -8.564847E+05 -1.319709E-09  3.957813E-10
       215  19  1.713850E+05  1.451816E+05  1.660006E+05 -1.892011E+05 -6.916425E+04  5.735878E+04
       215  20  2.654498E+05  2.200701E+05  1.748833E+05 -8.842123E+04 -5.222819E+04  5.346189E+04
       215  21  3.539012E+05  1.938657E+05  1.720953E+05  9.182828E+03 -2.194267E+04  1.410991E+04
       215  22 -8.933235E+05 -2.325965E+05 -4.189662E+04 -4.740630E+05 -5.555611E+04  6.248191E+04
       215  23 -8.945269E+05 -2.431511E+05 -7.906944E+04 -4.474856E+05 -9.357710E+04  3.793612E+04
       215  24 -9.123164E+05 -3.658072E+05 -1.715274E+05 -4.240821E+05 -1.182342E+05 -2.210098E+04
       215  25 -1.956859E+06 -6.102900E+05 -2.498442E+05 -7.584786E+05 -4.197301E+04  6.759623E+04
       215  26 -2.053115E+06 -7.061904E+05 -3.330930E+05 -8.059045E+05 -1.348425E+05  2.244798E+04
       215  27 -2.176915E+06 -9.251797E+05 -5.152491E+05 -8.564746E+05 -2.143098E+05 -5.819768E+04
       216   1 -4.389468E+05 -1.495411E+05 -1.169834E+05 -4.001679E+04  3.532111E+04  1.685891E+04
       216   2 -3.094442E+05 -2.308911E+05 -1.312162E+05 -7.917574E+04  4.099221E+04  5.511156E+04
       216   3 -1.586885E+05 -2.252129E+05 -1.273605E+05 -1.486458E+05  4.669643E+04  6.307118E+04
       216   4  8.127027E+05  1.594521E+05  1.776936E+05 -1.384903E+05  1.238609E+05  1.692231E+04
       216   5  7.978388E+05  3.391021E+04  8.613171E+04 -1.232944E+05  7.933772E+04  5.512415E+04
       216   6  8.128629E+05  4.009031E+03  4.746097E+04 -1.383989E+05  3.484906E+04  6.305866E+04
       216   7  2.065831E+06  4.683744E+05  4.722976E+05 -2.371638E+05  2.125781E+05  1.695758E+04
       216   8  1.906304E+06  2.986457E+05  3.034269E+05 -1.674934E+05  1.177501E+05  5.513129E+04
       216   9  1.785334E+06  2.331788E+05  2.222464E+05 -1.281354E+05  2.298362E+04  6.304576E+04
       216  10 -4.389482E+05 -1.495417E+05 -1.169863E+05 -4.001727E+04  1.355316E-09 -8.688174E-10
       216  11 -3.094468E+05 -2.308948E+05 -1.312250E+05 -7.917757E+04 -2.417469E-09  5.835548E-10
       216  12 -1.586920E+05 -2.252177E+05 -1.273721E+05 -1.486482E+05 -3.767755E-09  3.312181E-10
       216  13  8.126862E+05  1.594477E+05  1.776643E+05 -1.384920E+05 -1.061912E-09  7.292534E-10
       216  14  7.978312E+05  3.390526E+04  8.611419E+04 -1.232979E+05 -3.488661E-09  3.189035E-10
       216  15  8.128605E+05  4.004434E+03  4.745122E+04 -1.384006E+05  5.570164E-10 -4.449777E-11
       216  16  2.065783E+06  4.683620E+05  4.722124E+05 -2.371667E+05 -2.307678E-10  7.133347E-10
       216  17  1.906288E+06  2.986387E+05  3.033952E+05 -1.674987E+05  2.147269E-09  4.725118E-10
       216  18  1.785332E+06  2.331744E+05  2.222380E+05 -1.281366E+05  3.212615E-09  1.249588E-09
       216  19 -4.389468E+05 -1.495411E+05 -1.169834E+05 -4.001679E+04 -3.532111E+04 -1.685891E+04
       216  20 -3.094442E+05 -2.308911E+05 -1.312162E+05 -7.917574E+04 -4.099221E+04 -5.511156E+04
       216  21 -1.586885E+05 -2.252129E+05 -1.273605E+05 -1.486458E+05 -4.669643E+04 -6.307118E+04
       216  22  8.127027E+05  1.594521E+05  1.776936E+05 -1.384903E+05 -1.238609E+05 -1.692231E+04
       216  23  7.978388E+05  3.391021E+04  8.613171E+04 -1.232944E+05 -7.933772E+04 -5.512415E+04
       216  24  8.128629E+05  4.009031E+03  4.746097E+04 -1.383989E+05 -3.484906E+04 -6.305866E+04
       216  25  2.065831E+06  4.683744E+05  4.722976E+05 -2.371638E+05 -2.125781E+05 -1.695758E+04
       216  26  1.906304E+06  2.986457E+05  3.034269E+05 -1.674934E+05 -1.177501E+05 -5.513129E+04
       216  27  1.785334E+06  2.331788E+05  2.222464E+05 -1.281354E+05 -2.298362E+04 -6.304576E+04
       217   1 -7.198792E+04 -2.002173E+05 -1.205297E+05 -1.363103E+05  3.686278E+04  5.836157E+04
       217   2  6.655123E+04 -1.726035E+05 -1.086208E+05 -1.221549E+05  3.131305E+04  5.206867E+04
       217   3  2.069711E+05 -1.408245E+05 -9.203082E+04 -1.400806E+05  2.575874E+04  4.313881E+04
       217   4  8.068299E+05  6.818609E+03  3.617489E+04 -1.388117E+05  2.865654E+04  5.835176E+04
       217   5  8.055586E+05  8.354093E+02  1.991010E+04 -1.227723E+05  1.872681E+04  5.206096E+04
       217   6  8.069043E+05 -2.257773E+02  1.135868E+04 -1.388111E+05  8.793725E+03  4.313477E+04
       217   7  1.686401E+06  2.138119E+05  1.928505E+05 -1.413168E+05  2.043899E+04  5.834202E+04
       217   8  1.545101E+06  1.742449E+05  1.484224E+05 -1.233905E+05  6.126028E+03  5.205328E+04
       217   9  1.407191E+06  1.403538E+05  1.147370E+05 -1.375404E+05 -8.187167E+03  4.313066E+04
       217  10 -7.199030E+04 -2.002213E+05 -1.205386E+05 -1.363120E+05  1.347651E-09  2.323207E-10
       217  11  6.654945E+04 -1.726067E+05 -1.086277E+05 -1.221562E+05 -1.069639E-09 -4.067705E-10
       217  12  2.069699E+05 -1.408267E+05 -9.203557E+04 -1.400815E+05 -9.609247E-10 -4.388921E-10
       217  13  8.068281E+05  6.814731E+03  3.616694E+04 -1.388131E+05 -6.373640E-10  8.980372E-10
       217  14  8.055575E+05  8.324035E+02  1.990434E+04 -1.227731E+05 -2.797546E-09 -2.206120E-10
       217  15  8.069037E+05 -2.277968E+02  1.135503E+04 -1.388114E+05 -1.214789E-09 -6.294313E-10
       217  16  1.686400E+06  2.138081E+05  1.928433E+05 -1.413178E+05 -2.678301E-09  5.101330E-10
       217  17  1.545100E+06  1.742420E+05  1.484172E+05 -1.233907E+05  1.213632E-10 -4.581103E-10
       217  18  1.407190E+06  1.403518E+05  1.147333E+05 -1.375401E+05  4.953721E-11 -6.312999E-10
       217  19 -7.198792E+04 -2.002173E+05 -1.205297E+05 -1.363103E+05 -3.686278E+04 -5.836157E+04
       217  20  6.655123E+04 -1.726035E+05 -1.086208E+05 -1.221549E+05 -3.131305E+04 -5.206867E+04
       217  21  2.069711E+05 -1.408245E+05 -9.203082E+04 -1.400806E+05 -2.575874E+04 -4.313881E+04
       217  22  8.068299E+05  6.818609E+03  3.617489E+04 -1.388117E+05 -2.865654E+04 -5.835176E+04
       217  23  8.055586E+05  8.354093E+02  1.991010E+04 -1.227723E+05 -1.872681E+04 -5.206096E+04
       217  24  8.069043E+05 -2.257773E+02  1.135868E+04 -1.388111E+05 -8.793725E+03 -4.313477E+04
       217  25  1.686401E+06  2.138119E+05  1.928505E+05 -1.413168E+05 -2.043899E+04 -5.834202E+04
       217  26  1.545101E+06  1.742449E+05  1.484224E+05 -1.233905E+05 -6.126028E+03 -5.205328E+04
       217  27  1.407191E+06  1.403538E+05  1.147370E+05 -1.375404E+05  8.187167E+03 -4.313066E+04
       218   1  2.977344E+05 -1.190997E+05 -7.844014E+04 -1.393123E+05  2.368778E+04  3.713081E+04
       218   2  4.368198E+05 -8.664788E+04 -5.830667E+04 -1.230886E+05  2.164056E+04  2.696949E+04
       218   3  5.762635E+05 -5.401733E+04 -3.678848E+04 -1.390581E+05  1.959017E+04  1.658122E+04
       218   4  8.064326E+05 -9.076973E+00  8.622581E+03 -1.388369E+05  7.045811E+03  3.712873E+04
       218   5  8.062471E+05 -1.708562E+02  4.906332E+03 -1.227409E+05  4.619100E+03  2.696966E+04
       218   6  8.064679E+05 -8.713394E+01  2.836755E+03 -1.388371E+05  2.189675E+03  1.658374E+04
       218   7  1.315386E+06  1.190679E+05  9.567770E+04 -1.383609E+05 -9.609363E+03  3.712663E+04
       218   8  1.175809E+06  8.629906E+04  6.811586E+04 -1.223929E+05 -1.241216E+04  2.696981E+04
       218   9  1.036725E+06  5.384039E+04  4.246133E+04 -1.386159E+05 -1.521707E+04  1.658624E+04
       218  10  2.977334E+05 -1.191013E+05 -7.844379E+04 -1.393131E+05  6.256312E-09 -4.049203E-10
       218  11  4.368191E+05 -8.664879E+04 -5.830891E+04 -1.230891E+05 -8.721013E-09 -5.936488E-10
       218  12  5.762630E+05 -5.401773E+04 -3.678972E+04 -1.390584E+05 -2.286727E-08 -3.144498E-10
       218  13  8.064322E+05 -1.057123E+01  8.619896E+03 -1.388371E+05 -2.132037E-10 -4.429495E-10
       218  14  8.062469E+05 -1.716433E+02  4.904925E+03 -1.227410E+05  5.387728E-10 -5.810260E-10
       218  15  8.064678E+05 -8.743067E+01  2.836229E+03 -1.388371E+05  7.615567E-10 -1.640154E-10
       218  16  1.315385E+06  1.190664E+05  9.567494E+04 -1.383606E+05 -5.907140E-09 -4.503900E-10
       218  17  1.175809E+06  8.629824E+04  6.811420E+04 -1.223927E+05  7.663831E-09 -4.782545E-10
       218  18  1.036725E+06  5.384003E+04  4.246038E+04 -1.386157E+05  2.232853E-08 -2.535178E-10
       218  19  2.977344E+05 -1.190997E+05 -7.844014E+04 -1.393123E+05 -2.368778E+04 -3.713081E+04
       218  20  4.368198E+05 -8.664788E+04 -5.830667E+04 -1.230886E+05 -2.164056E+04 -2.696949E+04
       218  21  5.762635E+05 -5.401733E+04 -3.678848E+04 -1.390581E+05 -1.959017E+04 -1.658122E+04
       218  22  8.064326E+05 -9.076973E+00  8.622581E+03 -1.388369E+05 -7.045811E+03 -3.712873E+04
       218  23  8.062471E+05 -1.708562E+02  4.906332E+03 -1.227409E+05 -4.619100E+03 -2.696966E+04
       218  24  8.064679E+05 -8.713394E+01  2.836755E+03 -1.388371E+05 -2.189675E+03 -1.658374E+04
       218  25  1.315386E+06  1.190679E+05  9.567770E+04 -1.383609E+05  9.609363E+03 -3.712663E+04
       218  26  1.175809E+06  8.629906E+04  6.811586E+04 -1.223929E+05  1.241216E+04 -2.696981E+04
       218  27  1.036725E+06  5.384039E+04  4.246133E+04 -1.386159E+05  1.521707E+04 -1.658624E+04
       219   1  6.672546E+05 -3.255766E+04 -2.130623E+04 -1.389986E+05  1.910789E+04  1.046644E+04
       219   2  8.064215E+05 -2.893563E+01  1.264888E+03 -1.228509E+05  1.851106E+04 -2.365219E+01
       219   3  9.456956E+05  3.250339E+04  2.422656E+04 -1.388945E+05  1.791410E+04 -1.053170E+04
       219   4  8.064044E+05 -5.690933E+01  2.163404E+03 -1.388369E+05  1.736156E+03  1.046963E+04
       219   5  8.063591E+05 -4.020348E+01  1.270589E+03 -1.227412E+05  1.107436E+03 -2.046763E+01
       219   6  8.064047E+05 -1.427997E+01  7.889669E+02 -1.388369E+05  4.787108E+02 -1.052851E+04
       219   7  9.455740E+05  3.244298E+04  2.563355E+04 -1.386751E+05 -1.563934E+04  1.047282E+04
       219   8  8.062972E+05 -5.130891E+01  1.277428E+03 -1.226316E+05 -1.629619E+04 -1.728921E+01
       219   9  6.671336E+05 -3.253280E+04 -2.264810E+04 -1.387794E+05 -1.695290E+04 -1.052531E+04
       219  10  6.672542E+05 -3.255787E+04 -2.130712E+04 -1.389988E+05  2.313292E-08  1.638512E-10
       219  11  8.064211E+05 -2.902748E+01  1.264245E+03 -1.228509E+05  8.948807E-09  8.532760E-10
       219  12  9.456952E+05  3.250318E+04  2.422575E+04 -1.388943E+05 -5.776619E-09  1.171726E-09
       219  13  8.064044E+05 -5.702789E+01  2.163192E+03 -1.388369E+05  6.843770E-11  1.890786E-11
       219  14  8.063591E+05 -4.020381E+01  1.270587E+03 -1.227412E+05 -1.770100E-09  5.165142E-10
       219  15  8.064047E+05 -1.439911E+01  7.887581E+02 -1.388369E+05 -1.150078E-09  1.002460E-09
       219  16  9.455737E+05  3.244280E+04  2.563289E+04 -1.386749E+05 -2.353917E-08 -1.342389E-10
       219  17  8.062970E+05 -5.138009E+01  1.276930E+03 -1.226316E+05 -1.018776E-08  3.137832E-10
       219  18  6.671333E+05 -3.253300E+04 -2.264885E+04 -1.387795E+05  6.694471E-09  1.272549E-09
       219  19  6.672546E+05 -3.255766E+04 -2.130623E+04 -1.389986E+05 -1.910789E+04 -1.046644E+04
       219  20  8.064215E+05 -2.893563E+01  1.264888E+03 -1.228509E+05 -1.851106E+04  2.365219E+01
       219  21  9.456956E+05  3.250339E+04  2.422656E+04 -1.388945E+05 -1.791410E+04  1.053170E+04
       219  22  8.064044E+05 -5.690933E+01  2.163404E+03 -1.388369E+05 -1.736156E+03 -1.046963E+04
       219  23  8.063591E+05 -4.020348E+01  1.270589E+03 -1.227412E+05 -1.107436E+03  2.046763E+01
       219  24  8.064047E+05 -1.427997E+01  7.889669E+02 -1.388369E+05 -4.787108E+02  1.052851E+04
       219  25  9.455740E+05  3.244298E+04  2.563355E+04 -1.386751E+05  1.563934E+04 -1.047282E+04
       219  26  8.062972E+05 -5.130891E+01  1.277428E+03 -1.226316E+05  1.629619E+04  1.728921E+01
       219  27  6.671336E+05 -3.253280E+04 -2.264810E+04 -1.387794E+05  1.695290E+04  1.052531E+04
       220   1  1.036758E+06  5.392095E+04  4.022586E+04 -1.388955E+05  1.778692E+04 -1.665407E+04
       220   2  1.176046E+06  8.640872E+04  6.353371E+04 -1.227455E+05  1.751052E+04 -2.716091E+04
       220   3  1.315419E+06  1.188984E+05  8.702785E+04 -1.388030E+05  1.723691E+04 -3.764769E+04
       220   4  8.063913E+05 -1.945982E+01  6.463740E+02 -1.388408E+05  3.468719E+02 -1.665156E+04
       220   5  8.063443E+05 -5.490243E+01  4.943816E+02 -1.227364E+05  1.019915E+02 -2.716073E+04
       220   6  8.063573E+05 -9.325662E+01  5.061461E+02 -1.388408E+05 -1.400391E+02 -3.764981E+04
       220   7  5.760775E+05 -5.396254E+04 -3.893377E+04 -1.387861E+05 -1.708692E+04 -1.664905E+04
       220   8  4.367777E+05 -8.652562E+04 -6.254833E+04 -1.227274E+05 -1.729652E+04 -2.716055E+04
       220   9  2.975513E+05 -1.190984E+05 -8.602290E+04 -1.388785E+05 -1.750322E+04 -3.765193E+04
       220  10  1.036757E+06  5.392057E+04  4.022475E+04 -1.388953E+05 -1.334932E-09  9.052281E-10
       220  11  1.176045E+06  8.640785E+04  6.353175E+04 -1.227451E+05 -1.162738E-09  4.558483E-10
       220  12  1.315418E+06  1.188968E+05  8.702463E+04 -1.388025E+05 -1.707160E-09  2.760865E-10
       220  13  8.063913E+05 -1.975770E+01  6.458525E+02 -1.388408E+05  5.808025E-10  1.016744E-09
       220  14  8.063441E+05 -5.569490E+01  4.929948E+02 -1.227364E+05  1.651420E-09  6.300072E-10
       220  15  8.063570E+05 -9.477936E+01  5.034813E+02 -1.388408E+05 -1.781918E-09  6.370846E-10
       220  16  5.760772E+05 -5.396292E+04 -3.893484E+04 -1.387863E+05  8.990494E-10  1.337140E-09
       220  17  4.367772E+05 -8.652649E+04 -6.255028E+04 -1.227278E+05  1.021712E-09  8.414860E-10
       220  18  2.975506E+05 -1.191000E+05 -8.602614E+04 -1.388791E+05  8.312141E-10  8.650393E-10
       220  19  1.036758E+06  5.392095E+04  4.022586E+04 -1.388955E+05 -1.778692E+04  1.665407E+04
       220  20  1.176046E+06  8.640872E+04  6.353371E+04 -1.227455E+05 -1.751052E+04  2.716091E+04
       220  21  1.315419E+06  1.188984E+05  8.702785E+04 -1.388030E+05 -1.723691E+04  3.764769E+04
       220  22  8.063913E+05 -1.945982E+01  6.463740E+02 -1.388408E+05 -3.468719E+02  1.665156E+04
       220  23  8.063443E+05 -5.490243E+01  4.943816E+02 -1.227364E+05 -1.019915E+02  2.716073E+04
       220  24  8.063573E+05 -9.325662E+01  5.061461E+02 -1.388408E+05  1.400391E+02  3.764981E+04
       220  25  5.760775E+05 -5.396254E+04 -3.893377E+04 -1.387861E+05  1.708692E+04  1.664905E+04
       220  26  4.367777E+05 -8.652562E+04 -6.254833E+04 -1.227274E+05  1.729652E+04  2.716055E+04
       220  27  2.975513E+05 -1.190984E+05 -8.602290E+04 -1.388785E+05  1.750322E+04  3.765193E+04
       221   1  1.406640E+06  1.403200E+05  1.032666E+05 -1.387743E+05  1.718532E+04 -4.376336E+04
       221   2  1.546105E+06  1.728391E+05  1.271834E+05 -1.225232E+05  1.630372E+04 -5.411979E+04
       221   3  1.685824E+06  2.054661E+05  1.517232E+05 -1.385154E+05  1.542743E+04 -6.418753E+04
       221   4  8.063587E+05 -1.216103E+02  5.704920E+02 -1.388490E+05 -2.366671E+02 -4.376754E+04
       221   5  8.062472E+05 -2.027390E+02  8.216298E+02 -1.227262E+05 -6.404467E+02 -5.412851E+04
       221   6  8.062904E+05 -2.574178E+02  1.364749E+03 -1.388490E+05 -1.038738E+03 -6.420059E+04
       221   7  2.064311E+05 -1.405823E+05 -1.021365E+05 -1.389236E+05 -1.764237E+04 -4.377172E+04
       221   8  6.692704E+04 -1.732735E+05 -1.255573E+05 -1.229289E+05 -1.756510E+04 -5.413722E+04
       221   9 -7.248426E+04 -2.060219E+05 -1.490184E+05 -1.391820E+05 -1.748237E+04 -6.421364E+04
       221  10  1.406640E+06  1.403179E+05  1.032625E+05 -1.387737E+05 -2.098668E-09  6.095125E-10
       221  11  1.546104E+06  1.728359E+05  1.271774E+05 -1.225225E+05 -2.877547E-09 -2.553284E-10
       221  12  1.685823E+06  2.054616E+05  1.517150E+05 -1.385146E+05 -9.696253E-10 -3.486534E-10
       221  13  8.063582E+05 -1.236681E+02  5.668907E+02 -1.388490E+05 -1.042842E-09  7.356686E-10
       221  14  8.062465E+05 -2.058866E+02  8.161210E+02 -1.227262E+05 -2.984655E-09  1.924105E-10
       221  15  8.062893E+05 -2.618458E+02  1.356999E+03 -1.388490E+05 -1.960374E-09 -6.002325E-10
       221  16  2.064303E+05 -1.405844E+05 -1.021407E+05 -1.389242E+05  7.719818E-10  7.341881E-10
       221  17  6.692592E+04 -1.732767E+05 -1.255634E+05 -1.229296E+05  1.324338E-09  3.098251E-10
       221  18 -7.248569E+04 -2.060264E+05 -1.490268E+05 -1.391829E+05  3.419087E-10 -2.237431E-10
       221  19  1.406640E+06  1.403200E+05  1.032666E+05 -1.387743E+05 -1.718532E+04  4.376336E+04
       221  20  1.546105E+06  1.728391E+05  1.271834E+05 -1.225232E+05 -1.630372E+04  5.411979E+04
       221  21  1.685824E+06  2.054661E+05  1.517232E+05 -1.385154E+05 -1.542743E+04  6.418753E+04
       221  22  8.063587E+05 -1.216103E+02  5.704920E+02 -1.388490E+05  2.366671E+02  4.376754E+04
       221  23  8.062472E+05 -2.027390E+02  8.216298E+02 -1.227262E+05  6.404467E+02  5.412851E+04
       221  24  8.062904E+05 -2.574178E+02  1.364749E+03 -1.388490E+05  1.038738E+03  6.420059E+04
       221  25  2.064311E+05 -1.405823E+05 -1.021365E+05 -1.389236E+05  1.764237E+04  4.377172E+04
       221  26  6.692704E+04 -1.732735E+05 -1.255573E+05 -1.229289E+05  1.756510E+04  5.413722E+04
       221  27 -7.248426E+04 -2.060219E+05 -1.490184E+05 -1.391820E+05  1.748237E+04  6.421364E+04
       222   1  1.777494E+06  2.269588E+05  1.685424E+05 -1.382726E+05  1.558138E+04 -7.016767E+04
       222   2  1.916731E+06  2.600163E+05  1.954924E+05 -1.222780E+05  8.437507E+03 -7.865193E+04
       222   3  2.057550E+06  2.947903E+05  2.275639E+05 -1.383852E+05  1.295656E+03 -8.374610E+04
       222   4  8.063540E+05 -3.301304E+02  1.777962E+03 -1.388176E+05 -1.309345E+03 -7.018421E+04
       222   5  8.060083E+05 -2.632547E+02  3.054427E+03 -1.227652E+05 -2.823289E+03 -7.867138E+04
       222   6  8.062510E+05  5.463224E+02  5.551757E+03 -1.388181E+05 -4.333574E+03 -8.376543E+04
       222   7 -1.638616E+05 -2.276692E+05 -1.650173E+05 -1.393617E+05 -1.817453E+04 -7.020072E+04
       222   8 -3.035072E+05 -2.606091E+05 -1.894260E+05 -1.232516E+05 -1.406460E+04 -7.869084E+04
       222   9 -4.435234E+05 -2.937837E+05 -2.165187E+05 -1.392503E+05 -9.951810E+03 -8.378477E+04
       222  10  1.777493E+06  2.269534E+05  1.685327E+05 -1.382718E+05 -5.539061E-08 -1.457084E-09
       222  11  1.916729E+06  2.600096E+05  1.954806E+05 -1.222775E+05  9.882827E-10 -3.043103E-09
       222  12  2.057549E+06  2.947828E+05  2.275507E+05 -1.383851E+05  5.645790E-08 -3.101047E-09
       222  13  8.063527E+05 -3.354224E+02  1.768699E+03 -1.388177E+05 -1.982717E-09 -1.476047E-09
       222  14  8.060066E+05 -2.699055E+02  3.042777E+03 -1.227654E+05 -1.182983E-11 -2.856232E-09
       222  15  8.062491E+05  5.387798E+02  5.538531E+03 -1.388184E+05 -1.784888E-10 -2.915188E-09
       222  16 -1.638633E+05 -2.276746E+05 -1.650272E+05 -1.393628E+05  5.437334E-08 -1.256595E-09
       222  17 -3.035090E+05 -2.606158E+05 -1.894380E+05 -1.232525E+05 -1.454132E-09 -1.160041E-09
       222  18 -4.435254E+05 -2.937913E+05 -2.165321E+05 -1.392509E+05 -5.702145E-08 -2.221761E-09
       222  19  1.777494E+06  2.269588E+05  1.685424E+05 -1.382726E+05 -1.558138E+04  7.016767E+04
       222  20  1.916731E+06  2.600163E+05  1.954924E+05 -1.222780E+05 -8.437507E+03  7.865193E+04
       222  21  2.057550E+06  2.947903E+05  2.275639E+05 -1.383852E+05 -1.295656E+03  8.374610E+04
       222  22  8.063540E+05 -3.301304E+02  1.777962E+03 -1.388176E+05  1.309345E+03  7.018421E+04
       222  23  8.060083E+05 -2.632547E+02  3.054427E+03 -1.227652E+05  2.823289E+03  7.867138E+04
       222  24  8.062510E+05  5.463224E+02  5.551757E+03 -1.388181E+05  4.333574E+03  8.376543E+04
       222  25 -1.638616E+05 -2.276692E+05 -1.650173E+05 -1.393617E+05  1.817453E+04  7.020072E+04
       222  26 -3.035072E+05 -2.606091E+05 -1.894260E+05 -1.232516E+05  1.406460E+04  7.869084E+04
       222  27 -4.435234E+05 -2.937837E+05 -2.165187E+05 -1.392503E+05  9.951810E+03  8.378477E+04
       223   1  2.152147E+06  3.167377E+05  2.480132E+05 -1.356914E+05  5.064080E+03 -8.805159E+04
       223   2  2.284947E+06  3.578472E+05  3.019435E+05 -1.289069E+05 -6.645580E+04 -7.487556E+04
       223   3  2.433888E+06  4.249738E+05  4.089027E+05 -1.518675E+05 -1.380707E+05 -2.273710E+04
       223   4  8.071713E+05  5.682740E+01  7.285328E+03 -1.382882E+05 -5.281498E+03 -8.807802E+04
       223   5  8.046345E+05  4.583089E+03  1.316833E+04 -1.234306E+05 -1.206266E+04 -7.482363E+04
       223   6  8.070306E+05  2.394068E+04  2.723251E+04 -1.383163E+05 -1.891900E+04 -2.256623E+04
       223   7 -5.360456E+05 -3.167242E+05 -2.335114E+05 -1.408795E+05 -1.560535E+04 -8.810439E+04
       223   8 -6.735754E+05 -3.488106E+05 -2.757003E+05 -1.179681E+05  4.220402E+04 -7.477069E+04
       223   9 -8.173664E+05 -3.772721E+05 -3.545653E+05 -1.248013E+05  9.992338E+04 -2.238997E+04
       223  10  2.152145E+06  3.167294E+05  2.479986E+05 -1.356911E+05  3.114598E-11 -2.942942E-09
       223  11  2.284940E+06  3.578400E+05  3.019247E+05 -1.289109E+05 -2.640315E-09 -3.893459E-09
       223  12  2.433867E+06  4.249682E+05  4.088660E+05 -1.518700E+05 -2.894723E-09 -1.150770E-09
       223  13  8.071692E+05  4.848621E+01  7.270691E+03 -1.382886E+05  5.342292E-10 -6.305758E-09
       223  14  8.046329E+05  4.577036E+03  1.315753E+04 -1.234313E+05  1.405963E-09  2.254269E-09
       223  15  8.070301E+05  2.394003E+04  2.723088E+04 -1.383166E+05 -8.106992E-10  1.042890E-10
       223  16 -5.360480E+05 -3.167326E+05 -2.335265E+05 -1.408806E+05 -1.337213E-09 -2.397908E-09
       223  17 -6.735789E+05 -3.488170E+05 -2.757142E+05 -1.179655E+05  1.160711E-09  1.482461E-09
       223  18 -8.173773E+05 -3.772753E+05 -3.545851E+05 -1.247995E+05  1.904080E-09 -1.483087E-09
       223  19  2.152147E+06  3.167377E+05  2.480132E+05 -1.356914E+05 -5.064080E+03  8.805159E+04
       223  20  2.284947E+06  3.578472E+05  3.019435E+05 -1.289069E+05  6.645580E+04  7.487556E+04
       223  21  2.433888E+06  4.249738E+05  4.089027E+05 -1.518675E+05  1.380707E+05  2.273710E+04
       223  22  8.071713E+05  5.682740E+01  7.285328E+03 -1.382882E+05  5.281498E+03  8.807802E+04
       223  23  8.046345E+05  4.583089E+03  1.316833E+04 -1.234306E+05  1.206266E+04  7.482363E+04
       223  24  8.070306E+05  2.394068E+04  2.723251E+04 -1.383163E+05  1.891900E+04  2.256623E+04
       223  25 -5.360456E+05 -3.167242E+05 -2.335114E+05 -1.408795E+05  1.560535E+04  8.810439E+04
       223  26 -6.735754E+05 -3.488106E+05 -2.757003E+05 -1.179681E+05 -4.220402E+04  7.477069E+04
       223  27 -8.173664E+05 -3.772721E+05 -3.545653E+05 -1.248013E+05 -9.992338E+04  2.238997E+04
       224   1  5.303934E+05  2.139747E+06  5.133414E+05 -5.336025E+05  2.193385E+04  1.356594E+05
       224   2  3.670535E+05  1.614654E+06  3.203856E+05 -4.651703E+05  6.572206E+04  4.238087E+04
       224   3  2.369721E+05  1.110089E+06  1.963087E+05 -5.120191E+05  5.884900E+04 -5.087550E+04
       224   4  3.133395E+04  1.219771E+05  3.349553E+04 -5.118544E+05  2.217529E+04  2.120839E+04
       224   5  7.758250E+03  1.193534E+05  1.790149E+04 -4.542396E+05  6.580364E+04  1.209862E+04
       224   6  2.917153E+03  1.224760E+05  1.289025E+04 -5.119133E+05  5.871802E+04  2.932169E+03
       224   7 -4.680101E+05 -1.892037E+06 -4.465858E+05 -4.901738E+05  2.240925E+04 -9.287352E+04
       224   8 -3.516748E+05 -1.373820E+06 -2.846949E+05 -4.433338E+05  6.588428E+04 -1.811225E+04
       224   9 -2.311922E+05 -8.641875E+05 -1.705586E+05 -5.118068E+05  5.858692E+04  5.665656E+04
       224  10  5.303880E+05  2.139728E+06  5.133060E+05 -5.336049E+05 -1.937580E-10 -3.140915E-09
       224  11  3.670484E+05  1.614651E+06  3.203741E+05 -4.651725E+05 -7.450686E-10  7.350624E-09
       224  12  2.369677E+05  1.110086E+06  1.962974E+05 -5.120167E+05 -2.815017E-09  2.010046E-08
       224  13  3.133330E+04  1.219764E+05  3.349376E+04 -5.118548E+05  1.111163E-09 -2.745403E-11
       224  14  7.753560E+03  1.193521E+05  1.789307E+04 -4.542402E+05  2.797839E-10  8.223491E-10
       224  15  2.913448E+03  1.224751E+05  1.288375E+04 -5.119135E+05 -4.918785E-10 -3.106670E-09
       224  16 -4.680130E+05 -1.892046E+06 -4.466030E+05 -4.901721E+05 -2.127782E-10  3.780428E-09
       224  17 -3.516796E+05 -1.373821E+06 -2.847037E+05 -4.433328E+05  2.228164E-09 -9.409956E-09
       224  18 -2.311967E+05 -8.641919E+05 -1.705711E+05 -5.118095E+05 -2.080548E-09 -2.058296E-08
       224  19  5.303934E+05  2.139747E+06  5.133414E+05 -5.336025E+05 -2.193385E+04 -1.356594E+05
       224  20  3.670535E+05  1.614654E+06  3.203856E+05 -4.651703E+05 -6.572206E+04 -4.238087E+04
       224  21  2.369721E+05  1.110089E+06  1.963087E+05 -5.120191E+05 -5.884900E+04  5.087550E+04
       224  22  3.133395E+04  1.219771E+05  3.349553E+04 -5.118544E+05 -2.217529E+04 -2.120839E+04
       224  23  7.758250E+03  1.193534E+05  1.790149E+04 -4.542396E+05 -6.580364E+04 -1.209862E+04
       224  24  2.917153E+03  1.224760E+05  1.289025E+04 -5.119133E+05 -5.871802E+04 -2.932169E+03
       224  25 -4.680101E+05 -1.892037E+06 -4.465858E+05 -4.901738E+05 -2.240925E+04  9.287352E+04
       224  26 -3.516748E+05 -1.373820E+06 -2.846949E+05 -4.433338E+05 -6.588428E+04  1.811225E+04
       224  27 -2.311922E+05 -8.641875E+05 -1.705586E+05 -5.118068E+05 -5.858692E+04 -5.665656E+04
       225   1  1.571847E+05  7.700650E+05  1.325293E+05 -5.148654E+05  3.882844E+04 -4.723463E+04
       225   2  3.425271E+04  2.551299E+05  3.697702E+04 -4.534224E+05  9.542240E+03 -5.495653E+04
       225   3 -8.467267E+04 -2.580305E+05 -5.270037E+04 -5.102888E+05 -2.028930E+04 -6.267650E+04
       225   4  3.491411E+03  1.216074E+05  1.222238E+04 -5.125785E+05  3.870316E+04  8.787392E+02
       225   5  2.742034E+03  1.209498E+05  1.356559E+04 -4.534209E+05  9.412535E+03 -5.956006E+03
       225   6  5.857120E+03  1.216525E+05  2.016550E+04 -5.125726E+05 -2.042399E+04 -1.279485E+04
       225   7 -1.502247E+05 -5.264383E+05 -1.080936E+05 -5.102937E+05  3.857814E+04  4.894319E+04
       225   8 -2.876833E+04 -1.320751E+04 -9.837453E+03 -4.534193E+05  9.282812E+03  4.303425E+04
       225   9  9.637973E+04  5.014798E+05  9.303411E+04 -5.148576E+05 -2.055899E+04  3.711662E+04
       225  10  1.571825E+05  7.700622E+05  1.325223E+05 -5.148639E+05 -2.356798E-09 -1.840686E-08
       225  11  3.425180E+04  2.551267E+05  3.697117E+04 -4.534220E+05  8.769755E-10 -1.046117E-08
       225  12 -8.467417E+04 -2.580349E+05 -5.270854E+04 -5.102899E+05  3.989385E-10  3.046318E-09
       225  13  3.489802E+03  1.216070E+05  1.221957E+04 -5.125785E+05  6.683892E-11 -6.806164E-11
       225  14  2.741930E+03  1.209498E+05  1.356536E+04 -4.534208E+05  1.232689E-09  9.703416E-10
       225  15  5.856628E+03  1.216522E+05  2.016440E+04 -5.125728E+05 -9.854860E-10 -3.393770E-09
       225  16 -1.502269E+05 -5.264413E+05 -1.081009E+05 -5.102952E+05 -1.828913E-09  1.939862E-08
       225  17 -2.876892E+04 -1.320952E+04 -9.841097E+03 -4.534197E+05 -4.631490E-10  7.798125E-09
       225  18  9.637891E+04  5.014782E+05  9.303073E+04 -5.148570E+05 -7.280473E-10 -3.563695E-09
       225  19  1.571847E+05  7.700650E+05  1.325293E+05 -5.148654E+05 -3.882844E+04  4.723463E+04
       225  20  3.425271E+04  2.551299E+05  3.697702E+04 -4.534224E+05 -9.542240E+03  5.495653E+04
       225  21 -8.467267E+04 -2.580305E+05 -5.270037E+04 -5.102888E+05  2.028930E+04  6.267650E+04
       225  22  3.491411E+03  1.216074E+05  1.222238E+04 -5.125785E+05 -3.870316E+04 -8.787392E+02
       225  23  2.742034E+03  1.209498E+05  1.356559E+04 -4.534209E+05 -9.412535E+03  5.956006E+03
       225  24  5.857120E+03  1.216525E+05  2.016550E+04 -5.125726E+05  2.042399E+04  1.279485E+04
       225  25 -1.502247E+05 -5.264383E+05 -1.080936E+05 -5.102937E+05 -3.857814E+04 -4.894319E+04
       225  26 -2.876833E+04 -1.320751E+04 -9.837453E+03 -4.534193E+05 -9.282812E+03 -4.303425E+04
       225  27  9.637973E+04  5.014798E+05  9.303411E+04 -5.148576E+05  2.055899E+04 -3.711662E+04
       226   1 -1.663696E+05 -5.935281E+05 -1.103169E+05 -5.155986E+05 -4.056280E+04 -7.098919E+04
       226   2 -2.767550E+05 -1.108580E+06 -2.070285E+05 -4.295672E+05 -5.157544E+04 -2.014070E+04
       226   3 -3.511568E+05 -1.621230E+06 -3.279589E+05 -4.592683E+05 -1.816253E+04  3.072381E+04
       226   4  4.397243E+03  1.245859E+05  2.531364E+04 -5.120122E+05 -4.070517E+04 -1.627587E+04
       226   5  1.880943E+04  1.169401E+05  4.389707E+04 -4.540807E+05 -5.152183E+04 -3.892141E+04
       226   6  8.193591E+04  1.241730E+05  8.930598E+04 -5.118449E+05 -1.795767E+04 -6.150882E+04
       226   7  1.751357E+05  8.432047E+05  1.609327E+05 -5.084210E+05 -4.084679E+04  3.849923E+04
       226   8  3.142819E+05  1.343890E+06  2.947445E+05 -4.786422E+05 -5.146681E+04 -5.773851E+04
       226   9  5.148223E+05  1.872397E+06  5.063894E+05 -5.645677E+05 -1.773755E+04 -1.539999E+05
       226  10 -1.663727E+05 -5.935340E+05 -1.103295E+05 -5.156009E+05  1.184395E-09  2.855765E-09
       226  11 -2.767580E+05 -1.108581E+06 -2.070343E+05 -4.295680E+05  2.617307E-09 -6.923158E-10
       226  12 -3.511574E+05 -1.621231E+06 -3.279613E+05 -4.592679E+05  1.188411E-09 -1.464418E-09
       226  13  4.395392E+03  1.245852E+05  2.531002E+04 -5.120127E+05  3.895597E-10 -6.477779E-11
       226  14  1.880618E+04  1.169377E+05  4.388923E+04 -4.540823E+05  1.132584E-09  8.266003E-10
       226  15  8.193455E+04  1.241689E+05  8.929826E+04 -5.118458E+05 -3.011370E-10 -2.440472E-09
       226  16  1.751335E+05  8.432026E+05  1.609268E+05 -5.084197E+05 -1.780842E-09 -1.735151E-09
       226  17  3.142781E+05  1.343886E+06  2.947333E+05 -4.786446E+05 -5.192922E-10 -1.165064E-09
       226  18  5.148156E+05  1.872371E+06  5.063443E+05 -5.645699E+05 -1.060967E-10  1.267312E-09
       226  19 -1.663696E+05 -5.935281E+05 -1.103169E+05 -5.155986E+05  4.056280E+04  7.098919E+04
       226  20 -2.767550E+05 -1.108580E+06 -2.070285E+05 -4.295672E+05  5.157544E+04  2.014070E+04
       226  21 -3.511568E+05 -1.621230E+06 -3.279589E+05 -4.592683E+05  1.816253E+04 -3.072381E+04
       226  22  4.397243E+03  1.245859E+05  2.531364E+04 -5.120122E+05  4.070517E+04  1.627587E+04
       226  23  1.880943E+04  1.169401E+05  4.389707E+04 -4.540807E+05  5.152183E+04  3.892141E+04
       226  24  8.193591E+04  1.241730E+05  8.930598E+04 -5.118449E+05  1.795767E+04  6.150882E+04
       226  25  1.751357E+05  8.432047E+05  1.609327E+05 -5.084210E+05  4.084679E+04 -3.849923E+04
       226  26  3.142819E+05  1.343890E+06  2.947445E+05 -4.786422E+05  5.146681E+04  5.773851E+04
       226  27  5.148223E+05  1.872397E+06  5.063894E+05 -5.645677E+05  1.773755E+04  1.539999E+05
       227   1 -1.326293E+06 -6.082653E+05 -3.469346E+05 -5.386170E+05 -1.543600E+05 -4.516468E+04
       227   2 -1.248570E+06 -4.372308E+05 -2.140355E+05 -5.053197E+05 -9.646300E+04  5.543534E+03
       227   3 -1.196250E+06 -3.639457E+05 -1.539302E+05 -4.693590E+05 -3.075792E+04  3.554486E+04
       227   4 -6.068307E+05 -2.659241E+05 -1.468106E+05 -2.676463E+05 -9.914215E+04 -2.442396E+04
       227   5 -5.892331E+05 -1.632460E+05 -6.766947E+04 -2.903793E+05 -7.326838E+04  1.425228E+04
       227   6 -5.906499E+05 -1.519179E+05 -3.587135E+04 -3.104645E+05 -3.960080E+04  3.221853E+04
       227   7  1.131484E+05  7.654650E+04  5.327655E+04  3.638411E+03 -4.385509E+04 -3.640987E+03
       227   8  7.054949E+04  1.108083E+05  7.867165E+04 -7.521667E+04 -5.004727E+04  2.297396E+04
       227   9  1.533315E+04  6.013597E+04  8.217229E+04 -1.514285E+05 -4.845300E+04  2.888903E+04
       227  10 -1.326319E+06 -6.082739E+05 -3.469833E+05 -5.386226E+05  3.961885E-10 -5.874881E-10
       227  11 -1.248580E+06 -4.372333E+05 -2.140530E+05 -5.053193E+05 -1.869394E-09 -1.050617E-09
       227  12 -1.196251E+06 -3.639473E+05 -1.539343E+05 -4.693581E+05 -2.233166E-09 -3.896186E-10
       227  13 -6.068414E+05 -2.659274E+05 -1.468302E+05 -2.676483E+05  7.505253E-10  7.652103E-10
       227  14 -5.892389E+05 -1.632477E+05 -6.767995E+04 -2.903784E+05 -1.654159E-09 -7.759182E-10
       227  15 -5.906518E+05 -1.519195E+05 -3.587625E+04 -3.104635E+05 -1.565663E-11 -7.663345E-10
       227  16  1.131463E+05  7.654597E+04  5.327292E+04  3.638282E+03 -3.585654E-10 -7.840785E-10
       227  17  7.054665E+04  1.108071E+05  7.866596E+04 -7.521574E+04  1.112020E-09 -1.418196E-09
       227  18  1.533041E+04  6.013445E+04  8.216631E+04 -1.514273E+05  2.330030E-09  7.339838E-10
       227  19 -1.326293E+06 -6.082653E+05 -3.469346E+05 -5.386170E+05  1.543600E+05  4.516468E+04
       227  20 -1.248570E+06 -4.372308E+05 -2.140355E+05 -5.053197E+05  9.646300E+04 -5.543534E+03
       227  21 -1.196250E+06 -3.639457E+05 -1.539302E+05 -4.693590E+05  3.075792E+04 -3.554486E+04
       227  22 -6.068307E+05 -2.659241E+05 -1.468106E+05 -2.676463E+05  9.914215E+04  2.442396E+04
       227  23 -5.892331E+05 -1.632460E+05 -6.766947E+04 -2.903793E+05  7.326838E+04 -1.425228E+04
       227  24 -5.906499E+05 -1.519179E+05 -3.587135E+04 -3.104645E+05  3.960080E+04 -3.221853E+04
       227  25  1.131484E+05  7.654650E+04  5.327655E+04  3.638411E+03  4.385509E+04  3.640987E+03
       227  26  7.054949E+04  1.108083E+05  7.867165E+04 -7.521667E+04  5.004727E+04 -2.297396E+04
       227  27  1.533315E+04  6.013597E+04  8.217229E+04 -1.514285E+05  4.845300E+04 -2.888903E+04
       228   1 -1.125841E+06 -3.532867E+05 -1.332534E+05 -4.595713E+05 -2.874387E+04  3.231658E+04
       228   2 -1.046796E+06 -3.085277E+05 -1.015332E+05 -4.270590E+05 -1.744778E+04  3.164340E+04
       228   3 -9.551131E+05 -2.833522E+05 -7.811278E+04 -4.114948E+05 -5.557143E+03  2.938521E+04
       228   4 -5.861548E+05 -1.546588E+05 -2.721701E+04 -3.077472E+05 -3.419756E+04  3.026442E+04
       228   5 -5.923562E+05 -1.426739E+05 -1.436724E+04 -3.001805E+05 -2.534920E+04  2.867362E+04
       228   6 -5.854390E+05 -1.497849E+05 -7.870560E+03 -3.095645E+05 -1.590786E+04  2.549789E+04
       228   7 -4.617060E+04  4.399467E+04  7.880487E+04 -1.558015E+05 -3.965629E+04  2.821032E+04
       228   8 -1.377009E+05  2.319888E+04  7.279022E+04 -1.732156E+05 -3.325682E+04  2.570150E+04
       228   9 -2.156188E+05 -1.620429E+04  6.236738E+04 -2.075769E+05 -2.626528E+04  2.160809E+04
       228  10 -1.125843E+06 -3.532881E+05 -1.332569E+05 -4.595705E+05 -4.160195E-10  6.523727E-10
       228  11 -1.046797E+06 -3.085289E+05 -1.015357E+05 -4.270585E+05 -1.349451E-09  5.612181E-10
       228  12 -9.551134E+05 -2.833532E+05 -7.811446E+04 -4.114947E+05  2.504975E-10 -2.303638E-10
       228  13 -5.861563E+05 -1.546600E+05 -2.722093E+04 -3.077464E+05 -2.079353E-09  1.566511E-09
       228  14 -5.923571E+05 -1.426750E+05 -1.437000E+04 -3.001799E+05  1.264167E-09  8.676400E-10
       228  15 -5.854395E+05 -1.497857E+05 -7.872256E+03 -3.095642E+05  1.068635E-10  5.784806E-11
       228  16 -4.617250E+04  4.399339E+04  7.880042E+04 -1.558006E+05  2.406418E-11  7.528007E-10
       228  17 -1.377022E+05  2.319787E+04  7.278690E+04 -1.732149E+05  8.180468E-10  9.929001E-10
       228  18 -2.156196E+05 -1.620497E+04  6.236520E+04 -2.075765E+05  8.982958E-11  5.243084E-10
       228  19 -1.125841E+06 -3.532867E+05 -1.332534E+05 -4.595713E+05  2.874387E+04 -3.231658E+04
       228  20 -1.046796E+06 -3.085277E+05 -1.015332E+05 -4.270590E+05  1.744778E+04 -3.164340E+04
       228  21 -9.551131E+05 -2.833522E+05 -7.811278E+04 -4.114948E+05  5.557143E+03 -2.938521E+04
       228  22 -5.861548E+05 -1.546588E+05 -2.721701E+04 -3.077472E+05  3.419756E+04 -3.026442E+04
       228  23 -5.923562E+05 -1.426739E+05 -1.436724E+04 -3.001805E+05  2.534920E+04 -2.867362E+04
       228  24 -5.854390E+05 -1.497849E+05 -7.870560E+03 -3.095645E+05  1.590786E+04 -2.549789E+04
       228  25 -4.617060E+04  4.399467E+04  7.880487E+04 -1.558015E+05  3.965629E+04 -2.821032E+04
       228  26 -1.377009E+05  2.319888E+04  7.279022E+04 -1.732156E+05  3.325682E+04 -2.570150E+04
       228  27 -2.156188E+05 -1.620429E+04  6.236738E+04 -2.075769E+05  2.626528E+04 -2.160809E+04
       229   1 -8.970958E+05 -2.630115E+05 -6.483382E+04 -3.959102E+05 -3.245968E+03  2.579853E+04
       229   2 -8.185128E+05 -2.238748E+05 -4.594663E+04 -3.631588E+05  1.043331E+03  1.990003E+04
       229   3 -7.247492E+05 -2.004400E+05 -2.846299E+04 -3.481382E+05  5.377633E+03  1.387816E+04
       229   4 -5.850918E+05 -1.499219E+05 -5.921936E+03 -3.093965E+05 -1.334326E+04  2.200734E+04
       229   5 -5.926808E+05 -1.420243E+05 -3.264738E+03 -3.005513E+05 -9.244565E+03  1.603844E+04
       229   6 -5.850592E+05 -1.497908E+05 -1.859688E+03 -3.094394E+05 -5.101161E+03  9.946103E+03
       229   7 -2.729860E+05 -3.682360E+04  5.298641E+04 -2.228423E+05 -2.344598E+04  1.821413E+04
       229   8 -3.667964E+05 -6.016963E+04  3.941523E+04 -2.379229E+05 -1.953642E+04  1.217536E+04
       229   9 -4.453500E+05 -9.914031E+04  2.474291E+04 -2.707327E+05 -1.558239E+04  6.013136E+03
       229  10 -8.970960E+05 -2.630122E+05 -6.483509E+04 -3.959101E+05  6.076203E-09  1.278308E-09
       229  11 -8.185129E+05 -2.238752E+05 -4.594738E+04 -3.631588E+05 -1.012341E-08 -4.066614E-09
       229  12 -7.247493E+05 -2.004402E+05 -2.846340E+04 -3.481383E+05 -1.763465E-08 -7.958588E-09
       229  13 -5.850922E+05 -1.499225E+05 -5.923181E+03 -3.093962E+05 -1.206465E-09 -7.688857E-10
       229  14 -5.926810E+05 -1.420246E+05 -3.265381E+03 -3.005512E+05  3.033429E-10 -4.244531E-10
       229  15 -5.850593E+05 -1.497909E+05 -1.859922E+03 -3.094393E+05  8.419288E-09  8.347950E-10
       229  16 -2.729867E+05 -3.682410E+04  5.298475E+04 -2.228420E+05 -6.281401E-09 -2.373437E-09
       229  17 -3.667969E+05 -6.016989E+04  3.941424E+04 -2.379228E+05  1.134733E-08  2.658677E-09
       229  18 -4.453503E+05 -9.914041E+04  2.474238E+04 -2.707327E+05  3.033632E-08  9.514667E-09
       229  19 -8.970958E+05 -2.630115E+05 -6.483382E+04 -3.959102E+05  3.245968E+03 -2.579853E+04
       229  20 -8.185128E+05 -2.238748E+05 -4.594663E+04 -3.631588E+05 -1.043331E+03 -1.990003E+04
       229  21 -7.247492E+05 -2.004400E+05 -2.846299E+04 -3.481382E+05 -5.377633E+03 -1.387816E+04
       229  22 -5.850918E+05 -1.499219E+05 -5.921936E+03 -3.093965E+05  1.334326E+04 -2.200734E+04
       229  23 -5.926808E+05 -1.420243E+05 -3.264738E+03 -3.005513E+05  9.244565E+03 -1.603844E+04
       229  24 -5.850592E+05 -1.497908E+05 -1.859688E+03 -3.094394E+05  5.101161E+03 -9.946103E+03
       229  25 -2.729860E+05 -3.682360E+04  5.298641E+04 -2.228423E+05  2.344598E+04 -1.821413E+04
       229  26 -3.667964E+05 -6.016963E+04  3.941523E+04 -2.379229E+05  1.953642E+04 -1.217536E+04
       229  27 -4.453500E+05 -9.914031E+04  2.474291E+04 -2.707327E+05  1.558239E+04 -6.013136E+03
       230   1 -6.674005E+05 -1.795965E+05 -1.676042E+04 -3.322647E+05  7.112387E+03  1.003569E+04
       230   2 -5.889076E+05 -1.406267E+05 -2.288130E+02 -2.994428E+05  1.013375E+04  3.460672E+03
       230   3 -4.949846E+05 -1.171587E+05  1.594023E+04 -2.843580E+05  1.315823E+04 -3.122475E+03
       230   4 -5.850161E+05 -1.497981E+05 -1.446791E+03 -3.094238E+05 -3.348963E+03  6.110515E+03
       230   5 -5.927285E+05 -1.420556E+05 -9.486099E+02 -3.005503E+05 -3.409976E+02 -4.695869E+02
       230   6 -5.850180E+05 -1.498138E+05 -8.032452E+02 -3.094177E+05  2.669993E+03 -7.057817E+03
       230   7 -5.026236E+05 -1.199987E+05  1.386726E+04 -2.865798E+05 -1.381189E+04  2.184747E+03
       230   8 -5.965492E+05 -1.434844E+05 -1.667942E+03 -3.016578E+05 -1.081573E+04 -4.399836E+03
       230   9 -6.750427E+05 -1.824681E+05 -1.754657E+04 -3.344740E+05 -7.816621E+03 -1.099255E+04
       230  10 -6.674005E+05 -1.795966E+05 -1.676071E+04 -3.322648E+05  3.361721E-08  1.005904E-08
       230  11 -5.889077E+05 -1.406268E+05 -2.290288E+02 -2.994428E+05  1.188140E-08  2.043630E-09
       230  12 -4.949847E+05 -1.171588E+05  1.593989E+04 -2.843580E+05 -5.301716E-09 -1.404761E-09
       230  13 -5.850161E+05 -1.497981E+05 -1.446882E+03 -3.094238E+05  6.651451E-09  4.451220E-10
       230  14 -5.927285E+05 -1.420556E+05 -9.486106E+02 -3.005503E+05  1.766823E-10 -1.750355E-09
       230  15 -5.850180E+05 -1.498139E+05 -8.033522E+02 -3.094177E+05 -8.358958E-10  2.874420E-10
       230  16 -5.026238E+05 -1.199987E+05  1.386689E+04 -2.865798E+05 -2.062208E-08 -9.539402E-09
       230  17 -5.965493E+05 -1.434844E+05 -1.668198E+03 -3.016579E+05 -9.945896E-09 -4.812595E-09
       230  18 -6.750428E+05 -1.824683E+05 -1.754691E+04 -3.344741E+05  3.568414E-09  1.723414E-09
       230  19 -6.674005E+05 -1.795965E+05 -1.676042E+04 -3.322647E+05 -7.112387E+03 -1.003569E+04
       230  20 -5.889076E+05 -1.406267E+05 -2.288130E+02 -2.994428E+05 -1.013375E+04 -3.460672E+03
       230  21 -4.949846E+05 -1.171587E+05  1.594023E+04 -2.843580E+05 -1.315823E+04  3.122475E+03
       230  22 -5.850161E+05 -1.497981E+05 -1.446791E+03 -3.094238E+05  3.348963E+03 -6.110515E+03
       230  23 -5.927285E+05 -1.420556E+05 -9.486099E+02 -3.005503E+05  3.409976E+02  4.695869E+02
       230  24 -5.850180E+05 -1.498138E+05 -8.032452E+02 -3.094177E+05 -2.669993E+03  7.057817E+03
       230  25 -5.026236E+05 -1.199987E+05  1.386726E+04 -2.865798E+05  1.381189E+04 -2.184747E+03
       230  26 -5.965492E+05 -1.434844E+05 -1.667942E+03 -3.016578E+05  1.081573E+04  4.399836E+03
       230  27 -6.750427E+05 -1.824681E+05 -1.754657E+04 -3.344740E+05  7.816621E+03  1.099255E+04
       231   1 -4.377054E+05 -9.629057E+04  2.718981E+04 -2.684700E+05  1.477302E+04 -7.011526E+03
       231   2 -3.592463E+05 -5.733507E+04  4.289834E+04 -2.356584E+05  1.785828E+04 -1.356651E+04
       231   3 -2.653673E+05 -3.387087E+04  5.820023E+04 -2.205742E+05  2.093966E+04 -2.010707E+04
       231   4 -5.850250E+05 -1.498155E+05 -8.375506E+02 -3.094160E+05  4.285673E+03 -1.094688E+04
       231   5 -5.927364E+05 -1.420724E+05 -1.142242E+03 -3.005516E+05  7.391899E+03 -1.749517E+04
       231   6 -5.850394E+05 -1.498256E+05 -1.870266E+03 -3.094179E+05  1.049419E+04 -2.402908E+04
       231   7 -7.323205E+05 -2.033379E+05 -2.886498E+04 -3.503525E+05 -6.198913E+03 -1.488120E+04
       231   8 -8.261694E+05 -2.268047E+05 -4.518456E+04 -3.654221E+05 -3.070264E+03 -2.142225E+04
       231   9 -9.046073E+05 -2.657720E+05 -6.194517E+04 -3.982198E+05  5.436980E+01 -2.794897E+04
       231  10 -4.377056E+05 -9.629068E+04  2.718931E+04 -2.684700E+05  5.048796E-08  2.155187E-08
       231  11 -3.592467E+05 -5.733535E+04  4.289740E+04 -2.356582E+05  2.692854E-09  4.643213E-09
       231  12 -2.653678E+05 -3.387143E+04  5.819865E+04 -2.205738E+05 -4.857704E-08 -1.645467E-08
       231  13 -5.850251E+05 -1.498156E+05 -8.378102E+02 -3.094159E+05  2.674241E-10  2.662994E-09
       231  14 -5.927366E+05 -1.420727E+05 -1.142919E+03 -3.005515E+05  1.076629E-09  4.693604E-09
       231  15 -5.850396E+05 -1.498262E+05 -1.871558E+03 -3.094177E+05  5.529895E-10  1.324402E-09
       231  16 -7.323206E+05 -2.033382E+05 -2.886547E+04 -3.503526E+05 -4.996620E-08 -1.641125E-08
       231  17 -8.261695E+05 -2.268052E+05 -4.518544E+04 -3.654221E+05  1.509349E-09  4.298188E-09
       231  18 -9.046075E+05 -2.657728E+05 -6.194664E+04 -3.982198E+05  5.036935E-08  1.982152E-08
       231  19 -4.377054E+05 -9.629057E+04  2.718981E+04 -2.684700E+05 -1.477302E+04  7.011526E+03
       231  20 -3.592463E+05 -5.733507E+04  4.289834E+04 -2.356584E+05 -1.785828E+04  1.356651E+04
       231  21 -2.653673E+05 -3.387087E+04  5.820023E+04 -2.205742E+05 -2.093966E+04  2.010707E+04
       231  22 -5.850250E+05 -1.498155E+05 -8.375506E+02 -3.094160E+05 -4.285673E+03  1.094688E+04
       231  23 -5.927364E+05 -1.420724E+05 -1.142242E+03 -3.005516E+05 -7.391899E+03  1.749517E+04
       231  24 -5.850394E+05 -1.498256E+05 -1.870266E+03 -3.094179E+05 -1.049419E+04  2.402908E+04
       231  25 -7.323205E+05 -2.033379E+05 -2.886498E+04 -3.503525E+05  6.198913E+03  1.488120E+04
       231  26 -8.261694E+05 -2.268047E+05 -4.518456E+04 -3.654221E+05  3.070264E+03  2.142225E+04
       231  27 -9.046073E+05 -2.657720E+05 -6.194517E+04 -3.982198E+05 -5.436980E+01  2.794897E+04
       232   1 -2.081717E+05 -1.303556E+04  6.890367E+04 -2.047402E+05  2.279478E+04 -2.389676E+04
       232   2 -1.297273E+05  2.588356E+04  8.306053E+04 -1.719583E+05  2.722359E+04 -2.984503E+04
       232   3 -3.611347E+04  4.914754E+04  9.574810E+04 -1.568745E+05  3.159469E+04 -3.563121E+04
       232   4 -5.851064E+05 -1.498196E+05 -2.442478E+03 -3.094351E+05  1.232883E+04 -2.782752E+04
       232   5 -5.926920E+05 -1.420664E+05 -4.353930E+03 -3.005532E+05  1.700578E+04 -3.368494E+04
       232   6 -5.851644E+05 -1.500192E+05 -7.932127E+03 -3.093734E+05  2.162472E+04 -3.938028E+04
       232   7 -9.618924E+05 -2.865907E+05 -7.379393E+04 -4.140709E+05  1.869681E+03 -3.175574E+04
       232   8 -1.055430E+06 -3.099960E+05 -9.177603E+04 -4.290584E+05  6.796184E+03 -3.752179E+04
       232   9 -1.133895E+06 -3.491566E+05 -1.116228E+05 -4.617457E+05  1.166427E+04 -4.312580E+04
       232  10 -2.081724E+05 -1.303632E+04  6.890162E+04 -2.047398E+05 -2.829796E-09 -1.056127E-09
       232  11 -1.297283E+05  2.588240E+04  8.305747E+04 -1.719577E+05 -1.211520E-09 -1.015053E-09
       232  12 -3.611488E+04  4.914591E+04  9.574384E+04 -1.568736E+05 -1.587515E-09 -1.412365E-09
       232  13 -5.851067E+05 -1.498205E+05 -2.444219E+03 -3.094348E+05  9.618397E-10 -3.852478E-10
       232  14 -5.926926E+05 -1.420677E+05 -4.356604E+03 -3.005528E+05  1.825023E-09 -3.308700E-10
       232  15 -5.851653E+05 -1.500210E+05 -7.935919E+03 -3.093727E+05  1.983099E-09 -8.148029E-10
       232  16 -9.618927E+05 -2.865918E+05 -7.379583E+04 -4.140709E+05  3.409171E-09  6.628311E-10
       232  17 -1.055431E+06 -3.099975E+05 -9.177876E+04 -4.290582E+05  2.004090E-09 -4.648235E-10
       232  18 -1.133896E+06 -3.491586E+05 -1.116265E+05 -4.617453E+05  1.715329E-09  3.227493E-10
       232  19 -2.081717E+05 -1.303556E+04  6.890367E+04 -2.047402E+05 -2.279478E+04  2.389676E+04
       232  20 -1.297273E+05  2.588356E+04  8.306053E+04 -1.719583E+05 -2.722359E+04  2.984503E+04
       232  21 -3.611347E+04  4.914754E+04  9.574810E+04 -1.568745E+05 -3.159469E+04  3.563121E+04
       232  22 -5.851064E+05 -1.498196E+05 -2.442478E+03 -3.094351E+05 -1.232883E+04  2.782752E+04
       232  23 -5.926920E+05 -1.420664E+05 -4.353930E+03 -3.005532E+05 -1.700578E+04  3.368494E+04
       232  24 -5.851644E+05 -1.500192E+05 -7.932127E+03 -3.093734E+05 -2.162472E+04  3.938028E+04
       232  25 -9.618924E+05 -2.865907E+05 -7.379393E+04 -4.140709E+05 -1.869681E+03  3.175574E+04
       232  26 -1.055430E+06 -3.099960E+05 -9.177603E+04 -4.290584E+05 -6.796184E+03  3.752179E+04
       232  27 -1.133895E+06 -3.491566E+05 -1.116228E+05 -4.617457E+05 -1.166427E+04  4.312580E+04
       233   1  2.115599E+04  6.965445E+04  1.044502E+05 -1.418247E+05  3.485579E+04 -3.883648E+04
       233   2  9.868985E+04  1.091387E+05  1.128735E+05 -1.069740E+05  4.349349E+04 -4.199525E+04
       233   3  1.891683E+05  1.289655E+05  1.153021E+05 -8.875255E+04  5.136383E+04 -4.310089E+04
       233   4 -5.856293E+05 -1.498359E+05 -1.054909E+04 -3.095932E+05  2.455804E+04 -4.271037E+04
       233   5 -5.922673E+05 -1.429631E+05 -1.927387E+04 -3.000557E+05  3.636730E+04 -4.468037E+04
       233   6 -5.866012E+05 -1.563837E+05 -3.651435E+04 -3.071532E+05  4.740777E+04 -4.459635E+04
       233   7 -1.192036E+06 -3.692957E+05 -1.255646E+05 -4.772112E+05  1.427098E+04 -4.658029E+04
       233   8 -1.282730E+06 -3.950222E+05 -1.514421E+05 -4.929386E+05  2.924957E+04 -4.736229E+04
       233   9 -1.361747E+06 -4.416765E+05 -1.883580E+05 -5.252999E+05  4.345700E+04 -4.608979E+04
       233  10  2.115429E+04  6.965250E+04  1.044451E+05 -1.418236E+05  1.078931E-09 -8.460062E-10
       233  11  9.868735E+04  1.091363E+05  1.128667E+05 -1.069725E+05 -1.481030E-09 -1.758831E-09
       233  12  1.891650E+05  1.289628E+05  1.152936E+05 -8.875077E+04 -1.072560E-09 -2.169687E-09
       233  13 -5.856305E+05 -1.498380E+05 -1.055365E+04 -3.095923E+05  1.970098E-10 -4.858574E-10
       233  14 -5.922693E+05 -1.429656E+05 -1.928010E+04 -3.000544E+05  2.357105E-09 -1.866520E-09
       233  15 -5.866042E+05 -1.563865E+05 -3.652231E+04 -3.071515E+05  1.495581E-09 -3.488380E-10
       233  16 -1.192037E+06 -3.692981E+05 -1.255691E+05 -4.772107E+05 -1.167459E-09 -4.428231E-10
       233  17 -1.282732E+06 -3.950248E+05 -1.514479E+05 -4.929375E+05 -3.210194E-10  1.267014E-09
       233  18 -1.361749E+06 -4.416793E+05 -1.883655E+05 -5.252983E+05  9.985697E-10  5.270846E-10
       233  19  2.115599E+04  6.965445E+04  1.044502E+05 -1.418247E+05 -3.485579E+04  3.883648E+04
       233  20  9.868985E+04  1.091387E+05  1.128735E+05 -1.069740E+05 -4.349349E+04  4.199525E+04
       233  21  1.891683E+05  1.289655E+05  1.153021E+05 -8.875255E+04 -5.136383E+04  4.310089E+04
       233  22 -5.856293E+05 -1.498359E+05 -1.054909E+04 -3.095932E+05 -2.455804E+04  4.271037E+04
       233  23 -5.922673E+05 -1.429631E+05 -1.927387E+04 -3.000557E+05 -3.636730E+04  4.468037E+04
       233  24 -5.866012E+05 -1.563837E+05 -3.651435E+04 -3.071532E+05 -4.740777E+04  4.459635E+04
       233  25 -1.192036E+06 -3.692957E+05 -1.255646E+05 -4.772112E+05 -1.427098E+04  4.658029E+04
       233  26 -1.282730E+06 -3.950222E+05 -1.514421E+05 -4.929386E+05 -2.924957E+04  4.736229E+04
       233  27 -1.361747E+06 -4.416765E+05 -1.883580E+05 -5.252999E+05 -4.345700E+04  4.608979E+04
       234   1  2.519355E+05  1.434171E+05  1.159006E+05 -8.834121E+04  6.250917E+04 -4.273091E+04
       234   2  2.990306E+05  1.980474E+05  1.051113E+05  2.715594E+03  6.547650E+04 -3.243085E+04
       234   3  3.236338E+05  1.437822E+05  6.377394E+04  1.034034E+05  5.834784E+04  4.668455E+03
       234   4 -5.926183E+05 -1.527187E+05 -4.812513E+04 -3.108107E+05  5.415644E+04 -4.588063E+04
       234   5 -5.881062E+05 -1.705408E+05 -9.078923E+04 -2.868872E+05  9.864653E+04 -1.995709E+04
       234   6 -6.143837E+05 -3.055948E+05 -1.969619E+05 -2.533252E+05  1.330291E+05  3.278246E+04
       234   7 -1.436433E+06 -4.488047E+05 -2.121820E+05 -5.330055E+05  4.581589E+04 -4.902618E+04
       234   8 -1.474417E+06 -5.389949E+05 -2.867285E+05 -5.760820E+05  1.317650E+05 -7.508448E+03
       234   9 -1.551478E+06 -7.547237E+05 -4.577454E+05 -6.094978E+05  2.075851E+05  6.081991E+04
       234  10  2.519308E+05  1.434141E+05  1.158899E+05 -8.833906E+04  2.318753E-09 -8.643787E-10
       234  11  2.990257E+05  1.980451E+05  1.051013E+05  2.717304E+03 -7.067688E-09 -9.853717E-10
       234  12  3.236301E+05  1.437812E+05  6.376751E+04  1.034032E+05 -7.205428E-09 -3.554867E-09
       234  13 -5.926221E+05 -1.527217E+05 -4.813459E+04 -3.108087E+05 -3.120419E-09 -2.421942E-09
       234  14 -5.881168E+05 -1.705439E+05 -9.080828E+04 -2.868856E+05 -1.010529E-08  8.346754E-10
       234  15 -6.144030E+05 -3.056007E+05 -1.969972E+05 -2.533287E+05 -2.949616E-09  1.144191E-09
       234  16 -1.436436E+06 -4.488079E+05 -2.121905E+05 -5.330037E+05 -7.286543E-09 -2.336185E-09
       234  17 -1.474436E+06 -5.389996E+05 -2.867613E+05 -5.760812E+05 -5.985602E-09 -1.633565E-09
       234  18 -1.551526E+06 -7.547393E+05 -4.578336E+05 -6.095080E+05  1.415341E-09  4.265949E-10
       234  19  2.519355E+05  1.434171E+05  1.159006E+05 -8.834121E+04 -6.250917E+04  4.273091E+04
       234  20  2.990306E+05  1.980474E+05  1.051113E+05  2.715594E+03 -6.547650E+04  3.243085E+04
       234  21  3.236338E+05  1.437822E+05  6.377394E+04  1.034034E+05 -5.834784E+04 -4.668455E+03
       234  22 -5.926183E+05 -1.527187E+05 -4.812513E+04 -3.108107E+05 -5.415644E+04  4.588063E+04
       234  23 -5.881062E+05 -1.705408E+05 -9.078923E+04 -2.868872E+05 -9.864653E+04  1.995709E+04
       234  24 -6.143837E+05 -3.055948E+05 -1.969619E+05 -2.533252E+05 -1.330291E+05 -3.278246E+04
       234  25 -1.436433E+06 -4.488047E+05 -2.121820E+05 -5.330055E+05 -4.581589E+04  4.902618E+04
       234  26 -1.474417E+06 -5.389949E+05 -2.867285E+05 -5.760820E+05 -1.317650E+05  7.508448E+03
       234  27 -1.551478E+06 -7.547237E+05 -4.577454E+05 -6.094978E+05 -2.075851E+05 -6.081991E+04
       235   1  1.248887E+06  1.673280E+05  1.451606E+05  5.590116E+03  1.219095E+04 -1.468992E+04
       235   2  1.196230E+06  2.113339E+05  1.410481E+05  2.876182E+04 -4.365273E+03 -4.959975E+04
       235   3  1.134904E+06  2.118017E+05  1.368727E+05  6.337317E+04 -2.096225E+04 -6.021750E+04
       235   4  2.264947E+05 -8.463732E+04 -9.430769E+04  5.672496E+04 -6.573085E+04 -1.484275E+04
       235   5  2.343449E+05 -1.812208E+04 -4.573409E+04  5.091407E+04 -4.201489E+04 -4.968627E+04
       235   6  2.265193E+05 -2.171746E+03 -2.518147E+04  5.654376E+04 -1.834060E+04 -6.021896E+04
       235   7 -7.949175E+05 -3.366635E+05 -3.338230E+05  1.077747E+05 -1.435253E+05 -1.500853E+04
       235   8 -7.266485E+05 -2.476306E+05 -2.325544E+05  7.303080E+04 -7.960753E+04 -4.977556E+04
       235   9 -6.810613E+05 -2.161907E+05 -1.872668E+05  4.972413E+04 -1.572266E+04 -6.022048E+04
       235  10  1.248887E+06  1.673277E+05  1.451599E+05  5.590260E+03  3.554447E-09 -1.020105E-09
       235  11  1.196229E+06  2.113312E+05  1.410435E+05  2.876164E+04  4.708085E-10 -5.053791E-09
       235  12  1.134903E+06  2.117977E+05  1.368650E+05  6.337215E+04 -1.343657E-09 -3.735811E-09
       235  13  2.264900E+05 -8.463871E+04 -9.431622E+04  5.672417E+04 -5.044547E-10  7.631558E-10
       235  14  2.343424E+05 -1.812520E+04 -4.574205E+04  5.091239E+04  1.082557E-09 -3.917036E-09
       235  15  2.265180E+05 -2.175731E+03 -2.518892E+04  5.654287E+04  3.726712E-10 -2.682863E-10
       235  16 -7.949397E+05 -3.366693E+05 -3.338622E+05  1.077730E+05 -4.196225E-09  5.138339E-11
       235  17 -7.266560E+05 -2.476349E+05 -2.325709E+05  7.302761E+04 -1.440198E-09 -6.800923E-09
       235  18 -6.810625E+05 -2.161947E+05 -1.872741E+05  4.972337E+04 -3.379552E-10 -6.398899E-09
       235  19  1.248887E+06  1.673280E+05  1.451606E+05  5.590116E+03 -1.219095E+04  1.468992E+04
       235  20  1.196230E+06  2.113339E+05  1.410481E+05  2.876182E+04  4.365273E+03  4.959975E+04
       235  21  1.134904E+06  2.118017E+05  1.368727E+05  6.337317E+04  2.096225E+04  6.021750E+04
       235  22  2.264947E+05 -8.463732E+04 -9.430769E+04  5.672496E+04  6.573085E+04  1.484275E+04
       235  23  2.343449E+05 -1.812208E+04 -4.573409E+04  5.091407E+04  4.201489E+04  4.968627E+04
       235  24  2.265193E+05 -2.171746E+03 -2.518147E+04  5.654376E+04  1.834060E+04  6.021896E+04
       235  25 -7.949175E+05 -3.366635E+05 -3.338230E+05  1.077747E+05  1.435253E+05  1.500853E+04
       235  26 -7.266485E+05 -2.476306E+05 -2.325544E+05  7.303080E+04  7.960753E+04  4.977556E+04
       235  27 -6.810613E+05 -2.161907E+05 -1.872668E+05  4.972413E+04  1.572266E+04  6.022048E+04
       236   1  1.099908E+06  2.010651E+05  1.347552E+05  5.701262E+04 -1.474318E+04 -5.886490E+04
       236   2  1.043697E+06  1.902608E+05  1.301025E+05  5.158524E+04 -1.296904E+04 -5.800213E+04
       236   3  9.867723E+05  1.775348E+05  1.238185E+05  5.908773E+04 -1.120193E+04 -5.502236E+04
       236   4  2.297211E+05 -3.620996E+03 -1.919664E+04  5.689993E+04 -1.505962E+04 -5.887294E+04
       236   5  2.303990E+05 -4.129263E+02 -1.057322E+04  5.042932E+04 -9.780992E+03 -5.800079E+04
       236   6  2.297501E+05  2.638252E+02 -6.015786E+03  5.688969E+04 -4.509167E+03 -5.501024E+04
       236   7 -6.397262E+05 -2.083486E+05 -1.731765E+05  5.678695E+04 -1.537561E+04 -5.888100E+04
       236   8 -5.822512E+05 -1.911222E+05 -1.512718E+05  4.927454E+04 -6.596978E+03 -5.799945E+04
       236   9 -5.267095E+05 -1.770377E+05 -1.358692E+05  5.469403E+04  2.175705E+03 -5.499817E+04
       236  10  1.099906E+06  2.010613E+05  1.347483E+05  5.701192E+04 -5.916311E-09 -4.099795E-09
       236  11  1.043696E+06  1.902572E+05  1.300959E+05  5.158464E+04 -3.313084E-09  1.055927E-09
       236  12  9.867713E+05  1.775315E+05  1.238126E+05  5.908724E+04  1.572884E-09  9.970112E-10
       236  13  2.297200E+05 -3.624779E+03 -1.920358E+04  5.689922E+04  6.357580E-10 -2.995819E-09
       236  14  2.303980E+05 -4.165648E+02 -1.057972E+04  5.042887E+04 -2.688747E-09 -1.696166E-11
       236  15  2.297493E+05  2.605699E+02 -6.021512E+03  5.688949E+04 -1.056750E-09 -4.868868E-09
       236  16 -6.397274E+05 -2.083524E+05 -1.731834E+05  5.678622E+04  5.057800E-09  5.926872E-10
       236  17 -5.822521E+05 -1.911259E+05 -1.512782E+05  4.927423E+04  1.939081E-09  2.343841E-09
       236  18 -5.267103E+05 -1.770410E+05 -1.358749E+05  5.469412E+04 -3.455066E-09 -1.070253E-09
       236  19  1.099908E+06  2.010651E+05  1.347552E+05  5.701262E+04  1.474318E+04  5.886490E+04
       236  20  1.043697E+06  1.902608E+05  1.301025E+05  5.158524E+04  1.296904E+04  5.800213E+04
       236  21  9.867723E+05  1.775348E+05  1.238185E+05  5.908773E+04  1.120193E+04  5.502236E+04
       236  22  2.297211E+05 -3.620996E+03 -1.919664E+04  5.689993E+04  1.505962E+04  5.887294E+04
       236  23  2.303990E+05 -4.129263E+02 -1.057322E+04  5.042932E+04  9.780992E+03  5.800079E+04
       236  24  2.297501E+05  2.638252E+02 -6.015786E+03  5.688969E+04  4.509167E+03  5.501024E+04
       236  25 -6.397262E+05 -2.083486E+05 -1.731765E+05  5.678695E+04  1.537561E+04  5.888100E+04
       236  26 -5.822512E+05 -1.911222E+05 -1.512718E+05  4.927454E+04  6.596978E+03  5.799945E+04
       236  27 -5.267095E+05 -1.770377E+05 -1.358692E+05  5.469403E+04 -2.175705E+03  5.499817E+04
       237   1  9.499641E+05  1.687040E+05  1.185848E+05  5.867030E+04 -1.002145E+04 -5.263498E+04
       237   2  8.935943E+05  1.555482E+05  1.107309E+05  5.203498E+04 -9.048527E+03 -4.866275E+04
       237   3  8.370580E+05  1.423961E+05  1.022336E+05  5.843916E+04 -8.078217E+03 -4.450774E+04
       237   4  2.300062E+05  1.768492E+02 -4.564624E+03  5.691561E+04 -3.588469E+03 -5.262253E+04
       237   5  2.301297E+05  2.729266E+02 -2.591151E+03  5.039525E+04 -2.314063E+03 -4.864786E+04
       237   6  2.300307E+05  3.204427E+02 -1.471087E+03  5.691521E+04 -1.042187E+03 -4.449030E+04
       237   7 -4.894428E+05 -1.683779E+05 -1.277312E+05  5.516266E+04  2.837299E+03 -5.261011E+04
       237   8 -4.329026E+05 -1.550257E+05 -1.159276E+05  4.875702E+04  4.413441E+03 -4.863299E+04
       237   9 -3.766345E+05 -1.417748E+05 -1.051878E+05  5.539252E+04  5.987189E+03 -4.447289E+04
       237  10  9.499632E+05  1.687010E+05  1.185794E+05  5.866987E+04 -2.247295E-09  2.240366E-09
       237  11  8.935936E+05  1.555456E+05  1.107263E+05  5.203462E+04  5.964911E-10  2.794355E-09
       237  12  8.370573E+05  1.423940E+05  1.022297E+05  5.843887E+04  5.955526E-09  1.252912E-09
       237  13  2.300054E+05  1.738719E+02 -4.569852E+03  5.691546E+04 -2.661091E-09 -5.463231E-09
       237  14  2.301290E+05  2.703836E+02 -2.595609E+03  5.039516E+04  1.075649E-09  3.113419E-09
       237  15  2.300302E+05  3.183166E+02 -1.474810E+03  5.691517E+04  3.315668E-09  6.177525E-09
       237  16 -4.894435E+05 -1.683809E+05 -1.277364E+05  5.516278E+04  2.773838E-09  5.870763E-10
       237  17 -4.329032E+05 -1.550282E+05 -1.159321E+05  4.875719E+04 -1.990059E-09  4.855459E-09
       237  18 -3.766350E+05 -1.417769E+05 -1.051916E+05  5.539273E+04 -4.489339E-09  7.611230E-10
       237  19  9.499641E+05  1.687040E+05  1.185848E+05  5.867030E+04  1.002145E+04  5.263498E+04
       237  20  8.935943E+05  1.555482E+05  1.107309E+05  5.203498E+04  9.048527E+03  4.866275E+04
       237  21  8.370580E+05  1.423961E+05  1.022336E+05  5.843916E+04  8.078217E+03  4.450774E+04
       237  22  2.300062E+05  1.768492E+02 -4.564624E+03  5.691561E+04  3.588469E+03  5.262253E+04
       237  23  2.301297E+05  2.729266E+02 -2.591151E+03  5.039525E+04  2.314063E+03  4.864786E+04
       237  24  2.300307E+05  3.204427E+02 -1.471087E+03  5.691521E+04  1.042187E+03  4.449030E+04
       237  25 -4.894428E+05 -1.683779E+05 -1.277312E+05  5.516266E+04 -2.837299E+03  5.261011E+04
       237  26 -4.329026E+05 -1.550257E+05 -1.159276E+05  4.875702E+04 -4.413441E+03  4.863299E+04
       237  27 -3.766345E+05 -1.417748E+05 -1.051878E+05  5.539252E+04 -5.987189E+03  4.447289E+04
       238   1  8.001821E+05  1.337091E+05  9.604523E+04  5.834217E+04 -7.826362E+03 -4.203443E+04
       238   2  7.438463E+05  1.205072E+05  8.702714E+04  5.169986E+04 -7.560730E+03 -3.779752E+04
       238   3  6.874282E+05  1.073905E+05  7.783754E+04  5.809046E+04 -7.296774E+03 -3.354629E+04
       238   4  2.300685E+05  3.199552E+02 -1.106086E+03  5.691381E+04 -8.154677E+02 -4.201619E+04
       238   5  2.301233E+05  2.896947E+02 -6.070712E+02  5.039704E+04 -5.267051E+02 -3.777790E+04
       238   6  2.300876E+05  3.403454E+02 -2.961193E+02  5.691380E+04 -2.395956E+02 -3.352530E+04
       238   7 -3.397256E+05 -1.330864E+05 -9.826793E+04  5.548656E+04  6.189200E+03 -4.199796E+04
       238   8 -2.833403E+05 -1.199418E+05 -8.824982E+04  4.909512E+04  6.501689E+03 -3.775831E+04
       238   9 -2.270474E+05 -1.067209E+05 -7.843655E+04  5.573786E+04  6.812553E+03 -3.350432E+04
       238  10  8.001815E+05  1.337072E+05  9.604180E+04  5.834191E+04  4.301795E-09  2.223864E-09
       238  11  7.438459E+05  1.205057E+05  8.702434E+04  5.169963E+04  1.133112E-10  9.332033E-09
       238  12  6.874279E+05  1.073893E+05  7.783533E+04  5.809027E+04 -2.786620E-09  8.266041E-09
       238  13  2.300680E+05  3.180592E+02 -1.109405E+03  5.691379E+04 -2.972933E-10  8.223669E-10
       238  14  2.301229E+05  2.881619E+02 -6.097539E+02  5.039702E+04  1.487465E-10  7.445989E-09
       238  15  2.300873E+05  3.391383E+02 -2.982318E+02  5.691380E+04 -5.214159E-10  4.508387E-09
       238  16 -3.397261E+05 -1.330883E+05 -9.827132E+04  5.548677E+04 -4.312061E-09  5.430487E-10
       238  17 -2.833407E+05 -1.199434E+05 -8.825258E+04  4.909532E+04  1.290704E-09  4.178393E-09
       238  18 -2.270477E+05 -1.067221E+05 -7.843874E+04  5.573805E+04  7.300292E-10  2.317623E-09
       238  19  8.001821E+05  1.337091E+05  9.604523E+04  5.834217E+04  7.826362E+03  4.203443E+04
       238  20  7.438463E+05  1.205072E+05  8.702714E+04  5.169986E+04  7.560730E+03  3.779752E+04
       238  21  6.874282E+05  1.073905E+05  7.783754E+04  5.809046E+04  7.296774E+03  3.354629E+04
       238  22  2.300685E+05  3.199552E+02 -1.106086E+03  5.691381E+04  8.154677E+02  4.201619E+04
       238  23  2.301233E+05  2.896947E+02 -6.070712E+02  5.039704E+04  5.267051E+02  3.777790E+04
       238  24  2.300876E+05  3.403454E+02 -2.961193E+02  5.691380E+04  2.395956E+02  3.352530E+04
       238  25 -3.397256E+05 -1.330864E+05 -9.826793E+04  5.548656E+04 -6.189200E+03  4.199796E+04
       238  26 -2.833403E+05 -1.199418E+05 -8.824982E+04  4.909512E+04 -6.501689E+03  3.775831E+04
       238  27 -2.270474E+05 -1.067209E+05 -7.843655E+04  5.573786E+04 -6.812553E+03  3.350432E+04
       239   1  6.505770E+05  9.872194E+04  7.141407E+04  5.800646E+04 -7.256827E+03 -3.106815E+04
       239   2  5.942916E+05  8.553138E+04  6.212205E+04  5.136722E+04 -7.270214E+03 -2.681353E+04
       239   3  5.379383E+05  7.243069E+04  5.283469E+04  5.775450E+04 -7.284732E+03 -2.256115E+04
       239   4  2.300986E+05  3.459192E+02 -1.832367E+02  5.691235E+04 -2.034316E+02 -3.104651E+04
       239   5  2.301401E+05  3.096312E+02  8.679720E+00  5.039886E+04 -2.207909E+02 -2.679098E+04
       239   6  2.301122E+05  3.642288E+02  2.081367E+02  5.691234E+04 -2.392820E+02 -2.253769E+04
       239   7 -1.902059E+05 -9.803945E+04 -7.178617E+04  5.581886E+04  6.845343E+03 -3.102488E+04
       239   8 -1.338809E+05 -8.491913E+04 -6.210888E+04  4.943098E+04  6.824632E+03 -2.676844E+04
       239   9 -7.762079E+04 -7.170725E+04 -5.242138E+04  5.607053E+04  6.802788E+03 -2.251424E+04
       239  10  6.505767E+05  9.872089E+04  7.141216E+04  5.800628E+04  7.380379E-08  3.314180E-09
       239  11  5.942913E+05  8.553059E+04  6.212060E+04  5.136706E+04 -3.497006E-09  8.202141E-10
       239  12  5.379381E+05  7.243013E+04  5.283363E+04  5.775436E+04 -8.252267E-08 -2.274912E-09
       239  13  2.300983E+05  3.448840E+02 -1.850483E+02  5.691235E+04  2.120217E-09  1.105755E-08
       239  14  2.301399E+05  3.088603E+02  7.330681E+00  5.039885E+04 -3.644445E-10  3.658485E-09
       239  15  2.301120E+05  3.636833E+02  2.071820E+02  5.691233E+04  7.243617E-10 -1.860966E-09
       239  16 -1.902062E+05 -9.804049E+04 -7.178807E+04  5.581903E+04 -7.235053E-08  6.135578E-09
       239  17 -1.338812E+05 -8.491991E+04 -6.211032E+04  4.943113E+04  5.102976E-09 -1.581398E-10
       239  18 -7.762098E+04 -7.170780E+04 -5.242242E+04  5.607065E+04  8.221916E-08 -2.022904E-09
       239  19  6.505770E+05  9.872194E+04  7.141407E+04  5.800646E+04  7.256827E+03  3.106815E+04
       239  20  5.942916E+05  8.553138E+04  6.212205E+04  5.136722E+04  7.270214E+03  2.681353E+04
       239  21  5.379383E+05  7.243069E+04  5.283469E+04  5.775450E+04  7.284732E+03  2.256115E+04
       239  22  2.300986E+05  3.459192E+02 -1.832367E+02  5.691235E+04  2.034316E+02  3.104651E+04
       239  23  2.301401E+05  3.096312E+02  8.679720E+00  5.039886E+04  2.207909E+02  2.679098E+04
       239  24  2.301122E+05  3.642288E+02  2.081367E+02  5.691234E+04  2.392820E+02  2.253769E+04
       239  25 -1.902059E+05 -9.803945E+04 -7.178617E+04  5.581886E+04 -6.845343E+03  3.102488E+04
       239  26 -1.338809E+05 -8.491913E+04 -6.210888E+04  4.943098E+04 -6.824632E+03  2.676844E+04
       239  27 -7.762079E+04 -7.170725E+04 -5.242138E+04  5.607053E+04 -6.802788E+03  2.251424E+04
       240   1  5.011220E+05  6.376470E+04  4.642012E+04  5.766878E+04 -7.342988E+03 -2.008555E+04
       240   2  4.448606E+05  5.057231E+04  3.725032E+04  5.102965E+04 -7.630365E+03 -1.584801E+04
       240   3  3.885608E+05  3.749763E+04  2.826662E+04  5.740597E+04 -7.918291E+03 -1.163931E+04
       240   4  2.301244E+05  3.661335E+02  3.256693E+02  5.690987E+04 -2.957496E+02 -2.006164E+04
       240   5  2.301450E+05  3.228896E+02  6.487064E+02  5.040196E+04 -6.311166E+02 -1.582373E+04
       240   6  2.301323E+05  4.058074E+02  1.191068E+03  5.690975E+04 -9.670549E+02 -1.161466E+04
       240   7 -4.080097E+04 -6.303630E+04 -4.577100E+04  5.615124E+04  6.748513E+03 -2.003775E+04
       240   8  1.547475E+04 -4.992895E+04 -3.595424E+04  4.977445E+04  6.365790E+03 -1.579946E+04
       240   9  7.172861E+04 -3.668732E+04 -2.588514E+04  5.641364E+04  5.982464E+03 -1.159002E+04
       240  10  5.011218E+05  6.376426E+04  4.641926E+04  5.766866E+04  2.062524E-08  2.226076E-09
       240  11  4.448605E+05  5.057202E+04  3.724974E+04  5.102955E+04  5.185485E-09 -1.282690E-10
       240  12  3.885607E+05  3.749747E+04  2.826625E+04  5.740589E+04 -1.186060E-08  2.775177E-09
       240  13  2.301243E+05  3.657012E+02  3.249127E+02  5.690986E+04  1.954585E-09  2.643002E-10
       240  14  2.301449E+05  3.226206E+02  6.482350E+02  5.040195E+04 -1.077402E-09  1.730268E-09
       240  15  2.301323E+05  4.056623E+02  1.190812E+03  5.690974E+04  1.149669E-09  3.694833E-09
       240  16 -4.080112E+04 -6.303674E+04 -4.577184E+04  5.615134E+04 -2.067026E-08  2.876849E-09
       240  17  1.547464E+04 -4.992923E+04 -3.595479E+04  4.977453E+04 -4.964647E-09 -1.107389E-08
       240  18  7.172853E+04 -3.668748E+04 -2.588546E+04  5.641369E+04  8.657231E-09 -2.091543E-09
       240  19  5.011220E+05  6.376470E+04  4.642012E+04  5.766878E+04  7.342988E+03  2.008555E+04
       240  20  4.448606E+05  5.057231E+04  3.725032E+04  5.102965E+04  7.630365E+03  1.584801E+04
       240  21  3.885608E+05  3.749763E+04  2.826662E+04  5.740597E+04  7.918291E+03  1.163931E+04
       240  22  2.301244E+05  3.661335E+02  3.256693E+02  5.690987E+04  2.957496E+02  2.006164E+04
       240  23  2.301450E+05  3.228896E+02  6.487064E+02  5.040196E+04  6.311166E+02  1.582373E+04
       240  24  2.301323E+05  4.058074E+02  1.191068E+03  5.690975E+04  9.670549E+02  1.161466E+04
       240  25 -4.080097E+04 -6.303630E+04 -4.577100E+04  5.615124E+04 -6.748513E+03  2.003775E+04
       240  26  1.547475E+04 -4.992895E+04 -3.595424E+04  4.977445E+04 -6.365790E+03  1.579946E+04
       240  27  7.172861E+04 -3.668732E+04 -2.588514E+04  5.641364E+04 -5.982464E+03  1.159002E+04
       241   1  3.518076E+05  2.880303E+04  2.210933E+04  5.740937E+04 -8.207635E+03 -9.179375E+03
       241   2  2.954607E+05  1.574285E+04  1.364822E+04  5.047913E+04 -9.080172E+03 -5.125642E+03
       241   3  2.392898E+05  3.375542E+03  5.896533E+03  5.653821E+04 -9.951701E+03 -1.395923E+03
       241   4  2.302006E+05  3.814114E+02  1.581731E+03  5.690451E+04 -1.218207E+03 -9.154378E+03
       241   5  2.300692E+05  4.982301E+02  2.795965E+03  5.040801E+04 -2.627758E+03 -5.102423E+03
       241   6  2.302028E+05  1.401030E+03  5.092051E+03  5.690085E+04 -4.036367E+03 -1.374495E+03
       241   7  1.086083E+05 -2.804096E+04 -1.894616E+04  5.639973E+04  5.769898E+03 -9.129389E+03
       241   8  1.646820E+05 -1.474659E+04 -8.056265E+03  5.033688E+04  3.823999E+03 -5.079204E+03
       241   9  2.211160E+05 -5.734660E+02  4.287703E+03  5.726349E+04  1.878887E+03 -1.353061E+03
       241  10  3.518075E+05  2.880292E+04  2.210905E+04  5.740931E+04  2.018451E-08  8.390868E-09
       241  11  2.954606E+05  1.574280E+04  1.364802E+04  5.047909E+04 -5.419166E-10  2.216234E-09
       241  12  2.392896E+05  3.375514E+03  5.896343E+03  5.653820E+04 -1.909460E-08  8.015034E-09
       241  13  2.302006E+05  3.813210E+02  1.581570E+03  5.690450E+04 -1.211134E-09  4.511598E-09
       241  14  2.300692E+05  4.982003E+02  2.795903E+03  5.040800E+04 -1.044626E-09  9.271607E-09
       241  15  2.302028E+05  1.401023E+03  5.092017E+03  5.690085E+04 -7.440904E-10 -2.792304E-09
       241  16  1.086082E+05 -2.804106E+04 -1.894638E+04  5.639977E+04 -2.153562E-08  3.084577E-09
       241  17  1.646820E+05 -1.474662E+04 -8.056341E+03  5.033690E+04 -5.613379E-10  2.999621E-09
       241  18  2.211160E+05 -5.734689E+02  4.287693E+03  5.726349E+04  1.722918E-08 -7.977579E-09
       241  19  3.518076E+05  2.880303E+04  2.210933E+04  5.740937E+04  8.207635E+03  9.179375E+03
       241  20  2.954607E+05  1.574285E+04  1.364822E+04  5.047913E+04  9.080172E+03  5.125642E+03
       241  21  2.392898E+05  3.375542E+03  5.896533E+03  5.653821E+04  9.951701E+03  1.395923E+03
       241  22  2.302006E+05  3.814114E+02  1.581731E+03  5.690451E+04  1.218207E+03  9.154378E+03
       241  23  2.300692E+05  4.982301E+02  2.795965E+03  5.040801E+04  2.627758E+03  5.102423E+03
       241  24  2.302028E+05  1.401030E+03  5.092051E+03  5.690085E+04  4.036367E+03  1.374495E+03
       241  25  1.086083E+05 -2.804096E+04 -1.894616E+04  5.639973E+04 -5.769898E+03  9.129389E+03
       241  26  1.646820E+05 -1.474659E+04 -8.056265E+03  5.033688E+04 -3.823999E+03  5.079204E+03
       241  27  2.211160E+05 -5.734660E+02  4.287703E+03  5.726349E+04 -1.878887E+03  1.353061E+03
       242   1  2.031506E+05 -5.748944E+03  7.254091E+02  5.817066E+04 -1.127781E+04  8.994917E+02
       242   2  1.454040E+05 -1.513739E+04 -5.614962E+03  4.393277E+04 -1.140839E+04  2.884602E+03
       242   3  9.068871E+04 -1.203369E+04 -8.774117E+03  4.241529E+04 -1.152597E+04  1.158314E+03
       242   4  2.310539E+05  1.010202E+03  6.683132E+03  5.685237E+04 -4.916030E+03  9.225608E+02
       242   5  2.290038E+05  5.184768E+03  1.213772E+04  5.045337E+04 -1.119459E+04  2.885227E+03
       242   6  2.310487E+05  2.291762E+04  2.504143E+04  5.677412E+04 -1.746029E+04  1.136721E+03
       242   7  2.589581E+05  7.769325E+03  1.264096E+04  5.553402E+04  1.446032E+03  9.456023E+02
       242   8  3.126103E+05  2.550663E+04  2.989002E+04  5.697487E+04 -1.098076E+04  2.885856E+03
       242   9  3.714273E+05  5.786827E+04  5.885581E+04  7.113620E+04 -2.339594E+04  1.114857E+03
       242  10  2.031505E+05 -5.748979E+03  7.251686E+02  5.817067E+04 -3.912741E-09  5.452382E-09
       242  11  1.454038E+05 -1.513744E+04 -5.615222E+03  4.393279E+04 -3.921731E-09 -2.713423E-09
       242  12  9.068857E+04 -1.203373E+04 -8.774369E+03  4.241530E+04 -3.483272E-09 -1.186570E-09
       242  13  2.310539E+05  1.010195E+03  6.683085E+03  5.685237E+04 -1.048302E-09  6.071026E-09
       242  14  2.290037E+05  5.184725E+03  1.213747E+04  5.045340E+04  3.931302E-10 -1.061417E-08
       242  15  2.310484E+05  2.291753E+04  2.504086E+04  5.677414E+04  1.705567E-10  2.115589E-09
       242  16  2.589581E+05  7.769324E+03  1.264096E+04  5.553402E+04  2.129994E-09 -4.610098E-10
       242  17  3.126102E+05  2.550659E+04  2.988978E+04  5.697489E+04  3.484733E-09  8.677792E-10
       242  18  3.714267E+05  5.786812E+04  5.885478E+04  7.113622E+04  2.367734E-09 -2.701208E-09
       242  19  2.031506E+05 -5.748944E+03  7.254091E+02  5.817066E+04  1.127781E+04 -8.994917E+02
       242  20  1.454040E+05 -1.513739E+04 -5.614962E+03  4.393277E+04  1.140839E+04 -2.884602E+03
       242  21  9.068871E+04 -1.203369E+04 -8.774117E+03  4.241529E+04  1.152597E+04 -1.158314E+03
       242  22  2.310539E+05  1.010202E+03  6.683132E+03  5.685237E+04  4.916030E+03 -9.225608E+02
       242  23  2.290038E+05  5.184768E+03  1.213772E+04  5.045337E+04  1.119459E+04 -2.885227E+03
       242  24  2.310487E+05  2.291762E+04  2.504143E+04  5.677412E+04  1.746029E+04 -1.136721E+03
       242  25  2.589581E+05  7.769325E+03  1.264096E+04  5.553402E+04 -1.446032E+03 -9.456023E+02
       242  26  3.126103E+05  2.550663E+04  2.989002E+04  5.697487E+04  1.098076E+04 -2.885856E+03
       242  27  3.714273E+05  5.786827E+04  5.885581E+04  7.113620E+04  2.339594E+04 -1.114857E+03
       243   1  1.495040E+05  1.333657E+06  1.510231E+05 -1.780481E+05  3.823768E+03  5.119835E+04
       243   2  7.537860E+04  1.179655E+06  8.345594E+04 -1.458953E+05  1.041828E+04  1.926868E+04
       243   3  3.144768E+04  1.037220E+06  4.416845E+04 -1.471943E+05  6.193385E+03 -1.267321E+04
       243   4  4.528940E+04  9.134482E+05  5.031660E+04 -1.492541E+05  3.867244E+03  3.139053E+04
       243   5  1.004444E+04  9.092476E+05  2.719885E+04 -1.325734E+05  1.042294E+04  1.741286E+04
       243   6  1.891427E+03  9.134921E+05  1.992065E+04 -1.493419E+05  6.158641E+03  3.415428E+03
       243   7 -5.893472E+04  4.934031E+05 -5.040051E+04 -1.204795E+05  3.908903E+03  1.159604E+04
       243   8 -5.529371E+04  6.389098E+05 -2.906215E+04 -1.192573E+05  1.042751E+04  1.555784E+04
       243   9 -2.766559E+04  7.897798E+05 -4.326903E+03 -1.514891E+05  6.123782E+03  1.950094E+04
       243  10  1.495033E+05  1.333654E+06  1.510182E+05 -1.780483E+05  3.398034E-10  9.497116E-10
       243  11  7.537838E+04  1.179654E+06  8.345504E+04 -1.458954E+05 -9.921055E-10 -3.779853E-09
       243  12  3.144760E+04  1.037219E+06  4.416807E+04 -1.471942E+05  1.035100E-10 -2.413546E-09
       243  13  4.528912E+04  9.134471E+05  5.031473E+04 -1.492542E+05 -5.081082E-10  1.874504E-09
       243  14  1.004424E+04  9.092472E+05  2.719808E+04 -1.325735E+05 -6.894915E-10  4.078651E-11
       243  15  1.891383E+03  9.134921E+05  1.992056E+04 -1.493419E+05 -2.618045E-10  2.746067E-09
       243  16 -5.893478E+04  4.934030E+05 -5.040080E+04 -1.204795E+05  8.915398E-11 -8.058970E-10
       243  17 -5.529389E+04  6.389095E+05 -2.906281E+04 -1.192575E+05  2.261841E-09 -3.853544E-10
       243  18 -2.766573E+04  7.897794E+05 -4.327687E+03 -1.514892E+05  5.251447E-10  1.727078E-09
       243  19  1.495040E+05  1.333657E+06  1.510231E+05 -1.780481E+05 -3.823768E+03 -5.119835E+04
       243  20  7.537860E+04  1.179655E+06  8.345594E+04 -1.458953E+05 -1.041828E+04 -1.926868E+04
       243  21  3.144768E+04  1.037220E+06  4.416845E+04 -1.471943E+05 -6.193385E+03  1.267321E+04
       243  22  4.528940E+04  9.134482E+05  5.031660E+04 -1.492541E+05 -3.867244E+03 -3.139053E+04
       243  23  1.004444E+04  9.092476E+05  2.719885E+04 -1.325734E+05 -1.042294E+04 -1.741286E+04
       243  24  1.891427E+03  9.134921E+05  1.992065E+04 -1.493419E+05 -6.158641E+03 -3.415428E+03
       243  25 -5.893472E+04  4.934031E+05 -5.040051E+04 -1.204795E+05 -3.908903E+03 -1.159604E+04
       243  26 -5.529371E+04  6.389098E+05 -2.906215E+04 -1.192573E+05 -1.042751E+04 -1.555784E+04
       243  27 -2.766559E+04  7.897798E+05 -4.326903E+03 -1.514891E+05 -6.123782E+03 -1.950094E+04
       244   1  9.013263E+03  9.384368E+05  2.548746E+04 -1.513465E+05  2.718761E+02 -1.464691E+04
       244   2 -2.691824E+04  7.890104E+05  7.654032E+02 -1.318222E+05 -8.473060E+03 -2.482383E+04
       244   3 -5.733286E+04  6.421505E+05 -1.600119E+04 -1.463772E+05 -1.672144E+04 -3.499678E+04
       244   4  2.506093E+03  9.122137E+05  1.919502E+04 -1.494713E+05  2.392996E+02  2.975730E+02
       244   5  1.679634E+03  9.108623E+05  2.200606E+04 -1.324278E+05 -8.503118E+03 -1.070573E+04
       244   6  6.513375E+03  9.121976E+05  3.334398E+04 -1.494626E+05 -1.674899E+04 -2.170737E+04
       244   7 -4.000994E+03  8.859917E+05  1.290338E+04 -1.475962E+05  2.068125E+02  1.524143E+04
       244   8  3.027682E+04  1.032729E+06  4.324694E+04 -1.330335E+05 -8.533199E+03  3.415047E+03
       244   9  7.035562E+04  1.182316E+06  8.268686E+04 -1.525494E+05 -1.677667E+04 -8.412339E+03
       244  10  9.013206E+03  9.384366E+05  2.548706E+04 -1.513465E+05 -5.715507E-10 -1.687684E-09
       244  11 -2.691849E+04  7.890097E+05  7.641115E+02 -1.318224E+05  1.644033E-09 -4.149367E-09
       244  12 -5.733349E+04  6.421491E+05 -1.600402E+04 -1.463777E+05  8.683724E-11 -8.681135E-11
       244  13  2.506093E+03  9.122137E+05  1.919502E+04 -1.494713E+05 -6.281510E-10  1.943820E-09
       244  14  1.679526E+03  9.108621E+05  2.200571E+04 -1.324279E+05  1.545418E-11 -1.768897E-10
       244  15  6.512947E+03  9.121970E+05  3.334256E+04 -1.494629E+05 -1.444718E-09  2.742506E-09
       244  16 -4.001057E+03  8.859914E+05  1.290294E+04 -1.475962E+05 -8.343369E-10  1.507162E-09
       244  17  3.027674E+04  1.032729E+06  4.324678E+04 -1.330335E+05 -2.467060E-09  2.939105E-10
       244  18  7.035530E+04  1.182316E+06  8.268620E+04 -1.525495E+05 -1.846832E-09 -4.750009E-10
       244  19  9.013263E+03  9.384368E+05  2.548746E+04 -1.513465E+05 -2.718761E+02  1.464691E+04
       244  20 -2.691824E+04  7.890104E+05  7.654032E+02 -1.318222E+05  8.473060E+03  2.482383E+04
       244  21 -5.733286E+04  6.421505E+05 -1.600119E+04 -1.463772E+05  1.672144E+04  3.499678E+04
       244  22  2.506093E+03  9.122137E+05  1.919502E+04 -1.494713E+05 -2.392996E+02 -2.975730E+02
       244  23  1.679634E+03  9.108623E+05  2.200606E+04 -1.324278E+05  8.503118E+03  1.070573E+04
       244  24  6.513375E+03  9.121976E+05  3.334398E+04 -1.494626E+05  1.674899E+04  2.170737E+04
       244  25 -4.000994E+03  8.859917E+05  1.290338E+04 -1.475962E+05 -2.068125E+02 -1.524143E+04
       244  26  3.027682E+04  1.032729E+06  4.324694E+04 -1.330335E+05  8.533199E+03 -3.415047E+03
       244  27  7.035562E+04  1.182316E+06  8.268686E+04 -1.525494E+05  1.677667E+04  8.412339E+03
       245   1 -8.277060E+04  5.493154E+05 -2.557208E+04 -1.568891E+05 -2.238653E+04 -4.254520E+04
       245   2 -9.417412E+04  3.909632E+05 -2.967048E+04 -9.414214E+04 -2.325547E+04 -5.303674E+04
       245   3 -2.966049E+04  2.528772E+05 -7.981542E+03 -6.442933E+04 -7.563126E+03 -6.349712E+04
       245   4  4.224231E+03  9.171437E+05  4.206629E+04 -1.492625E+05 -2.241778E+04 -2.737034E+04
       245   5  2.929020E+04  9.046023E+05  7.349753E+04 -1.326242E+05 -2.322628E+04 -6.532627E+04
       245   6  1.349929E+05  9.170368E+05  1.497515E+05 -1.490089E+05 -7.478195E+03 -1.032546E+05
       245   7  9.121174E+04  1.285104E+06  1.097000E+05 -1.416312E+05 -2.244864E+04 -1.218674E+04
       245   8  1.527438E+05  1.418496E+06  1.766534E+05 -1.711386E+05 -2.319557E+04 -7.762574E+04
       245   9  2.996420E+05  1.581620E+06  3.074634E+05 -2.336792E+05 -7.382493E+03 -1.430543E+05
       245  10 -8.277163E+04  5.493134E+05 -2.557642E+04 -1.568899E+05  3.558118E-10  1.365107E-09
       245  11 -9.417546E+04  3.909601E+05 -2.967678E+04 -9.414313E+04  1.505709E-09 -2.341857E-09
       245  12 -2.966163E+04  2.528729E+05 -7.989223E+03 -6.442971E+04  7.583503E-10 -6.752837E-10
       245  13  4.223491E+03  9.171428E+05  4.206394E+04 -1.492630E+05  3.152855E-10  1.796363E-09
       245  14  2.928848E+04  9.045976E+05  7.348851E+04 -1.326254E+05  1.309660E-09  7.537036E-13
       245  15  1.349900E+05  9.170254E+05  1.497314E+05 -1.490096E+05 -7.789811E-12  2.455126E-09
       245  16  9.121116E+04  1.285103E+06  1.096988E+05 -1.416315E+05 -3.507640E-10 -1.210086E-09
       245  17  1.527416E+05  1.418490E+06  1.766411E+05 -1.711400E+05 -1.465908E-09 -8.135319E-10
       245  18  2.996365E+05  1.581598E+06  3.074250E+05 -2.336801E+05 -1.340276E-09  4.287539E-10
       245  19 -8.277060E+04  5.493154E+05 -2.557208E+04 -1.568891E+05  2.238653E+04  4.254520E+04
       245  20 -9.417412E+04  3.909632E+05 -2.967048E+04 -9.414214E+04  2.325547E+04  5.303674E+04
       245  21 -2.966049E+04  2.528772E+05 -7.981542E+03 -6.442933E+04  7.563126E+03  6.349712E+04
       245  22  4.224231E+03  9.171437E+05  4.206629E+04 -1.492625E+05  2.241778E+04  2.737034E+04
       245  23  2.929020E+04  9.046023E+05  7.349753E+04 -1.326242E+05  2.322628E+04  6.532627E+04
       245  24  1.349929E+05  9.170368E+05  1.497515E+05 -1.490089E+05  7.478195E+03  1.032546E+05
       245  25  9.121174E+04  1.285104E+06  1.097000E+05 -1.416312E+05  2.244864E+04  1.218674E+04
       245  26  1.527438E+05  1.418496E+06  1.766534E+05 -1.711386E+05  2.319557E+04  7.762574E+04
       245  27  2.996420E+05  1.581620E+06  3.074634E+05 -2.336792E+05  7.382493E+03  1.430543E+05
       246   1  1.387801E+06  4.439541E+05  2.191907E+05  4.921959E+05  5.701662E+04  4.455091E+03
       246   2  1.313737E+06  4.309936E+05  1.766099E+05  4.674363E+05  3.805169E+04 -4.213874E+04
       246   3  1.227909E+06  4.200100E+05  1.548557E+05  4.608227E+05  9.297645E+03 -6.275058E+04
       246   4  3.919583E+05  8.687146E+04 -3.462164E+04  2.361872E+05 -1.677474E+04 -2.338561E+04
       246   5  4.037744E+05  1.032893E+05 -1.597810E+04  2.220608E+05  4.626303E+03 -5.476380E+04
       246   6  3.958268E+05  1.136865E+05 -8.460305E+03  2.260829E+05  1.622547E+04 -6.014235E+04
       246   7 -6.028786E+05 -2.701532E+05 -2.884816E+05 -1.944925E+04 -9.043403E+04 -5.118157E+04
       246   8 -5.053287E+05 -2.243489E+05 -2.086031E+05 -2.298367E+04 -2.874566E+04 -6.736972E+04
       246   9 -4.355369E+05 -1.925714E+05 -1.718072E+05 -8.364563E+03  2.314335E+04 -5.753795E+04
       246  10  1.387798E+06  4.439532E+05  2.191846E+05  4.921957E+05 -5.875053E-09 -2.603001E-09
       246  11  1.313735E+06  4.309913E+05  1.766038E+05  4.674376E+05  1.580207E-08  1.946354E-09
       246  12  1.227908E+06  4.200058E+05  1.548482E+05  4.608232E+05  3.985307E-08  1.575335E-08
       246  13  3.919579E+05  8.687080E+04 -3.462320E+04  2.361869E+05 -8.619152E-11  1.329775E-09
       246  14  4.037736E+05  1.032861E+05 -1.598378E+04  2.220610E+05  9.637990E-10 -6.044684E-09
       246  15  3.958255E+05  1.136825E+05 -8.467598E+03  2.260837E+05  8.820420E-09  1.327583E-11
       246  16 -6.028881E+05 -2.701582E+05 -2.885019E+05 -1.945298E+04  4.973149E-09 -1.642870E-10
       246  17 -5.053308E+05 -2.243540E+05 -2.086131E+05 -2.298523E+04 -1.639282E-08 -9.809136E-09
       246  18 -4.355383E+05 -1.925751E+05 -1.718145E+05 -8.363490E+03 -2.488969E-08 -1.060805E-08
       246  19  1.387801E+06  4.439541E+05  2.191907E+05  4.921959E+05 -5.701662E+04 -4.455091E+03
       246  20  1.313737E+06  4.309936E+05  1.766099E+05  4.674363E+05 -3.805169E+04  4.213874E+04
       246  21  1.227909E+06  4.200100E+05  1.548557E+05  4.608227E+05 -9.297645E+03  6.275058E+04
       246  22  3.919583E+05  8.687146E+04 -3.462164E+04  2.361872E+05  1.677474E+04  2.338561E+04
       246  23  4.037744E+05  1.032893E+05 -1.597810E+04  2.220608E+05 -4.626303E+03  5.476380E+04
       246  24  3.958268E+05  1.136865E+05 -8.460305E+03  2.260829E+05 -1.622547E+04  6.014235E+04
       246  25 -6.028786E+05 -2.701532E+05 -2.884816E+05 -1.944925E+04  9.043403E+04  5.118157E+04
       246  26 -5.053287E+05 -2.243489E+05 -2.086031E+05 -2.298367E+04  2.874566E+04  6.736972E+04
       246  27 -4.355369E+05 -1.925714E+05 -1.718072E+05 -8.364563E+03 -2.314335E+04  5.753795E+04
       247   1  1.180280E+06  3.993981E+05  1.462858E+05  4.457684E+05  1.347501E+04 -5.796313E+04
       247   2  1.113001E+06  3.666381E+05  1.320379E+05  4.178494E+05  1.109748E+04 -5.578363E+04
       247   3  1.032684E+06  3.468164E+05  1.187430E+05  4.050478E+05  7.969983E+03 -5.162717E+04
       247   4  3.965789E+05  1.133767E+05 -6.419582E+03  2.270736E+05  1.612981E+04 -5.696779E+04
       247   5  4.035083E+05  1.078210E+05 -3.391747E+03  2.192920E+05  1.682194E+04 -5.362647E+04
       247   6  3.967862E+05  1.145962E+05 -1.842435E+03  2.266270E+05  1.676354E+04 -4.830698E+04
       247   7 -3.864935E+05 -1.725924E+05 -1.591545E+05  8.631956E+03  1.878106E+04 -5.597379E+04
       247   8 -3.054647E+05 -1.509510E+05 -1.388433E+05  2.094389E+04  2.253945E+04 -5.147194E+04
       247   9 -2.386907E+05 -1.175862E+05 -1.224442E+05  4.837578E+04  2.554746E+04 -4.499044E+04
       247  10  1.180279E+06  3.993945E+05  1.462792E+05  4.457690E+05 -2.891496E-08 -1.116892E-08
       247  11  1.113001E+06  3.666347E+05  1.320318E+05  4.178499E+05 -1.712727E-08 -6.640539E-09
       247  12  1.032683E+06  3.468135E+05  1.187379E+05  4.050481E+05  1.897817E-09 -7.762628E-09
       247  13  3.965778E+05  1.133732E+05 -6.426171E+03  2.270744E+05  8.959646E-09  5.018958E-10
       247  14  4.035072E+05  1.078178E+05 -3.397684E+03  2.192927E+05  3.455051E-09  9.774180E-09
       247  15  3.967852E+05  1.145936E+05 -1.847350E+03  2.266277E+05  2.462896E-10 -8.661349E-09
       247  16 -3.864947E+05 -1.725958E+05 -1.591610E+05  8.632803E+03  4.429204E-08  1.544645E-08
       247  17 -3.054659E+05 -1.509540E+05 -1.388492E+05  2.094482E+04  2.218954E-08  3.941043E-09
       247  18 -2.386920E+05 -1.175885E+05 -1.224493E+05  4.837671E+04  8.813963E-12 -4.644180E-09
       247  19  1.180280E+06  3.993981E+05  1.462858E+05  4.457684E+05 -1.347501E+04  5.796313E+04
       247  20  1.113001E+06  3.666381E+05  1.320379E+05  4.178494E+05 -1.109748E+04  5.578363E+04
       247  21  1.032684E+06  3.468164E+05  1.187430E+05  4.050478E+05 -7.969983E+03  5.162717E+04
       247  22  3.965789E+05  1.133767E+05 -6.419582E+03  2.270736E+05 -1.612981E+04  5.696779E+04
       247  23  4.035083E+05  1.078210E+05 -3.391747E+03  2.192920E+05 -1.682194E+04  5.362647E+04
       247  24  3.967862E+05  1.145962E+05 -1.842435E+03  2.266270E+05 -1.676354E+04  4.830698E+04
       247  25 -3.864935E+05 -1.725924E+05 -1.591545E+05  8.631956E+03 -1.878106E+04  5.597379E+04
       247  26 -3.054647E+05 -1.509510E+05 -1.388433E+05  2.094389E+04 -2.253945E+04  5.147194E+04
       247  27 -2.386907E+05 -1.175862E+05 -1.224442E+05  4.837578E+04 -2.554746E+04  4.499044E+04
       248   1  9.839555E+05  3.288422E+05  1.095302E+05  3.913483E+05  7.308757E+03 -4.809417E+04
       248   2  9.172309E+05  2.955329E+05  9.627688E+04  3.632866E+05  5.363148E+03 -4.251949E+04
       248   3  8.372832E+05  2.754818E+05  8.293110E+04  3.502340E+05  3.359407E+03 -3.679856E+04
       248   4  3.968527E+05  1.145953E+05 -1.379631E+03  2.266823E+05  1.576940E+04 -4.489837E+04
       248   5  4.035110E+05  1.080333E+05 -7.382904E+02  2.191676E+05  1.405079E+04 -3.923568E+04
       248   6  3.968938E+05  1.146848E+05 -3.703019E+02  2.266609E+05  1.227402E+04 -3.342663E+04
       248   7 -1.898853E+05 -9.961734E+04 -1.123017E+05  6.216219E+04  2.422142E+04 -4.170584E+04
       248   8 -1.099336E+05 -7.944155E+04 -9.776384E+04  7.515919E+04  2.273074E+04 -3.595478E+04
       248   9 -4.329721E+04 -4.609550E+04 -8.368037E+04  1.031680E+05  2.118196E+04 -3.005723E+04
       248  10  9.839548E+05  3.288397E+05  1.095257E+05  3.913486E+05 -7.086514E-08 -2.943675E-08
       248  11  9.172304E+05  2.955309E+05  9.627342E+04  3.632868E+05 -1.665557E-08 -3.910013E-09
       248  12  8.372828E+05  2.754804E+05  8.292854E+04  3.502341E+05  5.844864E-08  2.092366E-08
       248  13  3.968519E+05  1.145931E+05 -1.383887E+03  2.266828E+05 -4.095967E-09 -6.454407E-09
       248  14  4.035104E+05  1.080316E+05 -7.415550E+02  2.191680E+05 -1.276993E-08  3.014582E-09
       248  15  3.968933E+05  1.146836E+05 -3.726852E+02  2.266612E+05 -6.868741E-09 -3.966914E-09
       248  16 -1.898864E+05 -9.961936E+04 -1.123061E+05  6.216300E+04  5.967854E-08  2.042433E-08
       248  17 -1.099345E+05 -7.944308E+04 -9.776725E+04  7.515985E+04 -1.594618E-08 -2.099923E-08
       248  18 -4.329794E+04 -4.609659E+04 -8.368291E+04  1.031685E+05 -7.091232E-08 -3.432886E-08
       248  19  9.839555E+05  3.288422E+05  1.095302E+05  3.913483E+05 -7.308757E+03  4.809417E+04
       248  20  9.172309E+05  2.955329E+05  9.627688E+04  3.632866E+05 -5.363148E+03  4.251949E+04
       248  21  8.372832E+05  2.754818E+05  8.293110E+04  3.502340E+05 -3.359407E+03  3.679856E+04
       248  22  3.968527E+05  1.145953E+05 -1.379631E+03  2.266823E+05 -1.576940E+04  4.489837E+04
       248  23  4.035110E+05  1.080333E+05 -7.382904E+02  2.191676E+05 -1.405079E+04  3.923568E+04
       248  24  3.968938E+05  1.146848E+05 -3.703019E+02  2.266609E+05 -1.227402E+04  3.342663E+04
       248  25 -1.898853E+05 -9.961734E+04 -1.123017E+05  6.216219E+04 -2.422142E+04  4.170584E+04
       248  26 -1.099336E+05 -7.944155E+04 -9.776384E+04  7.515919E+04 -2.273074E+04  3.595478E+04
       248  27 -4.329721E+04 -4.609550E+04 -8.368037E+04  1.031680E+05 -2.118196E+04  3.005723E+04
       249   1  7.886326E+05  2.576642E+05  7.346278E+04  3.366113E+05  2.176279E+03 -3.342583E+04
       249   2  7.220643E+05  2.243913E+05  6.003685E+04  3.085778E+05  2.693209E+01 -2.769168E+04
       249   3  6.422739E+05  2.043601E+05  4.660163E+04  2.955290E+05 -2.127118E+03 -2.194958E+04
       249   4  3.969107E+05  1.146900E+05 -2.515372E+02  2.266585E+05  1.106093E+04 -3.006416E+04
       249   5  4.035362E+05  1.080862E+05 -6.061233E+01  2.191647E+05  8.923732E+03 -2.432405E+04
       249   6  3.969309E+05  1.147212E+05  1.106797E+02  2.266536E+05  6.781831E+03 -1.857599E+04
       249   7  5.349258E+03 -2.826969E+04 -7.397163E+04  1.167702E+05  1.993959E+04 -2.670476E+04
       249   8  8.511563E+04 -8.208691E+03 -6.016141E+04  1.297947E+05  1.781561E+04 -2.095828E+04
       249   9  1.516530E+05  2.508892E+04 -4.638177E+04  1.578041E+05  1.568693E+04 -1.520386E+04
       249  10  7.886323E+05  2.576630E+05  7.346067E+04  3.366113E+05  4.686575E-11  2.471677E-09
       249  11  7.220641E+05  2.243904E+05  6.003541E+04  3.085778E+05  2.434704E-10 -1.301575E-09
       249  12  6.422738E+05  2.043596E+05  4.660072E+04  2.955290E+05  3.250785E-09  3.712468E-09
       249  13  3.969103E+05  1.146890E+05 -2.534661E+02  2.266588E+05 -2.249120E-10  4.853184E-10
       249  14  4.035359E+05  1.080855E+05 -6.187411E+01  2.191649E+05 -2.498033E-09  6.517526E-09
       249  15  3.969307E+05  1.147209E+05  1.099447E+02  2.266537E+05  4.006460E-09  2.813965E-09
       249  16  5.348639E+03 -2.827056E+04 -7.397372E+04  1.167706E+05 -9.382037E-10 -4.821315E-09
       249  17  8.511517E+04 -8.209248E+03 -6.016284E+04  1.297950E+05 -2.141728E-09 -1.342329E-09
       249  18  1.516527E+05  2.508860E+04 -4.638266E+04  1.578043E+05  5.630702E-09  2.375227E-09
       249  19  7.886326E+05  2.576642E+05  7.346278E+04  3.366113E+05 -2.176279E+03  3.342583E+04
       249  20  7.220643E+05  2.243913E+05  6.003685E+04  3.085778E+05 -2.693209E+01  2.769168E+04
       249  21  6.422739E+05  2.043601E+05  4.660163E+04  2.955290E+05  2.127118E+03  2.194958E+04
       249  22  3.969107E+05  1.146900E+05 -2.515372E+02  2.266585E+05 -1.106093E+04  3.006416E+04
       249  23  4.035362E+05  1.080862E+05 -6.061233E+01  2.191647E+05 -8.923732E+03  2.432405E+04
       249  24  3.969309E+05  1.147212E+05  1.106797E+02  2.266536E+05 -6.781831E+03  1.857599E+04
       249  25  5.349258E+03 -2.826969E+04 -7.397163E+04  1.167702E+05 -1.993959E+04  2.670476E+04
       249  26  8.511563E+04 -8.208691E+03 -6.016141E+04  1.297947E+05 -1.781561E+04  2.095828E+04
       249  27  1.516530E+05  2.508892E+04 -4.638177E+04  1.578041E+05 -1.568693E+04  1.520386E+04
       250   1  5.936963E+05  1.865594E+05  3.712135E+04  2.819235E+05 -3.414810E+03 -1.861753E+04
       250   2  5.271867E+05  1.532983E+05  2.378408E+04  2.539232E+05 -5.802089E+03 -1.296425E+04
       250   3  4.474815E+05  1.332756E+05  1.060781E+04  2.409001E+05 -8.187396E+03 -7.317818E+03
       250   4  3.969442E+05  1.147245E+05  2.025489E+02  2.266534E+05  5.490257E+03 -1.524484E+04
       250   5  4.035455E+05  1.081026E+05  4.552067E+02  2.191673E+05  3.092044E+03 -9.595147E+03
       250   6  3.969492E+05  1.147215E+05  8.776887E+02  2.266570E+05  6.957788E+02 -3.952323E+03
       250   7  2.002308E+05  4.289269E+04 -3.671796E+04  1.713991E+05  1.439239E+04 -1.187327E+04
       250   8  2.799199E+05  6.290828E+04 -2.287411E+04  1.844179E+05  1.198432E+04 -6.226751E+03
       250   9  3.464198E+05  9.616766E+04 -8.852209E+03  2.124150E+05  9.578181E+03 -5.871233E+02
       250  10  5.936962E+05  1.865590E+05  3.712068E+04  2.819235E+05 -4.171629E-08 -1.941410E-08
       250  11  5.271866E+05  1.532981E+05  2.378370E+04  2.539231E+05  7.375206E-09 -4.599966E-10
       250  12  4.474814E+05  1.332755E+05  1.060758E+04  2.409000E+05  6.678021E-08  2.607788E-08
       250  13  3.969441E+05  1.147243E+05  2.020554E+02  2.266535E+05  2.265787E-09  7.691467E-09
       250  14  4.035455E+05  1.081025E+05  4.550157E+02  2.191674E+05 -3.158988E-09 -8.702385E-10
       250  15  3.969492E+05  1.147215E+05  8.776584E+02  2.266570E+05  2.086067E-09  1.183329E-08
       250  16  2.002305E+05  4.289248E+04 -3.671861E+04  1.713993E+05  4.691880E-08  1.744810E-08
       250  17  2.799197E+05  6.290820E+04 -2.287445E+04  1.844179E+05 -1.398620E-08 -8.814990E-09
       250  18  3.464197E+05  9.616763E+04 -8.852382E+03  2.124150E+05 -6.244076E-08 -3.011472E-08
       250  19  5.936963E+05  1.865594E+05  3.712135E+04  2.819235E+05  3.414810E+03  1.861753E+04
       250  20  5.271867E+05  1.532983E+05  2.378408E+04  2.539232E+05  5.802089E+03  1.296425E+04
       250  21  4.474815E+05  1.332756E+05  1.060781E+04  2.409001E+05  8.187396E+03  7.317818E+03
       250  22  3.969442E+05  1.147245E+05  2.025489E+02  2.266534E+05 -5.490257E+03  1.524484E+04
       250  23  4.035455E+05  1.081026E+05  4.552067E+02  2.191673E+05 -3.092044E+03  9.595147E+03
       250  24  3.969492E+05  1.147215E+05  8.776887E+02  2.266570E+05 -6.957788E+02  3.952323E+03
       250  25  2.002308E+05  4.289269E+04 -3.671796E+04  1.713991E+05 -1.439239E+04  1.187327E+04
       250  26  2.799199E+05  6.290828E+04 -2.287411E+04  1.844179E+05 -1.198432E+04  6.226751E+03
       250  27  3.464198E+05  9.616766E+04 -8.852209E+03  2.124150E+05 -9.578181E+03  5.871233E+02
       251   1  3.989438E+05  1.154904E+05  1.344667E+03  2.273354E+05 -9.635958E+03 -4.049823E+03
       251   2  3.323668E+05  8.221445E+04 -1.130974E+04  1.993528E+05 -1.274030E+04  1.283408E+03
       251   3  2.527286E+05  6.227155E+04 -2.323461E+04  1.863543E+05 -1.581237E+04  6.533029E+03
       251   4  3.969802E+05  1.147162E+05  1.183437E+03  2.266705E+05 -7.397674E+02 -6.793381E+02
       251   5  4.035025E+05  1.080634E+05  2.164897E+03  2.191688E+05 -3.974677E+03  4.604106E+03
       251   6  3.969835E+05  1.147686E+05  3.978969E+03  2.266487E+05 -7.177451E+03  9.803932E+03
       251   7  3.950168E+05  1.139420E+05  1.022553E+03  2.260056E+05  8.156316E+03  2.691103E+03
       251   8  4.746436E+05  1.339128E+05  1.563966E+04  2.389870E+05  4.792024E+03  7.925207E+03
       251   9  5.412616E+05  1.672680E+05  3.119238E+04  2.669522E+05  1.459693E+03  1.307567E+04
       251  10  3.989437E+05  1.154904E+05  1.344462E+03  2.273354E+05 -1.594106E-08  1.327024E-09
       251  11  3.323666E+05  8.221440E+04 -1.131005E+04  1.993529E+05 -9.772937E-09  3.770133E-09
       251  12  2.527283E+05  6.227144E+04 -2.323516E+04  1.863543E+05  2.022624E-09  7.340191E-09
       251  13  3.969802E+05  1.147162E+05  1.183436E+03  2.266705E+05  1.772563E-09  1.093766E-08
       251  14  4.035024E+05  1.080633E+05  2.164827E+03  2.191689E+05 -4.289765E-10  2.838184E-09
       251  15  3.969834E+05  1.147684E+05  3.978692E+03  2.266487E+05 -3.299680E-09 -7.097731E-09
       251  16  3.950167E+05  1.139420E+05  1.022415E+03  2.260056E+05  2.137963E-08  5.686179E-09
       251  17  4.746436E+05  1.339127E+05  1.563950E+04  2.389870E+05  5.874779E-09  1.051460E-08
       251  18  5.412616E+05  1.672679E+05  3.119206E+04  2.669522E+05 -7.215005E-09  3.083500E-09
       251  19  3.989438E+05  1.154904E+05  1.344667E+03  2.273354E+05  9.635958E+03  4.049823E+03
       251  20  3.323668E+05  8.221445E+04 -1.130974E+04  1.993528E+05  1.274030E+04 -1.283408E+03
       251  21  2.527286E+05  6.227155E+04 -2.323461E+04  1.863543E+05  1.581237E+04 -6.533029E+03
       251  22  3.969802E+05  1.147162E+05  1.183437E+03  2.266705E+05  7.397674E+02  6.793381E+02
       251  23  4.035025E+05  1.080634E+05  2.164897E+03  2.191688E+05  3.974677E+03 -4.604106E+03
       251  24  3.969835E+05  1.147686E+05  3.978969E+03  2.266487E+05  7.177451E+03 -9.803932E+03
       251  25  3.950168E+05  1.139420E+05  1.022553E+03  2.260056E+05 -8.156316E+03 -2.691103E+03
       251  26  4.746436E+05  1.339128E+05  1.563966E+04  2.389870E+05 -4.792024E+03 -7.925207E+03
       251  27  5.412616E+05  1.672680E+05  3.119238E+04  2.669522E+05 -1.459693E+03 -1.307567E+04
       252   1  2.040633E+05  4.463483E+04 -3.152213E+04  1.731914E+05 -1.799079E+04  9.501224E+03
       252   2  1.377568E+05  1.100174E+04 -4.139482E+04  1.441560E+05 -2.309386E+04  1.343922E+04
       252   3  5.950311E+04 -7.269517E+03 -4.833117E+04  1.296168E+05 -2.777809E+04  1.627557E+04
       252   4  3.972087E+05  1.146710E+05  5.302116E+03  2.267727E+05 -9.173768E+03  1.284070E+04
       252   5  4.032385E+05  1.084219E+05  9.687375E+03  2.189167E+05 -1.598848E+04  1.612931E+04
       252   6  3.976537E+05  1.178719E+05  1.836429E+04  2.255540E+05 -2.238481E+04  1.831639E+04
       252   7  5.903931E+05  1.847105E+05  4.212511E+04  2.803694E+05 -3.538131E+02  1.618127E+04
       252   8  6.687923E+05  2.058482E+05  6.076641E+04  2.937068E+05 -8.879876E+03  1.882063E+04
       252   9  7.359197E+05  2.430230E+05  8.505371E+04  3.215391E+05 -1.698843E+04  2.035841E+04
       252  10  2.040630E+05  4.463465E+04 -3.152291E+04  1.731915E+05 -1.231851E-09  2.278127E-09
       252  11  1.377562E+05  1.100140E+04 -4.139616E+04  1.441562E+05 -2.936215E-09  5.526275E-09
       252  12  5.950221E+04 -7.270008E+03 -4.833312E+04  1.296171E+05 -2.833847E-09 -4.246443E-09
       252  13  3.972086E+05  1.146708E+05  5.301648E+03  2.267728E+05 -2.642741E-09  2.538449E-09
       252  14  4.032381E+05  1.084215E+05  9.686406E+03  2.189169E+05 -9.915738E-11  9.664537E-09
       252  15  3.976531E+05  1.178714E+05  1.836271E+04  2.255544E+05 -7.411180E-10  1.283124E-09
       252  16  5.903930E+05  1.847102E+05  4.212462E+04  2.803694E+05  1.505745E-09  1.043240E-08
       252  17  6.687921E+05  2.058478E+05  6.076559E+04  2.937069E+05  1.565897E-10  1.360766E-08
       252  18  7.359193E+05  2.430225E+05  8.505239E+04  3.215393E+05 -1.583690E-09  5.127520E-09
       252  19  2.040633E+05  4.463483E+04 -3.152213E+04  1.731914E+05  1.799079E+04 -9.501224E+03
       252  20  1.377568E+05  1.100174E+04 -4.139482E+04  1.441560E+05  2.309386E+04 -1.343922E+04
       252  21  5.950311E+04 -7.269517E+03 -4.833117E+04  1.296168E+05  2.777809E+04 -1.627557E+04
       252  22  3.972087E+05  1.146710E+05  5.302116E+03  2.267727E+05  9.173768E+03 -1.284070E+04
       252  23  4.032385E+05  1.084219E+05  9.687375E+03  2.189167E+05  1.598848E+04 -1.612931E+04
       252  24  3.976537E+05  1.178719E+05  1.836429E+04  2.255540E+05  2.238481E+04 -1.831639E+04
       252  25  5.903931E+05  1.847105E+05  4.212511E+04  2.803694E+05  3.538131E+02 -1.618127E+04
       252  26  6.687923E+05  2.058482E+05  6.076641E+04  2.937068E+05  8.879876E+03 -1.882063E+04
       252  27  7.359197E+05  2.430230E+05  8.505371E+04  3.215391E+05  1.698843E+04 -2.035841E+04
       253   1  7.850462E+03 -2.188364E+04 -5.261135E+04  1.237850E+05 -3.406089E+04  1.736808E+04
       253   2 -4.328032E+04 -6.336235E+04 -5.346140E+04  6.654260E+04 -3.464908E+04  1.461126E+04
       253   3 -8.869776E+04 -4.481587E+04 -4.014535E+04  1.056639E+04 -2.976717E+04 -2.606103E+03
       253   4  4.006641E+05  1.160207E+05  2.420806E+04  2.274109E+05 -2.629911E+04  2.030531E+04
       253   5  4.010702E+05  1.221546E+05  4.564629E+04  2.122517E+05 -4.931978E+04  9.055476E+03
       253   6  4.116158E+05  1.927322E+05  9.902324E+04  1.983600E+05 -6.687388E+04 -1.665005E+04
       253   7  7.936424E+05  2.539377E+05  1.010221E+05  3.310975E+05 -1.853194E+04  2.324438E+04
       253   8  8.456233E+05  3.077037E+05  1.447426E+05  3.580623E+05 -6.400176E+04  3.494159E+03
       253   9  9.121747E+05  4.303400E+05  2.381726E+05  3.863031E+05 -1.040126E+05 -3.071345E+04
       253  10  7.849135E+03 -2.188428E+04 -5.261409E+04  1.237854E+05 -3.974751E-09  8.283634E-09
       253  11 -4.328167E+04 -6.336290E+04 -5.346405E+04  6.654301E+04  5.453605E-10  6.965978E-09
       253  12 -8.869871E+04 -4.481612E+04 -4.014703E+04  1.056632E+04  8.230962E-09  5.967550E-09
       253  13  4.006632E+05  1.160201E+05  2.420598E+04  2.274113E+05 -1.636964E-09  1.526724E-09
       253  14  4.010676E+05  1.221538E+05  4.564157E+04  2.122521E+05 -2.812163E-09  6.588903E-09
       253  15  4.116110E+05  1.927307E+05  9.901432E+04  1.983592E+05 -3.222496E-10 -5.913042E-11
       253  16  7.936419E+05  2.539370E+05  1.010205E+05  3.310978E+05 -2.435118E-10  9.722351E-09
       253  17  8.456189E+05  3.077026E+05  1.447349E+05  3.580625E+05 -7.359874E-09  7.801486E-09
       253  18  9.121628E+05  4.303361E+05  2.381505E+05  3.863005E+05 -9.167147E-09 -5.544353E-09
       253  19  7.850462E+03 -2.188364E+04 -5.261135E+04  1.237850E+05  3.406089E+04 -1.736808E+04
       253  20 -4.328032E+04 -6.336235E+04 -5.346140E+04  6.654260E+04  3.464908E+04 -1.461126E+04
       253  21 -8.869776E+04 -4.481587E+04 -4.014535E+04  1.056639E+04  2.976717E+04  2.606103E+03
       253  22  4.006641E+05  1.160207E+05  2.420806E+04  2.274109E+05  2.629911E+04 -2.030531E+04
       253  23  4.010702E+05  1.221546E+05  4.564629E+04  2.122517E+05  4.931978E+04 -9.055476E+03
       253  24  4.116158E+05  1.927322E+05  9.902324E+04  1.983600E+05  6.687388E+04  1.665005E+04
       253  25  7.936424E+05  2.539377E+05  1.010221E+05  3.310975E+05  1.853194E+04 -2.324438E+04
       253  26  8.456233E+05  3.077037E+05  1.447426E+05  3.580623E+05  6.400176E+04 -3.494159E+03
       253  27  9.121747E+05  4.303400E+05  2.381726E+05  3.863031E+05  1.040126E+05  3.071345E+04
       254   1  1.006083E+05  5.370945E+03  1.060483E+03 -4.762813E+02 -1.200116E+04 -1.118655E+03
       254   2  9.199524E+04  2.065297E+04  8.862474E+03  1.570326E+03 -8.683194E+03 -3.291748E+03
       254   3  7.839498E+04  1.789035E+04  9.989504E+03  9.177178E+03 -5.373566E+03 -3.116884E+03
       254   4  9.671420E+03 -1.719531E+04 -2.113839E+04  6.509331E+03 -1.449884E+04 -1.127584E+03
       254   5  1.231737E+04  1.070433E+03 -9.472342E+03  3.697057E+03 -9.434457E+03 -3.294473E+03
       254   6  9.672001E+03  9.869775E+02 -5.694715E+03  6.445128E+03 -4.378338E+03 -3.113323E+03
       254   7 -8.125775E+04 -3.976198E+04 -4.333781E+04  1.349391E+04 -1.699615E+04 -1.136570E+03
       254   8 -6.735461E+04 -1.851253E+04 -2.780757E+04  5.823508E+03 -1.018562E+04 -3.297204E+03
       254   9 -5.904659E+04 -1.591670E+04 -2.137923E+04  3.713380E+03 -3.383220E+03 -3.109771E+03
       254  10  1.006081E+05  5.370905E+03  1.060210E+03 -4.762922E+02 -2.460025E-09  2.072684E-09
       254  11  9.199516E+04  2.065294E+04  8.862312E+03  1.570303E+03  2.338677E-09  1.490296E-08
       254  12  7.839495E+04  1.789034E+04  9.989431E+03  9.177164E+03  2.372769E-09  5.371953E-09
       254  13  9.671194E+03 -1.719537E+04 -2.113878E+04  6.509318E+03 -2.158259E-09 -6.042710E-09
       254  14  1.231727E+04  1.070397E+03 -9.472530E+03  3.697032E+03 -4.805499E-10 -9.245396E-09
       254  15  9.671978E+03  9.869619E+02 -5.694769E+03  6.445117E+03  8.927307E-10  2.651184E-09
       254  16 -8.125806E+04 -3.976206E+04 -4.333835E+04  1.349390E+04  2.562217E-09  1.606340E-09
       254  17 -6.735473E+04 -1.851257E+04 -2.780779E+04  5.823480E+03 -2.597785E-09  9.651647E-09
       254  18 -5.904660E+04 -1.591671E+04 -2.137927E+04  3.713371E+03 -4.395752E-09  2.553151E-09
       254  19  1.006083E+05  5.370945E+03  1.060483E+03 -4.762813E+02  1.200116E+04  1.118655E+03
       254  20  9.199524E+04  2.065297E+04  8.862474E+03  1.570326E+03  8.683194E+03  3.291748E+03
       254  21  7.839498E+04  1.789035E+04  9.989504E+03  9.177178E+03  5.373566E+03  3.116884E+03
       254  22  9.671420E+03 -1.719531E+04 -2.113839E+04  6.509331E+03  1.449884E+04  1.127584E+03
       254  23  1.231737E+04  1.070433E+03 -9.472342E+03  3.697057E+03  9.434457E+03  3.294473E+03
       254  24  9.672001E+03  9.869775E+02 -5.694715E+03  6.445128E+03  4.378338E+03  3.113323E+03
       254  25 -8.125775E+04 -3.976198E+04 -4.333781E+04  1.349391E+04  1.699615E+04  1.136570E+03
       254  26 -6.735461E+04 -1.851253E+04 -2.780757E+04  5.823508E+03  1.018562E+04  3.297204E+03
       254  27 -5.904659E+04 -1.591670E+04 -2.137923E+04  3.713380E+03  3.383220E+03  3.109771E+03
       255   1  6.911505E+04  1.315631E+04  8.804532E+03  6.209511E+03 -3.817439E+03 -2.520644E+03
       255   2  5.832693E+04  1.175004E+04  8.400908E+03  3.696258E+03 -2.678826E+03 -2.092616E+03
       255   3  4.701602E+04  9.042197E+03  6.919907E+03  6.784609E+03 -1.540693E+03 -1.551608E+03
       255   4  1.072861E+04 -1.193658E+03 -4.576519E+03  6.475455E+03 -3.543824E+03 -2.519679E+03
       255   5  1.099761E+04  1.203398E+02 -2.421964E+03  3.672267E+03 -2.321259E+03 -2.091336E+03
       255   6  1.072890E+04  1.180959E+02 -1.403208E+03  6.470720E+03 -1.099154E+03 -1.550009E+03
       255   7 -4.765467E+04 -1.554386E+04 -1.795779E+04  6.741371E+03 -3.270235E+03 -2.518714E+03
       255   8 -3.632963E+04 -1.150951E+04 -1.324498E+04  3.648276E+03 -1.963718E+03 -2.090056E+03
       255   9 -2.555699E+04 -8.806096E+03 -9.726408E+03  6.156848E+03 -6.576398E+02 -1.548411E+03
       255  10  6.911503E+04  1.315630E+04  8.804492E+03  6.209503E+03  1.600910E-09  4.733337E-10
       255  11  5.832692E+04  1.175003E+04  8.400886E+03  3.696253E+03 -2.875126E-09  3.097139E-09
       255  12  4.701602E+04  9.042194E+03  6.919899E+03  6.784607E+03 -3.445214E-09  8.587539E-09
       255  13  1.072860E+04 -1.193668E+03 -4.576555E+03  6.475448E+03  1.086191E-09  1.331867E-08
       255  14  1.099760E+04  1.203337E+02 -2.421982E+03  3.672263E+03 -2.601408E-09 -1.591327E-08
       255  15  1.072890E+04  1.180930E+02 -1.403214E+03  6.470718E+03  2.525556E-09  6.705827E-09
       255  16 -4.765468E+04 -1.554387E+04 -1.795783E+04  6.741364E+03  1.029279E-09 -6.879007E-09
       255  17 -3.632964E+04 -1.150952E+04 -1.324500E+04  3.648273E+03  2.799740E-09 -1.855224E-09
       255  18 -2.555700E+04 -8.806099E+03 -9.726414E+03  6.156847E+03  4.121659E-09  2.077172E-09
       255  19  6.911505E+04  1.315631E+04  8.804532E+03  6.209511E+03  3.817439E+03  2.520644E+03
       255  20  5.832693E+04  1.175004E+04  8.400908E+03  3.696258E+03  2.678826E+03  2.092616E+03
       255  21  4.701602E+04  9.042197E+03  6.919907E+03  6.784609E+03  1.540693E+03  1.551608E+03
       255  22  1.072861E+04 -1.193658E+03 -4.576519E+03  6.475455E+03  3.543824E+03  2.519679E+03
       255  23  1.099761E+04  1.203398E+02 -2.421964E+03  3.672267E+03  2.321259E+03  2.091336E+03
       255  24  1.072890E+04  1.180959E+02 -1.403208E+03  6.470720E+03  1.099154E+03  1.550009E+03
       255  25 -4.765467E+04 -1.554386E+04 -1.795779E+04  6.741371E+03  3.270235E+03  2.518714E+03
       255  26 -3.632963E+04 -1.150951E+04 -1.324498E+04  3.648276E+03  1.963718E+03  2.090056E+03
       255  27 -2.555699E+04 -8.806096E+03 -9.726408E+03  6.156848E+03  6.576398E+02  1.548411E+03
       256   1  3.679477E+04  6.338616E+03  4.828971E+03  6.539817E+03 -1.289025E+03 -1.214378E+03
       256   2  2.580141E+04  3.705078E+03  2.821672E+03  3.721634E+03 -1.001829E+03 -6.638942E+02
       256   3  1.470482E+04  1.012638E+03  6.011704E+02  6.506470E+03 -7.146667E+02 -1.079860E+02
       256   4  1.082546E+04 -3.663153E+01 -1.077302E+03  6.472593E+03 -8.822317E+02 -1.212900E+03
       256   5  1.087745E+04  3.785173E+01 -5.894938E+02  3.670914E+03 -5.910122E+02 -6.623978E+02
       256   6  1.082555E+04  5.278019E+01 -3.176447E+02  6.472260E+03 -2.998207E+02 -1.064704E+02
       256   7 -1.514323E+04 -6.411926E+03 -6.983618E+03  6.405372E+03 -4.754554E+02 -1.211422E+03
       256   8 -4.046311E+03 -3.629390E+03 -4.000674E+03  3.620194E+03 -1.802050E+02 -6.609015E+02
       256   9  6.946299E+03 -9.070786E+02 -1.236460E+03  6.438051E+03  1.150227E+02 -1.049548E+02
       256  10  3.679477E+04  6.338614E+03  4.828965E+03  6.539815E+03  1.043637E-08 -4.420404E-09
       256  11  2.580141E+04  3.705077E+03  2.821669E+03  3.721634E+03  2.074541E-11 -6.503756E-09
       256  12  1.470481E+04  1.012638E+03  6.011694E+02  6.506470E+03 -1.300801E-08 -4.214093E-09
       256  13  1.082546E+04 -3.663332E+01 -1.077306E+03  6.472592E+03  3.242378E-09  1.085236E-09
       256  14  1.087744E+04  3.785117E+01 -5.894953E+02  3.670913E+03  8.302599E-11 -3.770258E-09
       256  15  1.082555E+04  5.278015E+01 -3.176449E+02  6.472260E+03  2.140182E-09  7.431891E-10
       256  16 -1.514323E+04 -6.411928E+03 -6.983622E+03  6.405372E+03 -9.428289E-09 -7.174334E-09
       256  17 -4.046311E+03 -3.629390E+03 -4.000675E+03  3.620194E+03  2.607346E-09  7.773854E-09
       256  18  6.946299E+03 -9.070786E+02 -1.236460E+03  6.438051E+03  1.185486E-08  1.033298E-08
       256  19  3.679477E+04  6.338616E+03  4.828971E+03  6.539817E+03  1.289025E+03  1.214378E+03
       256  20  2.580141E+04  3.705078E+03  2.821672E+03  3.721634E+03  1.001829E+03  6.638942E+02
       256  21  1.470482E+04  1.012638E+03  6.011704E+02  6.506470E+03  7.146667E+02  1.079860E+02
       256  22  1.082546E+04 -3.663153E+01 -1.077302E+03  6.472593E+03  8.822317E+02  1.212900E+03
       256  23  1.087745E+04  3.785173E+01 -5.894938E+02  3.670914E+03  5.910122E+02  6.623978E+02
       256  24  1.082555E+04  5.278019E+01 -3.176447E+02  6.472260E+03  2.998207E+02  1.064704E+02
       256  25 -1.514323E+04 -6.411926E+03 -6.983618E+03  6.405372E+03  4.754554E+02  1.211422E+03
       256  26 -4.046311E+03 -3.629390E+03 -4.000674E+03  3.620194E+03  1.802050E+02  6.609015E+02
       256  27  6.946299E+03 -9.070786E+02 -1.236460E+03  6.438051E+03 -1.150227E+02  1.049548E+02
       257   1  4.400772E+03 -1.545171E+03 -1.726885E+03  6.462279E+03 -6.655697E+02  2.162692E+02
       257   2 -6.620412E+03 -4.267771E+03 -4.071925E+03  3.630484E+03 -6.299073E+02  7.718788E+02
       257   3 -1.768856E+04 -6.956052E+03 -6.443087E+03  6.401683E+03 -5.942317E+02  1.327734E+03
       257   4  1.083816E+04  4.298776E+01 -2.234820E+02  6.472361E+03 -2.523951E+02  2.177784E+02
       257   5  1.086166E+04  2.789100E+01 -7.637345E+01  3.670857E+03 -2.165544E+02  7.733835E+02
       257   6  1.083805E+04  4.708916E+01  4.449383E+01  6.472338E+03 -1.806996E+02  1.329234E+03
       257   7  1.727559E+04  1.631143E+03  1.279919E+03  6.482443E+03  1.607837E+02  2.192877E+02
       257   8  2.834401E+04  4.323532E+03  3.919159E+03  3.711232E+03  1.968101E+02  7.748881E+02
       257   9  3.936541E+04  7.050175E+03  6.532022E+03  6.542996E+03  2.328512E+02  1.330735E+03
       257  10  4.400772E+03 -1.545171E+03 -1.726886E+03  6.462279E+03 -6.583295E-09 -8.336440E-09
       257  11 -6.620413E+03 -4.267772E+03 -4.071927E+03  3.630484E+03 -1.761661E-09  2.316099E-09
       257  12 -1.768856E+04 -6.956054E+03 -6.443091E+03  6.401683E+03  1.226942E-09  1.440120E-09
       257  13  1.083816E+04  4.298769E+01 -2.234822E+02  6.472361E+03 -1.965188E-11  3.137025E-09
       257  14  1.086166E+04  2.789034E+01 -7.637466E+01  3.670857E+03 -1.587981E-09 -4.411499E-09
       257  15  1.083805E+04  4.708725E+01  4.449045E+01  6.472338E+03  2.653103E-09 -3.262714E-09
       257  16  1.727558E+04  1.631143E+03  1.279919E+03  6.482443E+03  6.993268E-09  4.077624E-09
       257  17  2.834401E+04  4.323531E+03  3.919158E+03  3.711232E+03  2.380392E-09  7.160114E-09
       257  18  3.936541E+04  7.050173E+03  6.532019E+03  6.542996E+03 -3.420775E-09  9.315350E-10
       257  19  4.400772E+03 -1.545171E+03 -1.726885E+03  6.462279E+03  6.655697E+02 -2.162692E+02
       257  20 -6.620412E+03 -4.267771E+03 -4.071925E+03  3.630484E+03  6.299073E+02 -7.718788E+02
       257  21 -1.768856E+04 -6.956052E+03 -6.443087E+03  6.401683E+03  5.942317E+02 -1.327734E+03
       257  22  1.083816E+04  4.298776E+01 -2.234820E+02  6.472361E+03  2.523951E+02 -2.177784E+02
       257  23  1.086166E+04  2.789100E+01 -7.637345E+01  3.670857E+03  2.165544E+02 -7.733835E+02
       257  24  1.083805E+04  4.708916E+01  4.449383E+01  6.472338E+03  1.806996E+02 -1.329234E+03
       257  25  1.727559E+04  1.631143E+03  1.279919E+03  6.482443E+03 -1.607837E+02 -2.192877E+02
       257  26  2.834401E+04  4.323532E+03  3.919159E+03  3.711232E+03 -1.968101E+02 -7.748881E+02
       257  27  3.936541E+04  7.050175E+03  6.532022E+03  6.542996E+03 -2.328512E+02 -1.330735E+03
       258   1 -2.799920E+04 -9.505175E+03 -8.802628E+03  6.374870E+03 -6.092354E+02  1.651233E+03
       258   2 -3.903517E+04 -1.223611E+04 -1.113828E+04  3.546045E+03 -7.416499E+02  2.206492E+03
       258   3 -5.008934E+04 -1.491239E+04 -1.338514E+04  6.321102E+03 -8.740163E+02  2.761340E+03
       258   4  1.084425E+04  4.602595E+01  1.075426E+02  6.472549E+03 -1.956423E+02  1.652727E+03
       258   5  1.085331E+04  2.272964E+01  2.641104E+02  3.670603E+03 -3.283787E+02  2.207970E+03
       258   6  1.084394E+04  5.411754E+01  5.096382E+02  6.472512E+03 -4.610691E+02  2.762803E+03
       258   7  4.968910E+04  9.597122E+03  9.017615E+03  6.570233E+03  2.179765E+02  1.654222E+03
       258   8  6.074410E+04  1.228140E+04  1.166633E+04  3.795170E+03  8.492551E+01  2.209449E+03
       258   9  7.178066E+04  1.502037E+04  1.440418E+04  6.623933E+03 -4.808184E+01  2.764267E+03
       258  10 -2.799920E+04 -9.505178E+03 -8.802634E+03  6.374871E+03  6.981096E-09  2.733037E-09
       258  11 -3.903517E+04 -1.223612E+04 -1.113829E+04  3.546046E+03  3.407757E-09 -5.865172E-10
       258  12 -5.008934E+04 -1.491240E+04 -1.338516E+04  6.321104E+03 -9.256030E-09 -1.821509E-09
       258  13  1.084425E+04  4.602300E+01  1.075374E+02  6.472550E+03  2.152991E-09  1.046921E-08
       258  14  1.085331E+04  2.272438E+01  2.641010E+02  3.670604E+03 -2.072350E-09 -3.384867E-09
       258  15  1.084394E+04  5.410928E+01  5.096234E+02  6.472513E+03  1.315341E-09 -5.217617E-09
       258  16  4.968910E+04  9.597119E+03  9.017609E+03  6.570233E+03 -4.904745E-09  2.789597E-09
       258  17  6.074410E+04  1.228140E+04  1.166632E+04  3.795169E+03  8.296588E-10 -1.136446E-08
       258  18  7.178066E+04  1.502036E+04  1.440416E+04  6.623933E+03  9.002701E-09 -7.491336E-09
       258  19 -2.799920E+04 -9.505175E+03 -8.802628E+03  6.374870E+03  6.092354E+02 -1.651233E+03
       258  20 -3.903517E+04 -1.223611E+04 -1.113828E+04  3.546045E+03  7.416499E+02 -2.206492E+03
       258  21 -5.008934E+04 -1.491239E+04 -1.338514E+04  6.321102E+03  8.740163E+02 -2.761340E+03
       258  22  1.084425E+04  4.602595E+01  1.075426E+02  6.472549E+03  1.956423E+02 -1.652727E+03
       258  23  1.085331E+04  2.272964E+01  2.641104E+02  3.670603E+03  3.283787E+02 -2.207970E+03
       258  24  1.084394E+04  5.411754E+01  5.096382E+02  6.472512E+03  4.610691E+02 -2.762803E+03
       258  25  4.968910E+04  9.597122E+03  9.017615E+03  6.570233E+03 -2.179765E+02 -1.654222E+03
       258  26  6.074410E+04  1.228140E+04  1.166633E+04  3.795170E+03 -8.492551E+01 -2.209449E+03
       258  27  7.178066E+04  1.502037E+04  1.440418E+04  6.623933E+03  4.808184E+01 -2.764267E+03
       259   1 -6.038322E+04 -1.748014E+04 -1.563543E+04  6.325526E+03 -9.851755E+02  3.085517E+03
       259   2 -7.147517E+04 -2.022047E+04 -1.760846E+04  3.469815E+03 -1.577964E+03  3.637798E+03
       259   3 -8.247652E+04 -2.272238E+04 -1.914638E+04  6.216894E+03 -2.170648E+03  4.180880E+03
       259   4  1.086811E+04  3.444886E+01  6.817928E+02  6.472477E+03 -5.693731E+02  3.086979E+03
       259   5  1.082194E+04  2.438781E+00  1.201984E+03  3.670790E+03 -1.169076E+03  3.639211E+03
       259   6  1.086760E+04  2.100763E+02  2.162095E+03  6.471848E+03 -1.768687E+03  4.182246E+03
       259   7  8.212414E+04  1.754868E+04  1.699868E+04  6.619441E+03 -1.535235E+02  3.088440E+03
       259   8  9.312533E+04  2.022488E+04  2.001199E+04  3.871787E+03 -7.601355E+02  3.640625E+03
       259   9  1.042198E+05  2.314193E+04  2.347000E+04  6.726833E+03 -1.366665E+03  4.183611E+03
       259  10 -6.038322E+04 -1.748015E+04 -1.563545E+04  6.325529E+03 -8.503854E-09 -8.985696E-10
       259  11 -7.147517E+04 -2.022048E+04 -1.760849E+04  3.469820E+03  1.161544E-09 -5.861984E-09
       259  12 -8.247653E+04 -2.272240E+04 -1.914642E+04  6.216902E+03  3.762195E-09 -1.483660E-09
       259  13  1.086810E+04  3.443854E+01  6.817743E+02  6.472479E+03 -1.073558E-09 -8.874145E-10
       259  14  1.082194E+04  2.424192E+00  1.201956E+03  3.670794E+03 -1.022679E-09  4.738313E-09
       259  15  1.086759E+04  2.100567E+02  2.162057E+03  6.471854E+03  1.651923E-09  4.129289E-09
       259  16  8.212413E+04  1.754867E+04  1.699866E+04  6.619441E+03  8.441099E-09  3.511093E-09
       259  17  9.312532E+04  2.022486E+04  2.001196E+04  3.871789E+03  1.649880E-09 -1.040791E-08
       259  18  1.042198E+05  2.314191E+04  2.346997E+04  6.726838E+03 -6.987331E-09  3.262665E-09
       259  19 -6.038322E+04 -1.748014E+04 -1.563543E+04  6.325526E+03  9.851755E+02 -3.085517E+03
       259  20 -7.147517E+04 -2.022047E+04 -1.760846E+04  3.469815E+03  1.577964E+03 -3.637798E+03
       259  21 -8.247652E+04 -2.272238E+04 -1.914638E+04  6.216894E+03  2.170648E+03 -4.180880E+03
       259  22  1.086811E+04  3.444886E+01  6.817928E+02  6.472477E+03  5.693731E+02 -3.086979E+03
       259  23  1.082194E+04  2.438781E+00  1.201984E+03  3.670790E+03  1.169076E+03 -3.639211E+03
       259  24  1.086760E+04  2.100763E+02  2.162095E+03  6.471848E+03  1.768687E+03 -4.182246E+03
       259  25  8.212414E+04  1.754868E+04  1.699868E+04  6.619441E+03  1.535235E+02 -3.088440E+03
       259  26  9.312533E+04  2.022488E+04  2.001199E+04  3.871787E+03  7.601355E+02 -3.640625E+03
       259  27  1.042198E+05  2.314193E+04  2.347000E+04  6.726833E+03  1.366665E+03 -4.183611E+03
       260   1 -9.260854E+04 -2.557503E+04 -2.091413E+04  6.626857E+03 -2.668053E+03  4.524636E+03
       260   2 -1.041237E+05 -2.835553E+04 -2.139733E+04  3.166166E+03 -4.967900E+03  5.040681E+03
       260   3 -1.147010E+05 -2.841859E+04 -1.971290E+04  5.297882E+03 -7.266970E+03  5.364618E+03
       260   4  1.106053E+04 -9.820858E+01  2.807789E+03  6.472503E+03 -2.207029E+03  4.526191E+03
       260   5  1.057903E+04 -1.651056E+02  4.830709E+03  3.671873E+03 -4.650194E+03  5.041705E+03
       260   6  1.105986E+04  2.510031E+03  9.120484E+03  6.463575E+03 -7.092623E+03  5.365123E+03
       260   7  1.147396E+05  2.537787E+04  2.652900E+04  6.318115E+03 -1.745929E+03  4.527746E+03
       260   8  1.252939E+05  2.802441E+04  3.105788E+04  4.177664E+03 -4.332430E+03  5.042729E+03
       260   9  1.368354E+05  3.343756E+04  3.795283E+04  7.629493E+03 -6.918241E+03  5.365629E+03
       260  10 -9.260856E+04 -2.557506E+04 -2.091418E+04  6.626867E+03  1.750602E-08  1.186758E-09
       260  11 -1.041237E+05 -2.835557E+04 -2.139742E+04  3.166186E+03  3.819475E-09  7.658014E-09
       260  12 -1.147011E+05 -2.841864E+04 -1.971305E+04  5.297914E+03 -6.144550E-09 -4.641440E-09
       260  13  1.106052E+04 -9.823189E+01  2.807742E+03  6.472511E+03 -2.142288E-09 -1.163163E-08
       260  14  1.057900E+04 -1.651387E+02  4.830621E+03  3.671892E+03 -1.507197E-09  7.343601E-09
       260  15  1.105979E+04  2.509986E+03  9.120336E+03  6.463606E+03  1.584464E-10 -3.786513E-09
       260  16  1.147396E+05  2.537784E+04  2.652896E+04  6.318121E+03 -1.632559E-08 -3.668023E-09
       260  17  1.252939E+05  2.802437E+04  3.105780E+04  4.177682E+03 -5.739479E-09 -1.621814E-08
       260  18  1.368353E+05  3.343751E+04  3.795269E+04  7.629523E+03  4.388176E-09  2.000549E-09
       260  19 -9.260854E+04 -2.557503E+04 -2.091413E+04  6.626857E+03  2.668053E+03 -4.524636E+03
       260  20 -1.041237E+05 -2.835553E+04 -2.139733E+04  3.166166E+03  4.967900E+03 -5.040681E+03
       260  21 -1.147010E+05 -2.841859E+04 -1.971290E+04  5.297882E+03  7.266970E+03 -5.364618E+03
       260  22  1.106053E+04 -9.820858E+01  2.807789E+03  6.472503E+03  2.207029E+03 -4.526191E+03
       260  23  1.057903E+04 -1.651056E+02  4.830709E+03  3.671873E+03  4.650194E+03 -5.041705E+03
       260  24  1.105986E+04  2.510031E+03  9.120484E+03  6.463575E+03  7.092623E+03 -5.365123E+03
       260  25  1.147396E+05  2.537787E+04  2.652900E+04  6.318115E+03  1.745929E+03 -4.527746E+03
       260  26  1.252939E+05  2.802441E+04  3.105788E+04  4.177664E+03  4.332430E+03 -5.042729E+03
       260  27  1.368354E+05  3.343756E+04  3.795283E+04  7.629493E+03  6.918241E+03 -5.365629E+03
       261   1 -1.230206E+05 -3.524537E+04 -1.970570E+04  1.118102E+04 -1.016479E+04  6.133384E+03
       261   2 -1.390146E+05 -3.825849E+04 -1.494783E+04 -1.316133E+03 -1.726228E+04  5.998590E+03
       261   3 -1.450755E+05 -5.109359E+03  3.466536E+03 -8.441564E+03 -2.434653E+04  1.868185E+03
       261   4  1.316678E+04 -1.834856E+03  1.134757E+04  6.453762E+03 -8.762694E+03  6.138082E+03
       261   5  7.943135E+03 -2.062822E+03  1.886923E+04  3.708730E+03 -1.883456E+04  5.993177E+03
       261   6  1.316629E+04  3.438287E+04  4.211063E+04  6.335157E+03 -2.889333E+04  1.852861E+03
       261   7  1.493714E+05  3.157446E+04  4.239966E+04  1.725439E+03 -7.360290E+03  6.142758E+03
       261   8  1.549210E+05  3.413142E+04  5.268487E+04  8.734777E+03 -2.040721E+04  5.987740E+03
       261   9  1.714314E+05  7.387407E+04  8.075308E+04  2.111564E+04 -3.344130E+04  1.837324E+03
       261  10 -1.230207E+05 -3.524544E+04 -1.970597E+04  1.118108E+04 -2.252324E-09 -3.506967E-09
       261  11 -1.390150E+05 -3.825861E+04 -1.494846E+04 -1.316050E+03  3.351216E-09 -1.228685E-09
       261  12 -1.450761E+05 -5.109521E+03  3.465415E+03 -8.441527E+03  5.300154E-09  9.884540E-09
       261  13  1.316669E+04 -1.834917E+03  1.134736E+04  6.453806E+03 -1.063550E-09  7.283166E-09
       261  14  7.942745E+03 -2.062956E+03  1.886849E+04  3.708821E+03 -9.934679E-10  3.622007E-09
       261  15  1.316539E+04  3.438265E+04  4.210905E+04  6.335200E+03  5.632351E-11  5.157390E-09
       261  16  1.493713E+05  3.157441E+04  4.239949E+04  1.725476E+03  1.232220E-09  5.906802E-09
       261  17  1.549205E+05  3.413127E+04  5.268402E+04  8.734876E+03 -3.323327E-09  4.865633E-09
       261  18  1.714302E+05  7.387377E+04  8.075098E+04  2.111569E+04 -5.728631E-09 -2.186208E-09
       261  19 -1.230206E+05 -3.524537E+04 -1.970570E+04  1.118102E+04  1.016479E+04 -6.133384E+03
       261  20 -1.390146E+05 -3.825849E+04 -1.494783E+04 -1.316133E+03  1.726228E+04 -5.998590E+03
       261  21 -1.450755E+05 -5.109359E+03  3.466536E+03 -8.441564E+03  2.434653E+04 -1.868185E+03
       261  22  1.316678E+04 -1.834856E+03  1.134757E+04  6.453762E+03  8.762694E+03 -6.138082E+03
       261  23  7.943135E+03 -2.062822E+03  1.886923E+04  3.708730E+03  1.883456E+04 -5.993177E+03
       261  24  1.316629E+04  3.438287E+04  4.211063E+04  6.335157E+03  2.889333E+04 -1.852861E+03
       261  25  1.493714E+05  3.157446E+04  4.239966E+04  1.725439E+03  7.360290E+03 -6.142758E+03
       261  26  1.549210E+05  3.413142E+04  5.268487E+04  8.734777E+03  2.040721E+04 -5.987740E+03
       261  27  1.714314E+05  7.387407E+04  8.075308E+04  2.111564E+04  3.344130E+04 -1.837324E+03
       262   1 -3.152933E+05 -1.333889E+06 -3.327649E+05  1.408634E+05 -9.524581E+03 -1.013474E+05
       262   2 -1.684715E+05 -1.150827E+06 -2.179438E+05  7.130821E+04 -2.848559E+04 -5.474216E+04
       262   3 -1.284321E+05 -9.996327E+05 -1.600705E+05  8.541387E+04 -2.413371E+04 -8.048693E+03
       262   4 -9.709390E+04 -4.595643E+05 -1.186510E+05  9.823962E+04 -9.589974E+03 -7.877972E+04
       262   5  5.452406E+03 -4.450972E+05 -5.519932E+04  5.656569E+04 -2.849791E+04 -4.945308E+04
       262   6  4.287225E+03 -4.594794E+05 -3.663515E+04  9.855570E+04 -2.410056E+04 -2.005192E+04
       262   7  1.210557E+05  4.154629E+05  9.540972E+04  5.555607E+04 -9.658431E+03 -5.618026E+04
       262   8  1.793422E+05  2.610940E+05  1.075123E+05  4.180658E+04 -2.851047E+04 -4.415800E+04
       262   9  1.369870E+05  8.094550E+04  8.678174E+04  1.117092E+05 -2.406793E+04 -3.206550E+04
       262  10 -3.152962E+05 -1.333900E+06 -3.327844E+05  1.408626E+05  8.268440E-10  5.600145E-09
       262  11 -1.684732E+05 -1.150830E+06 -2.179510E+05  7.130695E+04 -1.319838E-10  5.712696E-09
       262  12 -1.284327E+05 -9.996329E+05 -1.600717E+05  8.541371E+04  2.323453E-10  1.052330E-09
       262  13 -9.709567E+04 -4.595710E+05 -1.186629E+05  9.823901E+04  5.643544E-10  3.978357E-11
       262  14  5.450877E+03 -4.451000E+05 -5.520544E+04  5.656456E+04  1.155678E-09  2.131409E-09
       262  15  4.286493E+03 -4.594800E+05 -3.663700E+04  9.855531E+04  1.036491E-09  2.764945E-09
       262  16  1.210547E+05  4.154595E+05  9.540361E+04  5.555563E+04 -5.328263E-10  9.866899E-10
       262  17  1.793408E+05  2.610917E+05  1.075071E+05  4.180557E+04  2.130534E-09 -6.550961E-09
       262  18  1.369861E+05  8.094424E+04  8.677872E+04  1.117086E+05 -1.161063E-09  1.377604E-09
       262  19 -3.152933E+05 -1.333889E+06 -3.327649E+05  1.408634E+05  9.524581E+03  1.013474E+05
       262  20 -1.684715E+05 -1.150827E+06 -2.179438E+05  7.130821E+04  2.848559E+04  5.474216E+04
       262  21 -1.284321E+05 -9.996327E+05 -1.600705E+05  8.541387E+04  2.413371E+04  8.048693E+03
       262  22 -9.709390E+04 -4.595643E+05 -1.186510E+05  9.823962E+04  9.589974E+03  7.877972E+04
       262  23  5.452406E+03 -4.450972E+05 -5.519932E+04  5.656569E+04  2.849791E+04  4.945308E+04
       262  24  4.287225E+03 -4.594794E+05 -3.663515E+04  9.855570E+04  2.410056E+04  2.005192E+04
       262  25  1.210557E+05  4.154629E+05  9.540972E+04  5.555607E+04  9.658431E+03  5.618026E+04
       262  26  1.793422E+05  2.610940E+05  1.075123E+05  4.180658E+04  2.851047E+04  4.415800E+04
       262  27  1.369870E+05  8.094550E+04  8.678174E+04  1.117092E+05  2.406793E+04  3.206550E+04
       263   1 -1.014581E+05 -8.373531E+05 -1.199339E+05  1.029252E+05 -1.650059E+04 -9.337583E+03
       263   2 -5.234702E+04 -6.674098E+05 -7.434724E+04  5.676407E+04 -9.509528E+03  3.690056E+03
       263   3 -1.796089E+04 -5.022344E+05 -4.080527E+04  9.555651E+04 -2.006024E+03  1.671993E+04
       263   4 -7.147101E+03 -4.540883E+05 -3.204411E+04  9.874699E+04 -1.648702E+04 -1.437335E+04
       263   5  6.923380E+02 -4.517151E+05 -2.499004E+04  5.627205E+04 -9.495823E+03 -1.721624E+03
       263   6 -6.122845E+03 -4.540684E+05 -2.971396E+04  9.874985E+04 -1.992215E+03  1.092891E+04
       263   7  8.715372E+04 -7.068709E+04  5.583615E+04  9.456624E+04 -1.647338E+04 -1.941220E+04
       263   8  5.372848E+04 -2.359772E+05  2.436421E+04  5.577988E+04 -9.482111E+03 -7.135171E+03
       263   9  5.715093E+03 -4.059003E+05 -1.862268E+04  1.019434E+05 -1.978466E+03  5.137442E+03
       263  10 -1.014584E+05 -8.373533E+05 -1.199346E+05  1.029251E+05 -4.338823E-10  8.080902E-10
       263  11 -5.234712E+04 -6.674098E+05 -7.434743E+04  5.676410E+04  2.098156E-10 -2.915908E-09
       263  12 -1.796097E+04 -5.022347E+05 -4.080580E+04  9.555654E+04  1.551331E-09 -5.499211E-09
       263  13 -7.147449E+03 -4.540886E+05 -3.204501E+04  9.874679E+04 -4.148832E-10 -6.655569E-12
       263  14  6.922404E+02 -4.517151E+05 -2.499022E+04  5.627203E+04 -2.280664E-09 -1.759413E-09
       263  15 -6.122882E+03 -4.540686E+05 -2.971420E+04  9.874987E+04 -1.726133E-10 -1.193030E-09
       263  16  8.715333E+04 -7.068756E+04  5.583493E+04  9.456599E+04 -7.178684E-10  1.948107E-09
       263  17  5.372837E+04 -2.359773E+05  2.436395E+04  5.577982E+04 -5.112381E-10  1.219842E-09
       263  18  5.715082E+03 -4.059003E+05 -1.862274E+04  1.019434E+05  1.549897E-09  7.020836E-09
       263  19 -1.014581E+05 -8.373531E+05 -1.199339E+05  1.029252E+05  1.650059E+04  9.337583E+03
       263  20 -5.234702E+04 -6.674098E+05 -7.434724E+04  5.676407E+04  9.509528E+03 -3.690056E+03
       263  21 -1.796089E+04 -5.022344E+05 -4.080527E+04  9.555651E+04  2.006024E+03 -1.671993E+04
       263  22 -7.147101E+03 -4.540883E+05 -3.204411E+04  9.874699E+04  1.648702E+04  1.437335E+04
       263  23  6.923380E+02 -4.517151E+05 -2.499004E+04  5.627205E+04  9.495823E+03  1.721624E+03
       263  24 -6.122845E+03 -4.540684E+05 -2.971396E+04  9.874985E+04  1.992215E+03 -1.092891E+04
       263  25  8.715372E+04 -7.068709E+04  5.583615E+04  9.456624E+04  1.647338E+04  1.941220E+04
       263  26  5.372848E+04 -2.359772E+05  2.436421E+04  5.577988E+04  9.482111E+03  7.135171E+03
       263  27  5.715093E+03 -4.059003E+05 -1.862268E+04  1.019434E+05  1.978466E+03 -5.137442E+03
       264   1  3.033042E+04 -3.498565E+05 -8.252717E+03  1.109040E+05  4.468382E+03  2.552569E+04
       264   2  7.279326E+04 -1.704111E+05  1.506005E+04  4.439188E+04  1.066148E+04  4.196640E+04
       264   3  2.639351E+04 -1.468572E+04  5.583342E+03  6.223246E+04  4.123589E+03  5.837844E+04
       264   4  3.629382E+03 -4.586624E+05 -3.325832E+04  9.868771E+04  4.490191E+03  1.615086E+04
       264   5  4.846578E+03 -4.459809E+05 -4.865634E+04  5.639242E+04  1.066238E+04  4.204992E+04
       264   6 -8.446495E+04 -4.587059E+05 -1.034280E+05  9.845773E+04  4.102314E+03  6.791554E+04
       264   7 -2.307187E+04 -5.674569E+05 -5.826430E+04  8.647356E+04  4.512371E+03  6.777657E+03
       264   8 -6.310492E+04 -7.214802E+05 -1.123777E+05  6.838764E+04  1.066328E+04  4.213340E+04
       264   9 -1.953332E+05 -9.025437E+05 -2.124527E+05  1.346571E+05  4.082147E+03  7.744581E+04
       264  10  3.033023E+04 -3.498572E+05 -8.253979E+03  1.109039E+05  2.311359E-09  7.376693E-09
       264  11  7.279266E+04 -1.704131E+05  1.505653E+04  4.439152E+04  2.870953E-09  6.829524E-09
       264  12  2.639258E+04 -1.468938E+04  5.576906E+03  6.223227E+04  6.470026E-10  1.695660E-09
       264  13  3.629291E+03 -4.586627E+05 -3.325885E+04  9.868765E+04  1.409133E-09 -1.041092E-09
       264  14  4.845981E+03 -4.459829E+05 -4.865988E+04  5.639206E+04 -1.679472E-09  3.808356E-10
       264  15 -8.446621E+04 -4.587109E+05 -1.034367E+05  9.845751E+04  9.271274E-10  1.789247E-09
       264  16 -2.307190E+04 -5.674569E+05 -5.826443E+04  8.647354E+04  1.608952E-09 -3.336867E-09
       264  17 -6.310552E+04 -7.214821E+05 -1.123813E+05  6.838727E+04  1.376768E-09 -8.438379E-09
       264  18 -1.953348E+05 -9.025501E+05 -2.124641E+05  1.346569E+05  1.319643E-09  7.330430E-10
       264  19  3.033042E+04 -3.498565E+05 -8.252717E+03  1.109040E+05 -4.468382E+03 -2.552569E+04
       264  20  7.279326E+04 -1.704111E+05  1.506005E+04  4.439188E+04 -1.066148E+04 -4.196640E+04
       264  21  2.639351E+04 -1.468572E+04  5.583342E+03  6.223246E+04 -4.123589E+03 -5.837844E+04
       264  22  3.629382E+03 -4.586624E+05 -3.325832E+04  9.868771E+04 -4.490191E+03 -1.615086E+04
       264  23  4.846578E+03 -4.459809E+05 -4.865634E+04  5.639242E+04 -1.066238E+04 -4.204992E+04
       264  24 -8.446495E+04 -4.587059E+05 -1.034280E+05  9.845773E+04 -4.102314E+03 -6.791554E+04
       264  25 -2.307187E+04 -5.674569E+05 -5.826430E+04  8.647356E+04 -4.512371E+03 -6.777657E+03
       264  26 -6.310492E+04 -7.214802E+05 -1.123777E+05  6.838764E+04 -1.066328E+04 -4.213340E+04
       264  27 -1.953332E+05 -9.025437E+05 -2.124527E+05  1.346571E+05 -4.082147E+03 -7.744581E+04
       265   1  4.465970E+05  1.495176E+05  8.659781E+04  1.703601E+05  4.681865E+04  1.692347E+04
       265   2  4.333207E+05  7.778743E+04  4.261602E+04  1.713687E+05  2.988377E+04  8.908571E+03
       265   3  4.404709E+05  6.792165E+04  2.755256E+04  1.616666E+05  1.231522E+04  2.566636E+03
       265   4  4.029192E+05  1.118943E+05  7.070319E+04  1.368817E+05  4.526150E+04  1.633130E+04
       265   5  3.890021E+05  5.445515E+04  3.014355E+04  1.523303E+05  2.949318E+04  8.760119E+03
       265   6  3.952820E+05  5.865067E+04  1.757914E+04  1.570678E+05  1.309102E+04  2.860885E+03
       265   7  3.592450E+05  7.427524E+04  5.480876E+04  1.034066E+05  4.370448E+04  1.573932E+04
       265   8  3.446858E+05  3.112372E+04  1.767097E+04  1.332934E+05  2.910262E+04  8.611689E+03
       265   9  3.500950E+05  4.937961E+04  7.605570E+03  1.524691E+05  1.386676E+04  3.155136E+03
       265  10  4.465945E+05  1.495167E+05  8.659316E+04  1.703595E+05 -9.276625E-09 -1.189896E-09
       265  11  4.333197E+05  7.778711E+04  4.261419E+04  1.713685E+05 -7.772135E-09 -1.975192E-09
       265  12  4.404707E+05  6.792160E+04  2.755226E+04  1.616666E+05  1.406889E-09 -2.553169E-09
       265  13  4.029170E+05  1.118935E+05  7.069885E+04  1.368811E+05  5.635897E-10  4.823674E-09
       265  14  3.890012E+05  5.445483E+04  3.014178E+04  1.523301E+05 -6.264029E-10 -4.758448E-09
       265  15  3.952818E+05  5.865062E+04  1.757880E+04  1.570678E+05 -4.402504E-09  4.886808E-09
       265  16  3.592429E+05  7.427446E+04  5.480471E+04  1.034060E+05  7.826731E-09  7.016646E-09
       265  17  3.446849E+05  3.112342E+04  1.766924E+04  1.332932E+05  2.502970E-09  1.359136E-08
       265  18  3.500948E+05  4.937955E+04  7.605191E+03  1.524690E+05 -7.768008E-09  8.053699E-10
       265  19  4.465970E+05  1.495176E+05  8.659781E+04  1.703601E+05 -4.681865E+04 -1.692347E+04
       265  20  4.333207E+05  7.778743E+04  4.261602E+04  1.713687E+05 -2.988377E+04 -8.908571E+03
       265  21  4.404709E+05  6.792165E+04  2.755256E+04  1.616666E+05 -1.231522E+04 -2.566636E+03
       265  22  4.029192E+05  1.118943E+05  7.070319E+04  1.368817E+05 -4.526150E+04 -1.633130E+04
       265  23  3.890021E+05  5.445515E+04  3.014355E+04  1.523303E+05 -2.949318E+04 -8.760119E+03
       265  24  3.952820E+05  5.865067E+04  1.757914E+04  1.570678E+05 -1.309102E+04 -2.860885E+03
       265  25  3.592450E+05  7.427524E+04  5.480876E+04  1.034066E+05 -4.370448E+04 -1.573932E+04
       265  26  3.446858E+05  3.112372E+04  1.767097E+04  1.332934E+05 -2.910262E+04 -8.611689E+03
       265  27  3.500950E+05  4.937961E+04  7.605570E+03  1.524691E+05 -1.386676E+04 -3.155136E+03
       266   1  4.221031E+05  7.721388E+04  2.171087E+04  1.627689E+05  1.029814E+04  2.372241E+03
       266   2  4.137343E+05  6.655330E+04  1.223209E+04  1.584347E+05  6.466592E+03  1.389414E+03
       266   3  4.037666E+05  6.434514E+04  6.746558E+03  1.573338E+05  2.602728E+03  4.921113E+02
       266   4  3.930282E+05  6.488969E+04  1.410057E+04  1.533202E+05  1.055427E+04  2.469304E+03
       266   5  3.935369E+05  5.859899E+04  7.065877E+03  1.524887E+05  6.782472E+03  1.509153E+03
       266   6  3.924348E+05  6.074894E+04  3.977243E+03  1.548906E+05  2.978301E+03  6.344926E+02
       266   7  3.639542E+05  5.256563E+04  6.490194E+03  1.438719E+05  1.081040E+04  2.566360E+03
       266   8  3.733399E+05  5.064475E+04  1.899645E+03  1.465430E+05  7.098340E+03  1.628886E+03
       266   9  3.811032E+05  5.715277E+04  1.207932E+03  1.524474E+05  3.353865E+03  7.768715E+02
       266  10  4.221030E+05  7.721384E+04  2.171066E+04  1.627688E+05  2.846530E-09 -1.285574E-08
       266  11  4.137342E+05  6.655329E+04  1.223201E+04  1.584346E+05  6.299178E-09  1.044409E-08
       266  12  4.037666E+05  6.434513E+04  6.746545E+03  1.573338E+05  1.696621E-10  4.973342E-09
       266  13  3.930281E+05  6.488965E+04  1.410035E+04  1.533202E+05 -1.604987E-09 -3.601825E-09
       266  14  3.935368E+05  5.859898E+04  7.065786E+03  1.524887E+05 -6.512823E-11 -5.281131E-09
       266  15  3.924348E+05  6.074894E+04  3.977226E+03  1.548906E+05  7.471498E-10 -1.610372E-10
       266  16  3.639541E+05  5.256559E+04  6.489962E+03  1.438719E+05 -5.334543E-09 -8.931867E-09
       266  17  3.733399E+05  5.064473E+04  1.899546E+03  1.465430E+05 -3.643757E-09 -3.922997E-09
       266  18  3.811032E+05  5.715276E+04  1.207909E+03  1.524474E+05  1.099432E-09 -4.329731E-09
       266  19  4.221031E+05  7.721388E+04  2.171087E+04  1.627689E+05 -1.029814E+04 -2.372241E+03
       266  20  4.137343E+05  6.655330E+04  1.223209E+04  1.584347E+05 -6.466592E+03 -1.389414E+03
       266  21  4.037666E+05  6.434514E+04  6.746558E+03  1.573338E+05 -2.602728E+03 -4.921113E+02
       266  22  3.930282E+05  6.488969E+04  1.410057E+04  1.533202E+05 -1.055427E+04 -2.469304E+03
       266  23  3.935369E+05  5.859899E+04  7.065877E+03  1.524887E+05 -6.782472E+03 -1.509153E+03
       266  24  3.924348E+05  6.074894E+04  3.977243E+03  1.548906E+05 -2.978301E+03 -6.344926E+02
       266  25  3.639542E+05  5.256563E+04  6.490194E+03  1.438719E+05 -1.081040E+04 -2.566360E+03
       266  26  3.733399E+05  5.064475E+04  1.899645E+03  1.465430E+05 -7.098340E+03 -1.628886E+03
       266  27  3.811032E+05  5.715277E+04  1.207932E+03  1.524474E+05 -3.353865E+03 -7.768715E+02
       267   1  3.935582E+05  6.176874E+04  3.375310E+03  1.550047E+05  1.950473E+03  5.946998E+02
       267   2  3.857495E+05  5.587084E+04 -4.259823E+02  1.502363E+05  9.290593E+02  7.825278E+02
       267   3  3.743731E+05  5.416166E+04 -3.510330E+03  1.497161E+05 -9.406627E+01  9.749027E+02
       267   4  3.922029E+05  6.121770E+04  3.057129E+03  1.545801E+05  2.299341E+03  7.269553E+02
       267   5  3.939648E+05  5.896880E+04  1.648662E+03  1.525148E+05  1.281100E+03  9.159838E+02
       267   6  3.921586E+05  6.090808E+04  9.546987E+02  1.546976E+05  2.611335E+02  1.109554E+03
       267   7  3.908476E+05  6.066664E+04  2.738947E+03  1.541555E+05  2.648211E+03  8.592110E+02
       267   8  4.021803E+05  6.206677E+04  3.723307E+03  1.547932E+05  1.633146E+03  1.049442E+03
       267   9  4.099444E+05  6.765452E+04  5.419703E+03  1.596792E+05  6.163444E+02  1.244210E+03
       267  10  3.935582E+05  6.176874E+04  3.375302E+03  1.550047E+05 -3.669990E-09 -8.712574E-09
       267  11  3.857495E+05  5.587084E+04 -4.259851E+02  1.502363E+05  5.319914E-09 -4.518493E-09
       267  12  3.743731E+05  5.416166E+04 -3.510332E+03  1.497161E+05  1.174235E-08  9.756495E-09
       267  13  3.922029E+05  6.121769E+04  3.057118E+03  1.545801E+05  1.339925E-09 -4.208685E-09
       267  14  3.939648E+05  5.896880E+04  1.648658E+03  1.525148E+05  4.005101E-09  3.693015E-09
       267  15  3.921586E+05  6.090808E+04  9.546962E+02  1.546976E+05 -9.995207E-10  7.327430E-09
       267  16  3.908476E+05  6.066664E+04  2.738932E+03  1.541555E+05  4.631939E-09 -2.803020E-09
       267  17  4.021803E+05  6.206677E+04  3.723300E+03  1.547932E+05 -3.182477E-09  1.032452E-08
       267  18  4.099444E+05  6.765452E+04  5.419700E+03  1.596792E+05 -1.314201E-08 -2.847138E-09
       267  19  3.935582E+05  6.176874E+04  3.375310E+03  1.550047E+05 -1.950473E+03 -5.946998E+02
       267  20  3.857495E+05  5.587084E+04 -4.259823E+02  1.502363E+05 -9.290593E+02 -7.825278E+02
       267  21  3.743731E+05  5.416166E+04 -3.510330E+03  1.497161E+05  9.406627E+01 -9.749027E+02
       267  22  3.922029E+05  6.121770E+04  3.057129E+03  1.545801E+05 -2.299341E+03 -7.269553E+02
       267  23  3.939648E+05  5.896880E+04  1.648662E+03  1.525148E+05 -1.281100E+03 -9.159838E+02
       267  24  3.921586E+05  6.090808E+04  9.546987E+02  1.546976E+05 -2.611335E+02 -1.109554E+03
       267  25  3.908476E+05  6.066664E+04  2.738947E+03  1.541555E+05 -2.648211E+03 -8.592110E+02
       267  26  4.021803E+05  6.206677E+04  3.723307E+03  1.547932E+05 -1.633146E+03 -1.049442E+03
       267  27  4.099444E+05  6.765452E+04  5.419703E+03  1.596792E+05 -6.163444E+02 -1.244210E+03
       268   1  3.648420E+05  5.066782E+04 -6.167984E+03  1.471302E+05 -3.459147E+02  1.218313E+03
       268   2  3.570879E+05  4.511274E+04 -8.810316E+03  1.423112E+05 -7.932362E+02  1.630448E+03
       268   3  3.455573E+05  4.341786E+04 -1.125434E+04  1.418153E+05 -1.240883E+03  2.043574E+03
       268   4  3.921276E+05  6.094221E+04  7.543244E+02  1.546736E+05  8.256446E+00  1.352570E+03
       268   5  3.940144E+05  5.900217E+04  5.092561E+02  1.525158E+05 -4.383938E+02  1.764945E+03
       268   6  3.921244E+05  6.092216E+04  4.619661E+02  1.546811E+05 -8.853751E+02  2.178313E+03
       268   7  4.194138E+05  7.121660E+04  7.676543E+03  1.622172E+05  3.624432E+02  1.486832E+03
       268   8  4.309421E+05  7.289170E+04  9.828720E+03  1.627210E+05 -8.352836E+01  1.899452E+03
       268   9  4.386938E+05  7.842668E+04  1.217816E+04  1.675477E+05 -5.298367E+02  2.313063E+03
       268  10  3.648420E+05  5.066782E+04 -6.167987E+03  1.471302E+05 -6.179101E-09  9.780426E-09
       268  11  3.570879E+05  4.511274E+04 -8.810322E+03  1.423112E+05 -8.602704E-09  1.288447E-08
       268  12  3.455573E+05  4.341786E+04 -1.125436E+04  1.418153E+05 -6.851746E-09 -4.082044E-10
       268  13  3.921276E+05  6.094221E+04  7.543209E+02  1.546736E+05  2.367307E-10  1.330785E-08
       268  14  3.940144E+05  5.900217E+04  5.092499E+02  1.525158E+05 -7.979642E-10 -8.194424E-09
       268  15  3.921244E+05  6.092216E+04  4.619557E+02  1.546811E+05 -6.311738E-10 -4.810999E-09
       268  16  4.194138E+05  7.121660E+04  7.676539E+03  1.622172E+05  3.634457E-09 -6.369671E-09
       268  17  4.309421E+05  7.289170E+04  9.828713E+03  1.627210E+05  8.206768E-09 -4.911690E-09
       268  18  4.386938E+05  7.842668E+04  1.217815E+04  1.675477E+05  8.456252E-09 -3.306361E-09
       268  19  3.648420E+05  5.066782E+04 -6.167984E+03  1.471302E+05  3.459147E+02 -1.218313E+03
       268  20  3.570879E+05  4.511274E+04 -8.810316E+03  1.423112E+05  7.932362E+02 -1.630448E+03
       268  21  3.455573E+05  4.341786E+04 -1.125434E+04  1.418153E+05  1.240883E+03 -2.043574E+03
       268  22  3.921276E+05  6.094221E+04  7.543244E+02  1.546736E+05 -8.256446E+00 -1.352570E+03
       268  23  3.940144E+05  5.900217E+04  5.092561E+02  1.525158E+05  4.383938E+02 -1.764945E+03
       268  24  3.921244E+05  6.092216E+04  4.619661E+02  1.546811E+05  8.853751E+02 -2.178313E+03
       268  25  4.194138E+05  7.121660E+04  7.676543E+03  1.622172E+05 -3.624432E+02 -1.486832E+03
       268  26  4.309421E+05  7.289170E+04  9.828720E+03  1.627210E+05  8.352836E+01 -1.899452E+03
       268  27  4.386938E+05  7.842668E+04  1.217816E+04  1.675477E+05  5.298367E+02 -2.313063E+03
       269   1  3.360475E+05  3.984647E+04 -1.368670E+04  1.392136E+05 -1.433866E+03  2.310294E+03
       269   2  3.282390E+05  3.427544E+04 -1.588702E+04  1.343568E+05 -1.981934E+03  2.687608E+03
       269   3  3.166545E+05  3.260795E+04 -1.780909E+04  1.338504E+05 -2.530244E+03  3.065794E+03
       269   4  3.921236E+05  6.092667E+04  4.979075E+02  1.546889E+05 -1.077633E+03  2.445297E+03
       269   5  3.940138E+05  5.899087E+04  7.090942E+02  1.525077E+05 -1.625148E+03  2.822798E+03
       269   6  3.921278E+05  6.095846E+04  1.198060E+03  1.546767E+05 -2.172910E+03  3.201168E+03
       269   7  4.482028E+05  8.200708E+04  1.468226E+04  1.701656E+05 -7.213642E+02  2.580313E+03
       269   8  4.597928E+05  8.370654E+04  1.730482E+04  1.706603E+05 -1.268321E+03  2.958004E+03
       269   9  4.676064E+05  8.930923E+04  2.020467E+04  1.755053E+05 -1.815530E+03  3.336561E+03
       269  10  3.360475E+05  3.984646E+04 -1.368671E+04  1.392136E+05  1.104876E-09  8.713745E-09
       269  11  3.282390E+05  3.427543E+04 -1.588704E+04  1.343568E+05 -3.299661E-09 -3.185092E-09
       269  12  3.166545E+05  3.260794E+04 -1.780912E+04  1.338504E+05 -6.981058E-10  6.760004E-11
       269  13  3.921236E+05  6.092666E+04  4.978941E+02  1.546889E+05 -1.252225E-09 -3.070746E-09
       269  14  3.940138E+05  5.899086E+04  7.090742E+02  1.525077E+05 -3.487728E-09 -6.720848E-10
       269  15  3.921278E+05  6.095844E+04  1.198032E+03  1.546767E+05  3.334238E-10 -3.997940E-09
       269  16  4.482028E+05  8.200707E+04  1.468225E+04  1.701656E+05 -3.994161E-10 -6.280951E-09
       269  17  4.597928E+05  8.370653E+04  1.730480E+04  1.706603E+05 -1.083744E-09 -3.525518E-10
       269  18  4.676064E+05  8.930921E+04  2.020465E+04  1.755053E+05  1.400439E-09 -6.754109E-09
       269  19  3.360475E+05  3.984647E+04 -1.368670E+04  1.392136E+05  1.433866E+03 -2.310294E+03
       269  20  3.282390E+05  3.427544E+04 -1.588702E+04  1.343568E+05  1.981934E+03 -2.687608E+03
       269  21  3.166545E+05  3.260795E+04 -1.780909E+04  1.338504E+05  2.530244E+03 -3.065794E+03
       269  22  3.921236E+05  6.092667E+04  4.979075E+02  1.546889E+05  1.077633E+03 -2.445297E+03
       269  23  3.940138E+05  5.899087E+04  7.090942E+02  1.525077E+05  1.625148E+03 -2.822798E+03
       269  24  3.921278E+05  6.095846E+04  1.198060E+03  1.546767E+05  2.172910E+03 -3.201168E+03
       269  25  4.482028E+05  8.200708E+04  1.468226E+04  1.701656E+05  7.213642E+02 -2.580313E+03
       269  26  4.597928E+05  8.370654E+04  1.730482E+04  1.706603E+05  1.268321E+03 -2.958004E+03
       269  27  4.676064E+05  8.930923E+04  2.020467E+04  1.755053E+05  1.815530E+03 -3.336561E+03
       270   1  3.070508E+05  2.901947E+04 -1.993283E+04  1.313446E+05 -2.875802E+03  3.278914E+03
       270   2  2.990980E+05  2.328136E+04 -2.115665E+04  1.263212E+05 -4.456381E+03  3.268609E+03
       270   3  2.876852E+05  2.206266E+04 -2.117989E+04  1.255855E+05 -6.033200E+03  3.248636E+03
       270   4  3.921716E+05  6.091288E+04  1.561952E+03  1.547318E+05 -2.513816E+03  3.416035E+03
       270   5  3.939381E+05  5.891471E+04  2.773246E+03  1.524884E+05 -4.101353E+03  3.403062E+03
       270   6  3.922460E+05  6.143734E+04  5.190558E+03  1.545327E+05 -5.685152E+03  3.380413E+03
       270   7  4.772998E+05  9.280690E+04  2.305626E+04  1.781220E+05 -2.151774E+03  3.553176E+03
       270   8  4.887872E+05  9.454875E+04  2.670248E+04  1.786593E+05 -3.746266E+03  3.537537E+03
       270   9  4.968175E+05  1.008128E+05  3.156014E+04  1.834844E+05 -5.337040E+03  3.512215E+03
       270  10  3.070508E+05  2.901946E+04 -1.993287E+04  1.313447E+05  1.122040E-08 -2.182129E-09
       270  11  2.990980E+05  2.328134E+04 -2.115671E+04  1.263212E+05  1.489161E-09  4.745871E-09
       270  12  2.876852E+05  2.206264E+04 -2.117998E+04  1.255855E+05 -3.391099E-09  8.046806E-09
       270  13  3.921716E+05  6.091287E+04  1.561919E+03  1.547318E+05 -4.308955E-10 -3.892105E-09
       270  14  3.939381E+05  5.891470E+04  2.773192E+03  1.524884E+05 -4.113171E-09  1.936334E-09
       270  15  3.922460E+05  6.143732E+04  5.190476E+03  1.545328E+05  2.598378E-09 -1.562557E-09
       270  16  4.772998E+05  9.280688E+04  2.305622E+04  1.781220E+05 -1.100381E-08  3.443828E-09
       270  17  4.887872E+05  9.454874E+04  2.670243E+04  1.786593E+05 -3.761006E-09  1.116752E-08
       270  18  4.968175E+05  1.008128E+05  3.156007E+04  1.834845E+05  6.153678E-09 -5.447498E-09
       270  19  3.070508E+05  2.901947E+04 -1.993283E+04  1.313446E+05  2.875802E+03 -3.278914E+03
       270  20  2.990980E+05  2.328136E+04 -2.115665E+04  1.263212E+05  4.456381E+03 -3.268609E+03
       270  21  2.876852E+05  2.206266E+04 -2.117989E+04  1.255855E+05  6.033200E+03 -3.248636E+03
       270  22  3.921716E+05  6.091288E+04  1.561952E+03  1.547318E+05  2.513816E+03 -3.416035E+03
       270  23  3.939381E+05  5.891471E+04  2.773246E+03  1.524884E+05  4.101353E+03 -3.403062E+03
       270  24  3.922460E+05  6.143734E+04  5.190558E+03  1.545327E+05  5.685152E+03 -3.380413E+03
       270  25  4.772998E+05  9.280690E+04  2.305626E+04  1.781220E+05  2.151774E+03 -3.553176E+03
       270  26  4.887872E+05  9.454875E+04  2.670248E+04  1.786593E+05  3.746266E+03 -3.537537E+03
       270  27  4.968175E+05  1.008128E+05  3.156014E+04  1.834844E+05  5.337040E+03 -3.512215E+03
       271   1  2.775001E+05  1.851347E+04 -2.210781E+04  1.244623E+05 -7.187316E+03  3.189254E+03
       271   2  2.694517E+05  1.114634E+04 -1.931783E+04  1.176490E+05 -1.337451E+04  1.407605E+03
       271   3  2.612143E+05  1.556397E+04 -9.926374E+03  1.134486E+05 -1.947631E+04 -5.990679E+02
       271   4  3.926336E+05  6.064845E+04  6.764212E+03  1.550731E+05 -6.767088E+03  3.348360E+03
       271   5  3.932170E+05  5.826930E+04  1.203332E+04  1.524298E+05 -1.311235E+04  1.506777E+03
       271   6  3.936421E+05  6.770500E+04  2.402816E+04  1.523993E+05 -1.937234E+04 -5.598929E+02
       271   7  5.077796E+05  1.027840E+05  3.563507E+04  1.856888E+05 -6.346776E+03  3.507496E+03
       271   8  5.169974E+05  1.053934E+05  4.338324E+04  1.872170E+05 -1.285013E+04  1.605971E+03
       271   9  5.260876E+05  1.198479E+05  5.798141E+04  1.913578E+05 -1.926834E+04 -5.207074E+02
       271  10  2.775000E+05  1.851345E+04 -2.210793E+04  1.244623E+05  6.877486E-09  1.513773E-08
       271  11  2.694515E+05  1.114629E+04 -1.931817E+04  1.176490E+05  2.251719E-09  4.713225E-09
       271  12  2.612139E+05  1.556387E+04 -9.927087E+03  1.134486E+05  1.044753E-09  5.658898E-09
       271  13  3.926335E+05  6.064842E+04  6.764105E+03  1.550731E+05  2.004541E-09 -9.879176E-09
       271  14  3.932169E+05  5.826925E+04  1.203299E+04  1.524298E+05  8.350826E-10 -1.206241E-10
       271  15  3.936417E+05  6.770490E+04  2.402746E+04  1.523993E+05  1.986285E-10  5.175600E-09
       271  16  5.077795E+05  1.027840E+05  3.563497E+04  1.856889E+05 -1.085923E-09 -1.368473E-08
       271  17  5.169972E+05  1.053934E+05  4.338293E+04  1.872170E+05 -1.166144E-09 -7.852029E-09
       271  18  5.260872E+05  1.198478E+05  5.798071E+04  1.913578E+05 -9.815649E-10 -6.475080E-09
       271  19  2.775001E+05  1.851347E+04 -2.210781E+04  1.244623E+05  7.187316E+03 -3.189254E+03
       271  20  2.694517E+05  1.114634E+04 -1.931783E+04  1.176490E+05  1.337451E+04 -1.407605E+03
       271  21  2.612143E+05  1.556397E+04 -9.926374E+03  1.134486E+05  1.947631E+04  5.990679E+02
       271  22  3.926336E+05  6.064845E+04  6.764212E+03  1.550731E+05  6.767088E+03 -3.348360E+03
       271  23  3.932170E+05  5.826930E+04  1.203332E+04  1.524298E+05  1.311235E+04 -1.506777E+03
       271  24  3.936421E+05  6.770500E+04  2.402816E+04  1.523993E+05  1.937234E+04  5.598929E+02
       271  25  5.077796E+05  1.027840E+05  3.563507E+04  1.856888E+05  6.346776E+03 -3.507496E+03
       271  26  5.169974E+05  1.053934E+05  4.338324E+04  1.872170E+05  1.285013E+04 -1.605971E+03
       271  27  5.260876E+05  1.198479E+05  5.798141E+04  1.913578E+05  1.926834E+04  5.207074E+02
       272   1  2.439163E+05  1.251713E+04 -6.285968E+03  1.298382E+05 -2.517897E+04 -1.793141E+03
       272   2  2.398353E+05 -1.487108E+04  1.236551E+04  1.004057E+05 -4.982472E+04 -1.121761E+04
       272   3  2.721498E+05  5.964315E+04  7.628724E+04  4.984004E+04 -7.279048E+04 -2.507930E+04
       272   4  3.974907E+05  5.706605E+04  2.995868E+04  1.587799E+05 -2.369408E+04 -1.230487E+03
       272   5  3.854840E+05  5.120588E+04  5.137351E+04  1.521618E+05 -5.143964E+04 -1.183012E+04
       272   6  4.104755E+05  1.478447E+05  1.205074E+05  1.244140E+05 -7.750501E+04 -2.686868E+04
       272   7  5.510887E+05  1.016148E+05  6.620190E+04  1.877271E+05 -2.220879E+04 -6.677574E+02
       272   8  5.311529E+05  1.172868E+05  9.037942E+04  2.039296E+05 -5.305496E+04 -1.244286E+04
       272   9  5.488210E+05  2.360596E+05  1.647253E+05  1.990053E+05 -8.222062E+04 -2.865914E+04
       272  10  2.439156E+05  1.251696E+04 -6.287165E+03  1.298381E+05  4.079631E-09  1.209281E-08
       272  11  2.398326E+05 -1.487188E+04  1.236061E+04  1.004053E+05  7.194127E-10 -7.001814E-10
       272  12  2.721439E+05  5.964105E+04  7.627611E+04  4.983857E+04 -2.897613E-09 -3.223047E-09
       272  13  3.974901E+05  5.706590E+04  2.995762E+04  1.587799E+05  2.033458E-09 -8.554426E-09
       272  14  3.854811E+05  5.120502E+04  5.136828E+04  1.521613E+05  1.472773E-10 -4.320189E-09
       272  15  4.104688E+05  1.478423E+05  1.204947E+05  1.244123E+05  1.739588E-09  1.803319E-09
       272  16  5.510882E+05  1.016146E+05  6.620097E+04  1.877271E+05 -4.048794E-09 -1.360101E-08
       272  17  5.311499E+05  1.172859E+05  9.037385E+04  2.039290E+05  9.521945E-11 -6.859295E-09
       272  18  5.488135E+05  2.360569E+05  1.647111E+05  1.990034E+05  2.046729E-09  2.253214E-09
       272  19  2.439163E+05  1.251713E+04 -6.285968E+03  1.298382E+05  2.517897E+04  1.793141E+03
       272  20  2.398353E+05 -1.487108E+04  1.236551E+04  1.004057E+05  4.982472E+04  1.121761E+04
       272  21  2.721498E+05  5.964315E+04  7.628724E+04  4.984004E+04  7.279048E+04  2.507930E+04
       272  22  3.974907E+05  5.706605E+04  2.995868E+04  1.587799E+05  2.369408E+04  1.230487E+03
       272  23  3.854840E+05  5.120588E+04  5.137351E+04  1.521618E+05  5.143964E+04  1.183012E+04
       272  24  4.104755E+05  1.478447E+05  1.205074E+05  1.244140E+05  7.750501E+04  2.686868E+04
       272  25  5.510887E+05  1.016148E+05  6.620190E+04  1.877271E+05  2.220879E+04  6.677574E+02
       272  26  5.311529E+05  1.172868E+05  9.037942E+04  2.039296E+05  5.305496E+04  1.244286E+04
       272  27  5.488210E+05  2.360596E+05  1.647253E+05  1.990053E+05  8.222062E+04  2.865914E+04
       273   1 -7.385593E+04 -5.542290E+05 -8.122300E+04  2.829658E+04 -1.706936E+03 -3.264120E+04
       273   2 -3.069291E+04 -5.280815E+05 -5.131115E+04  1.316617E+04 -5.388738E+03 -1.870723E+04
       273   3 -2.609096E+04 -5.133044E+05 -4.010678E+04  8.190483E+03 -5.069637E+03 -4.759882E+03
       273   4 -3.542567E+04 -4.003690E+05 -4.358955E+04  1.303869E+04 -1.719407E+03 -2.845325E+04
       273   5  2.121407E+03 -3.949386E+05 -2.063836E+04  8.019352E+03 -5.392306E+03 -1.749170E+04
       273   6  1.627942E+03 -4.003603E+05 -1.432651E+04  1.315522E+04 -5.064228E+03 -6.517333E+03
       273   7  3.003693E+03 -2.464869E+05 -5.957652E+03 -2.222971E+03 -1.732084E+03 -2.426427E+04
       273   8  3.493458E+04 -2.617792E+05  1.003326E+04  2.871437E+03 -5.395893E+03 -1.627591E+04
       273   9  2.934606E+04 -2.874043E+05  1.145295E+04  1.812087E+04 -5.058849E+03 -8.275101E+03
       273  10 -7.385622E+04 -5.542302E+05 -8.122501E+04  2.829654E+04 -2.031321E-10  1.155275E-09
       273  11 -3.069303E+04 -5.280819E+05 -5.131186E+04  1.316608E+04  6.264474E-11  8.244974E-09
       273  12 -2.609099E+04 -5.133044E+05 -4.010687E+04  8.190463E+03  8.781841E-10  3.645113E-09
       273  13 -3.542590E+04 -4.003699E+05 -4.359108E+04  1.303865E+04  3.625205E-09  2.175450E-09
       273  14  2.121293E+03 -3.949389E+05 -2.063899E+04  8.019276E+03  8.267340E-10 -2.167991E-09
       273  15  1.627904E+03 -4.003604E+05 -1.432664E+04  1.315519E+04  9.107223E-10  2.695800E-10
       273  16  3.003531E+03 -2.464875E+05 -5.958765E+03 -2.223004E+03  1.735475E-09 -6.838812E-11
       273  17  3.493447E+04 -2.617795E+05  1.003271E+04  2.871367E+03  7.006844E-09 -5.401590E-09
       273  18  2.934601E+04 -2.874044E+05  1.145277E+04  1.812084E+04 -1.459391E-09 -6.855278E-09
       273  19 -7.385593E+04 -5.542290E+05 -8.122300E+04  2.829658E+04  1.706936E+03  3.264120E+04
       273  20 -3.069291E+04 -5.280815E+05 -5.131115E+04  1.316617E+04  5.388738E+03  1.870723E+04
       273  21 -2.609096E+04 -5.133044E+05 -4.010678E+04  8.190483E+03  5.069637E+03  4.759882E+03
       273  22 -3.542567E+04 -4.003690E+05 -4.358955E+04  1.303869E+04  1.719407E+03  2.845325E+04
       273  23  2.121407E+03 -3.949386E+05 -2.063836E+04  8.019352E+03  5.392306E+03  1.749170E+04
       273  24  1.627942E+03 -4.003603E+05 -1.432651E+04  1.315522E+04  5.064228E+03  6.517333E+03
       273  25  3.003693E+03 -2.464869E+05 -5.957652E+03 -2.222971E+03  1.732084E+03  2.426427E+04
       273  26  3.493458E+04 -2.617792E+05  1.003326E+04  2.871437E+03  5.395893E+03  1.627591E+04
       273  27  2.934606E+04 -2.874043E+05  1.145295E+04  1.812087E+04  5.058849E+03  8.275101E+03
       274   1 -2.547818E+04 -4.921034E+05 -3.441876E+04  1.484033E+04 -4.013635E+03 -3.718528E+03
       274   2 -1.756727E+04 -4.703871E+05 -2.799582E+04  8.070741E+03 -3.224187E+03  2.112763E+03
       274   3 -1.614663E+04 -4.509710E+05 -2.697595E+04  1.172113E+04 -2.261604E+03  7.944655E+03
       274   4 -2.432520E+03 -3.984554E+05 -1.294206E+04  1.317937E+04 -4.011955E+03 -4.254742E+03
       274   5  3.978069E+02 -3.973161E+05 -1.127766E+04  7.968197E+03 -3.222159E+03  1.448458E+03
       274   6 -3.239433E+03 -3.984549E+05 -1.492686E+04  1.317698E+04 -2.259210E+03  7.152072E+03
       274   7  2.061254E+04 -3.047993E+05  8.534063E+03  1.151816E+04 -4.010272E+03 -4.791036E+03
       274   8  1.836251E+04 -3.242402E+05  5.440151E+03  7.865644E+03 -3.220130E+03  7.840757E+02
       274   9  9.667580E+03 -3.459363E+05 -2.877945E+03  1.463296E+04 -2.256819E+03  6.359421E+03
       274  10 -2.547820E+04 -4.921035E+05 -3.441881E+04  1.484031E+04 -1.167582E-10 -2.223784E-09
       274  11 -1.756728E+04 -4.703871E+05 -2.799584E+04  8.070746E+03 -1.419540E-09  8.366193E-09
       274  12 -1.614665E+04 -4.509711E+05 -2.697607E+04  1.172115E+04  3.138688E-09  2.744541E-09
       274  13 -2.432543E+03 -3.984555E+05 -1.294212E+04  1.317935E+04 -2.128574E-09 -4.324664E-09
       274  14  3.977952E+02 -3.973162E+05 -1.127768E+04  7.968200E+03 -2.914809E-10  1.097354E-09
       274  15 -3.239452E+03 -3.984550E+05 -1.492696E+04  1.317700E+04  1.807976E-09 -8.193483E-10
       274  16  2.061252E+04 -3.047993E+05  8.533989E+03  1.151815E+04 -4.109315E-09 -2.125757E-09
       274  17  1.836250E+04 -3.242402E+05  5.440130E+03  7.865646E+03  1.262625E-09 -7.710946E-09
       274  18  9.667563E+03 -3.459363E+05 -2.878031E+03  1.463297E+04  1.625339E-09 -8.101988E-09
       274  19 -2.547818E+04 -4.921034E+05 -3.441876E+04  1.484033E+04  4.013635E+03  3.718528E+03
       274  20 -1.756727E+04 -4.703871E+05 -2.799582E+04  8.070741E+03  3.224187E+03 -2.112763E+03
       274  21 -1.614663E+04 -4.509710E+05 -2.697595E+04  1.172113E+04  2.261604E+03 -7.944655E+03
       274  22 -2.432520E+03 -3.984554E+05 -1.294206E+04  1.317937E+04  4.011955E+03  4.254742E+03
       274  23  3.978069E+02 -3.973161E+05 -1.127766E+04  7.968197E+03  3.222159E+03 -1.448458E+03
       274  24 -3.239433E+03 -3.984549E+05 -1.492686E+04  1.317698E+04  2.259210E+03 -7.152072E+03
       274  25  2.061254E+04 -3.047993E+05  8.534063E+03  1.151816E+04  4.010272E+03  4.791036E+03
       274  26  1.836251E+04 -3.242402E+05  5.440151E+03  7.865644E+03  3.220130E+03 -7.840757E+02
       274  27  9.667580E+03 -3.459363E+05 -2.877945E+03  1.463296E+04  2.256819E+03 -6.359421E+03
       275   1 -5.939901E+03 -4.342817E+05 -2.477721E+04  2.007768E+04 -1.594847E+03  1.066769E+04
       275   2 -3.011298E+02 -4.067344E+05 -2.907431E+04  1.721402E+03 -6.810330E+02  2.431115E+04
       275   3 -4.395928E+04 -3.932121E+05 -5.456439E+04 -6.296711E+03 -1.892732E+02  3.795361E+04
       275   4  2.264851E+03 -4.010753E+05 -1.721870E+04  1.320362E+04 -1.592386E+03  9.801227E+03
       275   5  2.768449E+03 -3.940399E+05 -2.620338E+04  7.962670E+03 -6.791458E+02  2.375832E+04
       275   6 -4.607955E+04 -4.010846E+05 -5.659900E+04  1.305993E+04 -1.873813E+02  3.771398E+04
       275   7  1.046970E+04 -3.678679E+05 -9.660234E+03  6.329194E+03 -1.589906E+03  8.934720E+03
       275   8  5.838164E+03 -3.813451E+05 -2.333244E+04  1.420407E+04 -6.772698E+02  2.320549E+04
       275   9 -4.819843E+04 -4.089563E+05 -5.863342E+04  3.241632E+04 -1.855044E+02  3.747435E+04
       275  10 -5.939934E+03 -4.342818E+05 -2.477743E+04  2.007769E+04  4.591339E-09  3.465353E-11
       275  11 -3.012890E+02 -4.067350E+05 -2.907542E+04  1.721415E+03 -3.893211E-11  1.262467E-08
       275  12 -4.395966E+04 -3.932136E+05 -5.456710E+04 -6.296706E+03 -1.518654E-09 -4.663906E-10
       275  13  2.264823E+03 -4.010754E+05 -1.721889E+04  1.320363E+04  2.331059E-09  2.996384E-11
       275  14  2.768297E+03 -3.940405E+05 -2.620444E+04  7.962683E+03  5.941641E-12  1.076797E-09
       275  15 -4.607994E+04 -4.010862E+05 -5.660168E+04  1.305993E+04  3.409468E-10 -1.340111E-09
       275  16  1.046968E+04 -3.678680E+05 -9.660389E+03  6.329205E+03  1.679969E-09 -1.023096E-09
       275  17  5.838019E+03 -3.813457E+05 -2.333346E+04  1.420408E+04  2.692449E-09 -3.945850E-09
       275  18 -4.819880E+04 -4.089578E+05 -5.863606E+04  3.241632E+04 -8.721961E-10 -3.980407E-09
       275  19 -5.939901E+03 -4.342817E+05 -2.477721E+04  2.007768E+04  1.594847E+03 -1.066769E+04
       275  20 -3.011298E+02 -4.067344E+05 -2.907431E+04  1.721402E+03  6.810330E+02 -2.431115E+04
       275  21 -4.395928E+04 -3.932121E+05 -5.456439E+04 -6.296711E+03  1.892732E+02 -3.795361E+04
       275  22  2.264851E+03 -4.010753E+05 -1.721870E+04  1.320362E+04  1.592386E+03 -9.801227E+03
       275  23  2.768449E+03 -3.940399E+05 -2.620338E+04  7.962670E+03  6.791458E+02 -2.375832E+04
       275  24 -4.607955E+04 -4.010846E+05 -5.659900E+04  1.305993E+04  1.873813E+02 -3.771398E+04
       275  25  1.046970E+04 -3.678679E+05 -9.660234E+03  6.329194E+03  1.589906E+03 -8.934720E+03
       275  26  5.838164E+03 -3.813451E+05 -2.333244E+04  1.420407E+04  6.772698E+02 -2.320549E+04
       275  27 -4.819843E+04 -4.089563E+05 -5.863342E+04  3.241632E+04  1.855044E+02 -3.747435E+04
       276   1 -1.540329E+05 -1.098515E+05 -9.604365E+04 -1.063622E+04  2.209331E+04  7.730695E+03
       276   2 -1.076550E+05 -1.454454E+05 -1.070704E+05 -1.094015E+04  2.006361E+04  2.383375E+04
       276   3 -4.857140E+04 -1.322357E+05 -1.045340E+05 -3.733664E+04  1.805160E+04  2.387754E+04
       276   4  4.789161E+05  4.755636E+04  5.842440E+04 -3.008333E+04  4.007414E+04  7.749652E+03
       276   5  4.715479E+05 -2.991271E+03  2.616495E+04 -1.701345E+04  2.608793E+04  2.383740E+04
       276   6  4.789437E+05 -2.685455E+03  1.575742E+04 -3.003375E+04  1.211970E+04  2.387247E+04
       276   7  1.112232E+06  2.049363E+05  2.128647E+05 -4.955040E+04  5.807325E+04  7.767473E+03
       276   8  1.051061E+06  1.394396E+05  1.593782E+05 -2.309253E+04  3.211781E+04  2.384093E+04
       276   9  1.006717E+06  1.268457E+05  1.360309E+05 -2.272463E+04  6.182799E+03  2.386726E+04
       276  10 -1.540335E+05 -1.098517E+05 -9.604468E+04 -1.063636E+04  7.821393E-11  4.710140E-11
       276  11 -1.076556E+05 -1.454461E+05 -1.070722E+05 -1.094053E+04  2.133658E-10  7.629303E-11
       276  12 -4.857191E+04 -1.322364E+05 -1.045357E+05 -3.733699E+04  1.580837E-10 -2.278516E-11
       276  13  4.789144E+05  4.755586E+04  5.842127E+04 -3.008358E+04 -2.372489E-11  2.915912E-11
       276  14  4.715470E+05 -2.992064E+03  2.616260E+04 -1.701395E+04 -3.857588E-10  9.479770E-11
       276  15  4.789434E+05 -2.686106E+03  1.575607E+04 -3.003398E+04  2.286465E-10 -6.626587E-11
       276  16  1.112228E+06  2.049353E+05  2.128583E+05 -4.955076E+04  1.691763E-10  7.723286E-11
       276  17  1.051060E+06  1.394387E+05  1.593752E+05 -2.309314E+04 -3.998828E-10  1.103939E-10
       276  18  1.006717E+06  1.268451E+05  1.360297E+05 -2.272475E+04  6.999119E-11 -1.176602E-10
       276  19 -1.540329E+05 -1.098515E+05 -9.604365E+04 -1.063622E+04 -2.209331E+04 -7.730695E+03
       276  20 -1.076550E+05 -1.454454E+05 -1.070704E+05 -1.094015E+04 -2.006361E+04 -2.383375E+04
       276  21 -4.857140E+04 -1.322357E+05 -1.045340E+05 -3.733664E+04 -1.805160E+04 -2.387754E+04
       276  22  4.789161E+05  4.755636E+04  5.842440E+04 -3.008333E+04 -4.007414E+04 -7.749652E+03
       276  23  4.715479E+05 -2.991271E+03  2.616495E+04 -1.701345E+04 -2.608793E+04 -2.383740E+04
       276  24  4.789437E+05 -2.685455E+03  1.575742E+04 -3.003375E+04 -1.211970E+04 -2.387247E+04
       276  25  1.112232E+06  2.049363E+05  2.128647E+05 -4.955040E+04 -5.807325E+04 -7.767473E+03
       276  26  1.051061E+06  1.394396E+05  1.593782E+05 -2.309253E+04 -3.211781E+04 -2.384093E+04
       276  27  1.006717E+06  1.268457E+05  1.360309E+05 -2.272463E+04 -6.182799E+03 -2.386726E+04
       277   1 -2.478952E+03 -1.142565E+05 -9.699178E+04 -2.913467E+04  1.079343E+04  2.051384E+04
       277   2  4.883747E+04 -1.050680E+05 -9.076068E+04 -1.676352E+04  7.972140E+03  1.879303E+04
       277   3  1.015568E+05 -9.223580E+04 -8.175486E+04 -3.074863E+04  5.149428E+03  1.630753E+04
       277   4  4.760055E+05  3.347318E+03  1.266576E+04 -3.010700E+04  9.803809E+03  2.051219E+04
       277   5  4.752630E+05 -3.111453E+02  6.714759E+03 -1.692870E+04  6.411205E+03  1.879155E+04
       277   6  4.760189E+05 -2.281957E+02  3.933491E+03 -3.010548E+04  3.017414E+03  1.630646E+04
       277   7  9.547018E+05  1.209353E+05  1.223082E+05 -3.108011E+04  8.813429E+03  2.051055E+04
       277   8  9.018570E+05  1.044331E+05  1.041783E+05 -1.709401E+04  4.849207E+03  1.879007E+04
       277   9  8.506109E+05  9.176967E+04  8.961266E+04 -2.946195E+04  8.841249E+02  1.630539E+04
       277  10 -2.479190E+03 -1.142570E+05 -9.699279E+04 -2.913485E+04 -2.805508E-10  1.794575E-11
       277  11  4.883730E+04 -1.050684E+05 -9.076146E+04 -1.676364E+04 -2.753133E-10  1.484886E-10
       277  12  1.015567E+05 -9.223609E+04 -8.175541E+04 -3.074870E+04  4.694174E-10 -1.642410E-10
       277  13  4.760052E+05  3.346840E+03  1.266478E+04 -3.010716E+04  2.758166E-10 -5.458190E-12
       277  14  4.752629E+05 -3.115356E+02  6.714018E+03 -1.692880E+04 -5.417319E-10  2.513532E-11
       277  15  4.760188E+05 -2.284837E+02  3.932974E+03 -3.010552E+04  2.051879E-10  7.781600E-11
       277  16  9.547016E+05  1.209348E+05  1.223073E+05 -3.108025E+04  3.987250E-10 -1.332594E-10
       277  17  9.018569E+05  1.044327E+05  1.041776E+05 -1.709408E+04 -5.447557E-10 -1.148733E-11
       277  18  8.506108E+05  9.176938E+04  8.961216E+04 -2.946196E+04 -2.369657E-10  1.553069E-10
       277  19 -2.478952E+03 -1.142565E+05 -9.699178E+04 -2.913467E+04 -1.079343E+04 -2.051384E+04
       277  20  4.883747E+04 -1.050680E+05 -9.076068E+04 -1.676352E+04 -7.972140E+03 -1.879303E+04
       277  21  1.015568E+05 -9.223580E+04 -8.175486E+04 -3.074863E+04 -5.149428E+03 -1.630753E+04
       277  22  4.760055E+05  3.347318E+03  1.266576E+04 -3.010700E+04 -9.803809E+03 -2.051219E+04
       277  23  4.752630E+05 -3.111453E+02  6.714759E+03 -1.692870E+04 -6.411205E+03 -1.879155E+04
       277  24  4.760189E+05 -2.281957E+02  3.933491E+03 -3.010548E+04 -3.017414E+03 -1.630646E+04
       277  25  9.547018E+05  1.209353E+05  1.223082E+05 -3.108011E+04 -8.813429E+03 -2.051055E+04
       277  26  9.018570E+05  1.044331E+05  1.041783E+05 -1.709401E+04 -4.849207E+03 -1.879007E+04
       277  27  8.506109E+05  9.176967E+04  8.961266E+04 -2.946195E+04 -8.841249E+02 -1.630539E+04
       278   1  1.496555E+05 -7.987149E+04 -7.132917E+04 -3.008709E+04  4.293582E+03  1.470245E+04
       278   2  2.011861E+05 -6.745830E+04 -6.096303E+04 -1.700177E+04  3.452546E+03  1.214487E+04
       278   3  2.529385E+05 -5.477153E+04 -4.997197E+04 -3.010642E+04  2.610367E+03  9.555213E+03
       278   4  4.757438E+05  1.991273E+02  3.044277E+03 -3.006906E+04  2.403195E+03  1.470172E+04
       278   5  4.756358E+05 -4.744687E+01  1.741597E+03 -1.697443E+04  1.537825E+03  1.214449E+04
       278   6  4.757517E+05 -1.597630E+01  1.080786E+03 -3.006906E+04  6.713817E+02  9.555216E+03
       278   7  8.019308E+05  8.026238E+04  7.741081E+04 -3.005102E+04  5.118243E+02  1.470099E+04
       278   8  7.501552E+05  6.735818E+04  6.444132E+04 -1.694708E+04 -3.777345E+02  1.214412E+04
       278   9  6.986110E+05  5.473613E+04  5.213029E+04 -3.003168E+04 -1.268293E+03  9.555218E+03
       278  10  1.496554E+05 -7.987173E+04 -7.132961E+04 -3.008714E+04 -6.875331E-11 -3.333438E-10
       278  11  2.011861E+05 -6.745846E+04 -6.096333E+04 -1.700181E+04 -9.992420E-11  5.513241E-11
       278  12  2.529384E+05 -5.477163E+04 -4.997215E+04 -3.010644E+04 -3.392412E-10  1.759448E-10
       278  13  4.757438E+05  1.988936E+02  3.043860E+03 -3.006909E+04 -2.334437E-11 -6.436662E-11
       278  14  4.756357E+05 -4.760592E+01  1.741315E+03 -1.697445E+04 -2.808499E-10 -2.947528E-11
       278  15  4.757517E+05 -1.607449E+01  1.080613E+03 -3.006907E+04 -4.325067E-10  1.096797E-10
       278  16  8.019307E+05  8.026215E+04  7.741040E+04 -3.005102E+04  1.893635E-10  8.806973E-11
       278  17  7.501551E+05  6.735802E+04  6.444104E+04 -1.694707E+04 -2.670176E-10 -7.339696E-11
       278  18  6.986109E+05  5.473603E+04  5.213011E+04 -3.003167E+04  5.521302E-11 -6.074464E-11
       278  19  1.496555E+05 -7.987149E+04 -7.132917E+04 -3.008709E+04 -4.293582E+03 -1.470245E+04
       278  20  2.011861E+05 -6.745830E+04 -6.096303E+04 -1.700177E+04 -3.452546E+03 -1.214487E+04
       278  21  2.529385E+05 -5.477153E+04 -4.997197E+04 -3.010642E+04 -2.610367E+03 -9.555213E+03
       278  22  4.757438E+05  1.991273E+02  3.044277E+03 -3.006906E+04 -2.403195E+03 -1.470172E+04
       278  23  4.756358E+05 -4.744687E+01  1.741597E+03 -1.697443E+04 -1.537825E+03 -1.214449E+04
       278  24  4.757517E+05 -1.597630E+01  1.080786E+03 -3.006906E+04 -6.713817E+02 -9.555216E+03
       278  25  8.019308E+05  8.026238E+04  7.741081E+04 -3.005102E+04 -5.118243E+02 -1.470099E+04
       278  26  7.501552E+05  6.735818E+04  6.444132E+04 -1.694708E+04  3.777345E+02 -1.214412E+04
       278  27  6.986110E+05  5.473613E+04  5.213029E+04 -3.003168E+04  1.268293E+03 -9.555218E+03
       279   1  3.010011E+05 -4.286999E+04 -3.888264E+04 -3.004059E+04  2.419338E+03  8.042846E+03
       279   2  3.524085E+05 -3.028304E+04 -2.749451E+04 -1.698965E+04  2.087511E+03  5.456432E+03
       279   3  4.038672E+05 -1.766444E+04 -1.588334E+04 -3.002599E+04  1.755162E+03  2.870586E+03
       279   4  4.757173E+05  1.128492E+01  8.818394E+02 -3.004633E+04  4.941663E+02  8.043018E+03
       279   5  4.756950E+05 -4.108811E+00  6.698596E+02 -1.700285E+04  1.626009E+02  5.456763E+03
       279   6  4.757207E+05  1.205832E+01  6.806111E+02 -3.004633E+04 -1.694590E+02  2.871087E+03
       279   7  6.504617E+05  4.289045E+04  4.064435E+04 -3.005207E+04 -1.431542E+03  8.043189E+03
       279   8  5.989955E+05  3.027377E+04  2.883325E+04 -1.701605E+04 -1.762688E+03  5.457094E+03
       279   9  5.475790E+05  1.768820E+04  1.724423E+04 -3.006667E+04 -2.094301E+03  2.871588E+03
       279  10  3.010011E+05 -4.287006E+04 -3.888278E+04 -3.004060E+04 -2.223113E-10  2.029323E-10
       279  11  3.524085E+05 -3.028307E+04 -2.749458E+04 -1.698966E+04 -4.987598E-10 -6.329332E-11
       279  12  4.038672E+05 -1.766445E+04 -1.588336E+04 -3.002600E+04 -2.022395E-11 -1.373339E-10
       279  13  4.757172E+05  1.121538E+01  8.817173E+02 -3.004633E+04 -2.604322E-10  1.517400E-10
       279  14  4.756950E+05 -4.140800E+00  6.698036E+02 -1.700285E+04 -2.500994E-10  1.713480E-10
       279  15  4.757207E+05  1.204946E+01  6.805956E+02 -3.004633E+04  1.859637E-10 -8.949799E-12
       279  16  6.504617E+05  4.289038E+04  4.064423E+04 -3.005206E+04  1.599295E-10  1.187878E-10
       279  17  5.989955E+05  3.027374E+04  2.883319E+04 -1.701604E+04 -2.649194E-11  1.077183E-10
       279  18  5.475789E+05  1.768819E+04  1.724420E+04 -3.006667E+04 -1.791188E-10 -7.448676E-11
       279  19  3.010011E+05 -4.286999E+04 -3.888264E+04 -3.004059E+04 -2.419338E+03 -8.042846E+03
       279  20  3.524085E+05 -3.028304E+04 -2.749451E+04 -1.698965E+04 -2.087511E+03 -5.456432E+03
       279  21  4.038672E+05 -1.766444E+04 -1.588334E+04 -3.002599E+04 -1.755162E+03 -2.870586E+03
       279  22  4.757173E+05  1.128492E+01  8.818394E+02 -3.004633E+04 -4.941663E+02 -8.043018E+03
       279  23  4.756950E+05 -4.108811E+00  6.698596E+02 -1.700285E+04 -1.626009E+02 -5.456763E+03
       279  24  4.757207E+05  1.205832E+01  6.806111E+02 -3.004633E+04  1.694590E+02 -2.871087E+03
       279  25  6.504617E+05  4.289045E+04  4.064435E+04 -3.005207E+04  1.431542E+03 -8.043189E+03
       279  26  5.989955E+05  3.027377E+04  2.883325E+04 -1.701605E+04  1.762688E+03 -5.457094E+03
       279  27  5.475790E+05  1.768820E+04  1.724423E+04 -3.006667E+04  2.094301E+03 -2.871588E+03
       280   1  4.518537E+05 -5.822421E+03 -4.541916E+03 -3.002078E+04  1.623337E+03  1.366105E+03
       280   2  5.032036E+05  6.751421E+03  7.395653E+03 -1.698701E+04  1.072296E+03 -1.217832E+03
       280   3  5.546287E+05  1.938501E+04  1.970311E+04 -3.001323E+04  5.213196E+02 -3.800825E+03
       280   4  4.757273E+05  1.050934E+01  7.614537E+02 -3.004035E+04 -3.006667E+02  1.366647E+03
       280   5  4.756905E+05 -5.127104E+00  1.110896E+03 -1.701032E+04 -8.510553E+02 -1.217332E+03
       280   6  4.757264E+05  3.904816E+01  1.829917E+03 -3.004034E+04 -1.401335E+03 -3.800357E+03
       280   7  4.996014E+05  5.843403E+03  6.064802E+03 -3.005993E+04 -2.224743E+03  1.367189E+03
       280   8  4.481781E+05 -6.761726E+03 -5.173898E+03 -1.703362E+04 -2.774322E+03 -1.216832E+03
       280   9  3.968298E+05 -1.930734E+04 -1.604366E+04 -3.006744E+04 -3.323748E+03 -3.799889E+03
       280  10  4.518537E+05 -5.822424E+03 -4.541925E+03 -3.002078E+04 -6.578223E-10 -7.810082E-11
       280  11  5.032036E+05  6.751419E+03  7.395648E+03 -1.698701E+04 -2.484777E-10 -1.088873E-11
       280  12  5.546287E+05  1.938499E+04  1.970308E+04 -3.001323E+04 -3.014578E-10  5.844973E-11
       280  13  4.757273E+05  1.050731E+01  7.614500E+02 -3.004035E+04  2.179073E-10 -4.086792E-11
       280  14  4.756905E+05 -5.128890E+00  1.110891E+03 -1.701032E+04 -9.766360E-11  4.968513E-11
       280  15  4.757264E+05  3.903212E+01  1.829886E+03 -3.004034E+04 -1.471827E-10  1.279713E-10
       280  16  4.996014E+05  5.843400E+03  6.064789E+03 -3.005993E+04 -7.517228E-11 -1.032766E-10
       280  17  4.481781E+05 -6.761729E+03 -5.173915E+03 -1.703363E+04 -5.148395E-11  2.471899E-11
       280  18  3.968298E+05 -1.930736E+04 -1.604371E+04 -3.006745E+04 -1.186647E-10  9.382386E-11
       280  19  4.518537E+05 -5.822421E+03 -4.541916E+03 -3.002078E+04 -1.623337E+03 -1.366105E+03
       280  20  5.032036E+05  6.751421E+03  7.395653E+03 -1.698701E+04 -1.072296E+03  1.217832E+03
       280  21  5.546287E+05  1.938501E+04  1.970311E+04 -3.001323E+04 -5.213196E+02  3.800825E+03
       280  22  4.757273E+05  1.050934E+01  7.614537E+02 -3.004035E+04  3.006667E+02 -1.366647E+03
       280  23  4.756905E+05 -5.127104E+00  1.110896E+03 -1.701032E+04  8.510553E+02  1.217332E+03
       280  24  4.757264E+05  3.904816E+01  1.829917E+03 -3.004034E+04  1.401335E+03  3.800357E+03
       280  25  4.996014E+05  5.843403E+03  6.064802E+03 -3.005993E+04  2.224743E+03 -1.367189E+03
       280  26  4.481781E+05 -6.761726E+03 -5.173898E+03 -1.703362E+04  2.774322E+03  1.216832E+03
       280  27  3.968298E+05 -1.930734E+04 -1.604366E+04 -3.006744E+04  3.323748E+03  3.799889E+03
       281   1  6.027225E+05  3.116900E+04  3.151003E+04 -2.992887E+04  1.536187E+02 -5.309246E+03
       281   2  6.540017E+05  4.373548E+04  4.481306E+04 -1.695302E+04 -1.887545E+03 -7.892063E+03
       281   3  7.057257E+05  5.697525E+04  5.961346E+04 -3.009287E+04 -3.928141E+03 -1.044665E+04
       281   4  4.758055E+05 -2.657907E+01  2.371752E+03 -3.005283E+04 -1.780034E+03 -5.308864E+03
       281   5  4.755829E+05 -7.617955E+01  4.059775E+03 -1.699471E+04 -3.799702E+03 -7.891928E+03
       281   6  4.757999E+05  5.443315E+02  7.230967E+03 -3.005273E+04 -5.818636E+03 -1.044674E+04
       281   7  3.489035E+05 -3.122327E+04 -2.676758E+04 -3.017677E+04 -3.713295E+03 -5.308481E+03
       281   8  2.971936E+05 -4.389004E+04 -3.669557E+04 -1.703638E+04 -5.711314E+03 -7.891793E+03
       281   9  2.459230E+05 -5.589025E+04 -4.515495E+04 -3.001261E+04 -7.708438E+03 -1.044684E+04
       281  10  6.027225E+05  3.116897E+04  3.150998E+04 -2.992887E+04 -1.621152E-10  1.026758E-10
       281  11  6.540017E+05  4.373541E+04  4.481293E+04 -1.695303E+04 -6.508651E-11  2.344620E-10
       281  12  7.057257E+05  5.697513E+04  5.961323E+04 -3.009290E+04 -1.494654E-10 -1.794717E-10
       281  13  4.758055E+05 -2.661019E+01  2.371693E+03 -3.005284E+04 -2.600507E-10  9.534549E-11
       281  14  4.755829E+05 -7.625032E+01  4.059631E+03 -1.699473E+04 -6.670014E-11  1.072320E-10
       281  15  4.757998E+05  5.442052E+02  7.230699E+03 -3.005278E+04  1.211461E-10 -1.865740E-10
       281  16  3.489034E+05 -3.122331E+04 -2.676765E+04 -3.017679E+04  4.334428E-10  1.236329E-10
       281  17  2.971935E+05 -4.389012E+04 -3.669575E+04 -1.703642E+04 -4.790005E-10  3.685633E-11
       281  18  2.459229E+05 -5.589038E+04 -4.515527E+04 -3.001267E+04 -2.862692E-10 -1.247061E-10
       281  19  6.027225E+05  3.116900E+04  3.151003E+04 -2.992887E+04 -1.536187E+02  5.309246E+03
       281  20  6.540017E+05  4.373548E+04  4.481306E+04 -1.695302E+04  1.887545E+03  7.892063E+03
       281  21  7.057257E+05  5.697525E+04  5.961346E+04 -3.009287E+04  3.928141E+03  1.044665E+04
       281  22  4.758055E+05 -2.657907E+01  2.371752E+03 -3.005283E+04  1.780034E+03  5.308864E+03
       281  23  4.755829E+05 -7.617955E+01  4.059775E+03 -1.699471E+04  3.799702E+03  7.891928E+03
       281  24  4.757999E+05  5.443315E+02  7.230967E+03 -3.005273E+04  5.818636E+03  1.044674E+04
       281  25  3.489035E+05 -3.122327E+04 -2.676758E+04 -3.017677E+04  3.713295E+03  5.308481E+03
       281  26  2.971936E+05 -4.389004E+04 -3.669557E+04 -1.703638E+04  5.711314E+03  7.891793E+03
       281  27  2.459230E+05 -5.589025E+04 -4.515495E+04 -3.001261E+04  7.708438E+03  1.044684E+04
       282   1  7.545809E+05  6.783844E+04  7.303119E+04 -2.866274E+04 -5.184883E+03 -1.203200E+04
       282   2  8.046357E+05  8.035250E+04  9.146727E+04 -1.762646E+04 -1.380635E+04 -1.452399E+04
       282   3  8.581484E+05  1.019386E+05  1.177930E+05 -3.281595E+04 -2.242765E+04 -1.636596E+04
       282   4  4.764459E+05 -4.810240E+02  9.374466E+03 -3.007691E+04 -7.280361E+03 -1.203230E+04
       282   5  4.747534E+05 -6.509608E+02  1.609182E+04 -1.696438E+04 -1.541391E+04 -1.452472E+04
       282   6  4.764332E+05  8.169396E+03  3.036339E+04 -3.007827E+04 -2.354658E+04 -1.636703E+04
       282   7  1.983826E+05 -6.880585E+04 -5.428732E+04 -3.149045E+04 -9.374909E+03 -1.203259E+04
       282   8  1.449719E+05 -8.166197E+04 -5.929073E+04 -1.630265E+04 -1.702063E+04 -1.452547E+04
       282   9  9.485285E+04 -8.560991E+04 -5.707582E+04 -2.734230E+04 -2.466482E+04 -1.636810E+04
       282  10  7.545808E+05  6.783828E+04  7.303087E+04 -2.866279E+04 -8.406417E-10 -3.087854E-10
       282  11  8.046354E+05  8.035223E+04  9.146652E+04 -1.762662E+04  4.991278E-11 -1.123218E-11
       282  12  8.581477E+05  1.019382E+05  1.177916E+05 -3.281624E+04  4.490831E-10 -3.073350E-11
       282  13  4.764458E+05 -4.811937E+02  9.374094E+03 -3.007698E+04 -2.866450E-10 -2.150325E-10
       282  14  4.747531E+05 -6.512512E+02  1.609098E+04 -1.696456E+04 -1.561980E-10  3.592858E-11
       282  15  4.764325E+05  8.168959E+03  3.036184E+04 -3.007858E+04 -1.587334E-10 -1.034112E-10
       282  16  1.983824E+05 -6.880603E+04 -5.428775E+04 -3.149054E+04  3.841911E-10 -1.111426E-10
       282  17  1.449715E+05 -8.166228E+04 -5.929168E+04 -1.630285E+04 -4.090254E-10  6.070806E-11
       282  18  9.485213E+04 -8.561036E+04 -5.707747E+04 -2.734263E+04 -4.365759E-10 -1.000091E-10
       282  19  7.545809E+05  6.783844E+04  7.303119E+04 -2.866274E+04  5.184883E+03  1.203200E+04
       282  20  8.046357E+05  8.035250E+04  9.146727E+04 -1.762646E+04  1.380635E+04  1.452399E+04
       282  21  8.581484E+05  1.019386E+05  1.177930E+05 -3.281595E+04  2.242765E+04  1.636596E+04
       282  22  4.764459E+05 -4.810240E+02  9.374466E+03 -3.007691E+04  7.280361E+03  1.203230E+04
       282  23  4.747534E+05 -6.509608E+02  1.609182E+04 -1.696438E+04  1.541391E+04  1.452472E+04
       282  24  4.764332E+05  8.169396E+03  3.036339E+04 -3.007827E+04  2.354658E+04  1.636703E+04
       282  25  1.983826E+05 -6.880585E+04 -5.428732E+04 -3.149045E+04  9.374909E+03  1.203259E+04
       282  26  1.449719E+05 -8.166197E+04 -5.929073E+04 -1.630265E+04  1.702063E+04  1.452547E+04
       282  27  9.485285E+04 -8.560991E+04 -5.707582E+04 -2.734230E+04  2.466482E+04  1.636810E+04
       283   1  9.139054E+05  9.936984E+04  1.358897E+05 -1.300639E+04 -2.377693E+04 -1.944376E+04
       283   2  9.479107E+05  1.114662E+05  1.736069E+05 -3.236084E+04 -6.748164E+04 -1.980309E+04
       283   3  1.018652E+06  2.471955E+05  2.706891E+05 -7.773883E+04 -1.112005E+05 -6.516115E+03
       283   4  4.834562E+05 -6.289031E+03  3.777649E+04 -3.001176E+04 -2.910030E+04 -1.944584E+04
       283   5  4.659395E+05 -6.993661E+03  6.279390E+04 -1.703860E+04 -6.261977E+04 -1.980321E+04
       283   6  4.834167E+05  1.142162E+05  1.401375E+05 -3.008634E+04 -9.614897E+04 -6.514101E+03
       283   7  5.317926E+04 -1.119596E+05 -6.034855E+04 -4.700527E+04 -3.442000E+04 -1.944762E+04
       283   8 -1.581642E+04 -1.254688E+05 -4.803422E+04 -1.728364E+03 -5.776163E+04 -1.980309E+04
       283   9 -5.155198E+04 -1.877541E+04  9.567108E+03  1.752500E+04 -8.111033E+04 -6.509780E+03
       283  10  9.139047E+05  9.936928E+04  1.358880E+05 -1.300676E+04 -4.523138E-10  1.243637E-10
       283  11  9.479057E+05  1.114645E+05  1.735976E+05 -3.236192E+04 -4.050641E-10  1.932067E-10
       283  12  1.018638E+06  2.471921E+05  2.706658E+05 -7.773942E+04  2.832941E-10 -6.906276E-12
       283  13  4.834552E+05 -6.289664E+03  3.777419E+04 -3.001222E+04 -2.693048E-10 -1.574965E-11
       283  14  4.659352E+05 -6.995134E+03  6.278580E+04 -1.703960E+04 -5.783646E-10  8.940871E-11
       283  15  4.834068E+05  1.142137E+05  1.401200E+05 -3.008684E+04 -2.897543E-10  3.606536E-11
       283  16  5.317788E+04 -1.119604E+05 -6.035149E+04 -4.700581E+04  1.837244E-10 -1.076617E-10
       283  17 -1.582010E+04 -1.254701E+05 -4.804122E+04 -1.729285E+03 -4.456004E-10  3.895922E-10
       283  18 -5.155905E+04 -1.877722E+04  9.554665E+03  1.752457E+04 -2.243954E-10  9.431361E-11
       283  19  9.139054E+05  9.936984E+04  1.358897E+05 -1.300639E+04  2.377693E+04  1.944376E+04
       283  20  9.479107E+05  1.114662E+05  1.736069E+05 -3.236084E+04  6.748164E+04  1.980309E+04
       283  21  1.018652E+06  2.471955E+05  2.706891E+05 -7.773883E+04  1.112005E+05  6.516115E+03
       283  22  4.834562E+05 -6.289031E+03  3.777649E+04 -3.001176E+04  2.910030E+04  1.944584E+04
       283  23  4.659395E+05 -6.993661E+03  6.279390E+04 -1.703860E+04  6.261977E+04  1.980321E+04
       283  24  4.834167E+05  1.142162E+05  1.401375E+05 -3.008634E+04  9.614897E+04  6.514101E+03
       283  25  5.317926E+04 -1.119596E+05 -6.034855E+04 -4.700527E+04  3.442000E+04  1.944762E+04
       283  26 -1.581642E+04 -1.254688E+05 -4.803422E+04 -1.728364E+03  5.776163E+04  1.980309E+04
       283  27 -5.155198E+04 -1.877541E+04  9.567108E+03  1.752500E+04  8.111033E+04  6.509780E+03
       284   1  1.404855E+05  8.694829E+05  1.518023E+05 -8.298403E+04  3.350477E+03  5.666339E+04
       284   2  5.392267E+04  7.605575E+05  8.465893E+04 -4.162673E+04  9.204265E+03  3.322895E+04
       284   3  2.976727E+04  6.701379E+05  4.833188E+04 -5.037989E+04  5.815357E+03  9.785155E+03
       284   4  5.751850E+04  5.363461E+05  7.023166E+04 -5.861581E+04  3.363547E+03  4.887233E+04
       284   5 -3.380747E+03  5.277034E+05  3.096501E+04 -3.360359E+04  9.206230E+03  3.232950E+04
       284   6 -3.053728E+03  5.363740E+05  1.774453E+04 -5.870034E+04  5.805902E+03  1.577351E+04
       284   7 -2.545451E+04  2.033117E+05 -1.134655E+04 -3.426063E+04  3.376010E+03  4.108543E+04
       284   8 -6.068773E+04  2.948996E+05 -2.273248E+04 -2.558345E+04  9.208172E+03  3.143039E+04
       284   9 -3.587569E+04  4.026269E+05 -1.284381E+04 -6.701898E+04  5.796286E+03  2.176058E+04
       284  10  1.404846E+05  8.694794E+05  1.517962E+05 -8.298418E+04  4.408004E-11 -6.133181E-11
       284  11  5.392229E+04  7.605563E+05  8.465670E+04 -4.162698E+04 -3.067560E-10  1.518648E-10
       284  12  2.976721E+04  6.701378E+05  4.833164E+04 -5.037994E+04  7.599585E-10  3.276793E-10
       284  13  5.751784E+04  5.363436E+05  7.022716E+04 -5.861594E+04  4.795393E-10 -5.389344E-11
       284  14 -3.381119E+03  5.277023E+05  3.096289E+04 -3.360382E+04 -1.341679E-09  1.856615E-10
       284  15 -3.053831E+03  5.363737E+05  1.774400E+04 -5.870042E+04  3.783282E-10 -1.949622E-11
       284  16 -2.545497E+04  2.033099E+05 -1.134974E+04 -3.426075E+04 -2.336313E-10  6.047660E-11
       284  17 -6.068808E+04  2.948986E+05 -2.273450E+04 -2.558368E+04 -2.456893E-10 -1.190441E-10
       284  18 -3.587585E+04  4.026264E+05 -1.284476E+04 -6.701908E+04  1.283473E-10 -3.728813E-10
       284  19  1.404855E+05  8.694829E+05  1.518023E+05 -8.298403E+04 -3.350477E+03 -5.666339E+04
       284  20  5.392267E+04  7.605575E+05  8.465893E+04 -4.162673E+04 -9.204265E+03 -3.322895E+04
       284  21  2.976727E+04  6.701379E+05  4.833188E+04 -5.037989E+04 -5.815357E+03 -9.785155E+03
       284  22  5.751850E+04  5.363461E+05  7.023166E+04 -5.861581E+04 -3.363547E+03 -4.887233E+04
       284  23 -3.380747E+03  5.277034E+05  3.096501E+04 -3.360359E+04 -9.206230E+03 -3.232950E+04
       284  24 -3.053728E+03  5.363740E+05  1.774453E+04 -5.870034E+04 -5.805902E+03 -1.577351E+04
       284  25 -2.545451E+04  2.033117E+05 -1.134655E+04 -3.426063E+04 -3.376010E+03 -4.108543E+04
       284  26 -6.068773E+04  2.948996E+05 -2.273248E+04 -2.558345E+04 -9.208172E+03 -3.143039E+04
       284  27 -3.587569E+04  4.026269E+05 -1.284381E+04 -6.701898E+04 -5.796286E+03 -2.176058E+04
       285   1  1.437154E+04  5.733848E+05  2.289077E+04 -5.994304E+04  1.780406E+03  9.913920E+03
       285   2 -1.455675E+04  4.734077E+05 -8.284563E+03 -3.393267E+04 -2.600806E+03  7.395820E+03
       285   3 -4.043135E+04  3.743466E+05 -3.710138E+04 -5.834644E+04 -6.844957E+03  4.878741E+03
       285   4  4.384285E+03  5.327331E+05  1.360346E+04 -5.874148E+04  1.775154E+03  1.322973E+04
       285   5 -1.018177E+02  5.322703E+05  5.168387E+03 -3.353417E+04 -2.605758E+03  1.060989E+04
       285   6 -1.515689E+03  5.327328E+05 -8.361413E+02 -5.875059E+04 -6.849642E+03  7.990680E+03
       285   7 -5.603079E+03  4.920829E+05  4.316086E+03 -5.754000E+04  1.769914E+03  1.654532E+04
       285   8  1.435288E+04  5.911361E+05  1.862115E+04 -3.313564E+04 -2.610705E+03  1.382426E+04
       285   9  3.739823E+04  6.911422E+05  3.542749E+04 -5.915483E+04 -6.854331E+03  1.110341E+04
       285  10  1.437151E+04  5.733847E+05  2.289058E+04 -5.994305E+04  7.488401E-11 -5.024915E-10
       285  11 -1.455677E+04  4.734076E+05 -8.284679E+03 -3.393265E+04  3.213420E-10 -3.463969E-10
       285  12 -4.043140E+04  3.743465E+05 -3.710152E+04 -5.834641E+04 -7.395844E-10  4.536976E-11
       285  13  4.384234E+03  5.327329E+05  1.360313E+04 -5.874150E+04  3.924415E-10  1.015623E-10
       285  14 -1.018552E+02  5.322702E+05  5.168163E+03 -3.353415E+04  1.203739E-09 -1.096859E-10
       285  15 -1.515756E+03  5.327327E+05 -8.363493E+02 -5.875054E+04  9.849366E-10 -1.063838E-10
       285  16 -5.603155E+03  4.920826E+05  4.315566E+03 -5.754003E+04  3.285616E-10  5.413779E-10
       285  17  1.435282E+04  5.911359E+05  1.862078E+04 -3.313561E+04 -6.888259E-10  3.470069E-10
       285  18  3.739815E+04  6.911421E+05  3.542717E+04 -5.915477E+04 -3.701440E-10  3.440290E-11
       285  19  1.437154E+04  5.733848E+05  2.289077E+04 -5.994304E+04 -1.780406E+03 -9.913920E+03
       285  20 -1.455675E+04  4.734077E+05 -8.284563E+03 -3.393267E+04  2.600806E+03 -7.395820E+03
       285  21 -4.043135E+04  3.743466E+05 -3.710138E+04 -5.834644E+04  6.844957E+03 -4.878741E+03
       285  22  4.384285E+03  5.327331E+05  1.360346E+04 -5.874148E+04 -1.775154E+03 -1.322973E+04
       285  23 -1.018177E+02  5.322703E+05  5.168387E+03 -3.353417E+04  2.605758E+03 -1.060989E+04
       285  24 -1.515689E+03  5.327328E+05 -8.361413E+02 -5.875059E+04  6.849642E+03 -7.990680E+03
       285  25 -5.603079E+03  4.920829E+05  4.316086E+03 -5.754000E+04 -1.769914E+03 -1.654532E+04
       285  26  1.435288E+04  5.911361E+05  1.862115E+04 -3.313564E+04  2.610705E+03 -1.382426E+04
       285  27  3.739823E+04  6.911422E+05  3.542749E+04 -5.915483E+04  6.854331E+03 -1.110341E+04
       286   1 -6.024825E+04  2.796302E+05 -6.073316E+04 -5.543011E+04 -1.119012E+04  1.550901E+03
       286   2 -8.500076E+04  1.835383E+05 -9.030353E+04 -3.595603E+04 -1.416244E+04  1.572350E+04
       286   3 -1.323013E+05  7.988068E+04 -1.347581E+05 -6.662613E+04 -4.990506E+03  2.990846E+04
       286   4  1.539742E+03  5.311826E+05 -3.289470E+03 -5.867711E+04 -1.119986E+04  8.269231E+03
       286   5  1.247276E+03  5.341782E+05 -9.528262E+03 -3.361893E+04 -1.415874E+04  1.340747E+04
       286   6 -2.001801E+04  5.311700E+05 -2.437534E+04 -5.870422E+04 -4.976148E+03  1.856061E+04
       286   7  6.332341E+04  7.827937E+05  5.415026E+04 -6.192541E+04 -1.120966E+04  1.499026E+04
       286   8  8.748674E+04  8.849317E+05  7.123887E+04 -3.128046E+04 -1.415505E+04  1.109014E+04
       286   9  9.225054E+04  9.826453E+05  8.599304E+04 -5.077648E+04 -4.962085E+03  7.204517E+03
       286  10 -6.024838E+04  2.796301E+05 -6.073340E+04 -5.543009E+04  6.606702E-12 -5.893362E-11
       286  11 -8.500104E+04  1.835379E+05 -9.030437E+04 -3.595585E+04  2.735949E-10  5.515604E-11
       286  12 -1.323016E+05  7.987971E+04 -1.347598E+05 -6.662601E+04 -1.963963E-10  1.702001E-10
       286  13  1.539589E+03  5.311825E+05 -3.289835E+03 -5.867703E+04 -1.115886E-09  1.549501E-10
       286  14  1.247012E+03  5.341779E+05 -9.528976E+03 -3.361878E+04  4.643158E-10 -8.827418E-11
       286  15 -2.001813E+04  5.311697E+05 -2.437603E+04 -5.870415E+04 -3.172134E-10  6.132770E-11
       286  16  6.332321E+04  7.827935E+05  5.414960E+04 -6.192528E+04  2.073912E-10 -6.412517E-11
       286  17  8.748649E+04  8.849316E+05  7.123827E+04 -3.128033E+04 -8.228522E-11 -1.719233E-10
       286  18  9.225050E+04  9.826452E+05  8.599289E+04 -5.077645E+04 -4.324781E-10 -1.111652E-10
       286  19 -6.024825E+04  2.796302E+05 -6.073316E+04 -5.543011E+04  1.119012E+04 -1.550901E+03
       286  20 -8.500076E+04  1.835383E+05 -9.030353E+04 -3.595603E+04  1.416244E+04 -1.572350E+04
       286  21 -1.323013E+05  7.988068E+04 -1.347581E+05 -6.662613E+04  4.990506E+03 -2.990846E+04
       286  22  1.539742E+03  5.311826E+05 -3.289470E+03 -5.867711E+04  1.119986E+04 -8.269231E+03
       286  23  1.247276E+03  5.341782E+05 -9.528262E+03 -3.361893E+04  1.415874E+04 -1.340747E+04
       286  24 -2.001801E+04  5.311700E+05 -2.437534E+04 -5.870422E+04  4.976148E+03 -1.856061E+04
       286  25  6.332341E+04  7.827937E+05  5.415026E+04 -6.192541E+04  1.120966E+04 -1.499026E+04
       286  26  8.748674E+04  8.849317E+05  7.123887E+04 -3.128046E+04  1.415505E+04 -1.109014E+04
       286  27  9.225054E+04  9.826453E+05  8.599304E+04 -5.077648E+04  4.962085E+03 -7.204517E+03
       287   1 -8.386234E+05 -3.667472E+05 -2.569695E+05 -2.935960E+05 -1.084751E+05 -3.485419E+04
       287   2 -8.048549E+05 -2.106381E+05 -1.579637E+05 -2.925972E+05 -7.057525E+04 -8.099030E+03
       287   3 -8.128910E+05 -1.887230E+05 -1.241515E+05 -2.716806E+05 -2.858553E+04  7.797819E+03
       287   4 -4.714130E+05 -1.839778E+05 -1.494887E+05 -1.479709E+05 -9.711880E+04 -3.059027E+04
       287   5 -4.432724E+05 -6.124003E+04 -6.372535E+04 -1.791402E+05 -6.675727E+04 -6.665649E+03
       287   6 -4.554138E+05 -7.116167E+04 -3.715042E+04 -1.904011E+05 -3.230798E+04  6.398414E+03
       287   7 -1.040690E+05 -1.168866E+03 -4.202105E+04 -2.258982E+03 -8.575521E+04 -2.632155E+04
       287   8 -8.156187E+04  8.817429E+04  3.050179E+04 -6.562068E+04 -6.293687E+04 -5.231135E+03
       287   9 -9.781044E+04  4.640173E+04  4.984168E+04 -1.090822E+05 -3.603278E+04  4.998369E+03
       287  10 -8.386364E+05 -3.667517E+05 -2.569939E+05 -2.935991E+05 -5.489356E-10  2.520133E-11
       287  11 -8.048602E+05 -2.106395E+05 -1.579732E+05 -2.925977E+05 -9.189436E-11  1.572862E-10
       287  12 -8.128919E+05 -1.887233E+05 -1.241532E+05 -2.716804E+05  7.233301E-11  1.154443E-10
       287  13 -4.714234E+05 -1.839813E+05 -1.495082E+05 -1.479733E+05  6.514763E-10  7.333048E-11
       287  14 -4.432772E+05 -6.124128E+04 -6.373382E+04 -1.791406E+05 -4.804153E-11  1.340077E-10
       287  15 -4.554149E+05 -7.116199E+04 -3.715246E+04 -1.904010E+05  6.717145E-11  6.201383E-11
       287  16 -1.040771E+05 -1.171584E+03 -4.203618E+04 -2.260800E+03  9.484016E-11  1.053291E-10
       287  17 -8.156613E+04  8.817319E+04  3.049429E+04 -6.562095E+04 -3.609928E-10  1.126151E-10
       287  18 -9.781184E+04  4.640135E+04  4.983919E+04 -1.090820E+05 -7.709753E-10  5.917801E-11
       287  19 -8.386234E+05 -3.667472E+05 -2.569695E+05 -2.935960E+05  1.084751E+05  3.485419E+04
       287  20 -8.048549E+05 -2.106381E+05 -1.579637E+05 -2.925972E+05  7.057525E+04  8.099030E+03
       287  21 -8.128910E+05 -1.887230E+05 -1.241515E+05 -2.716806E+05  2.858553E+04 -7.797819E+03
       287  22 -4.714130E+05 -1.839778E+05 -1.494887E+05 -1.479709E+05  9.711880E+04  3.059027E+04
       287  23 -4.432724E+05 -6.124003E+04 -6.372535E+04 -1.791402E+05  6.675727E+04  6.665649E+03
       287  24 -4.554138E+05 -7.116167E+04 -3.715042E+04 -1.904011E+05  3.230798E+04 -6.398414E+03
       287  25 -1.040690E+05 -1.168866E+03 -4.202105E+04 -2.258982E+03  8.575521E+04  2.632155E+04
       287  26 -8.156187E+04  8.817429E+04  3.050179E+04 -6.562068E+04  6.293687E+04  5.231135E+03
       287  27 -9.781044E+04  4.640173E+04  4.984168E+04 -1.090822E+05  3.603278E+04 -4.998369E+03
       288   1 -7.675239E+05 -2.060520E+05 -1.105583E+05 -2.724379E+05 -2.618193E+04  6.264087E+03
       288   2 -7.443962E+05 -1.796513E+05 -8.861271E+04 -2.599107E+05 -1.784790E+04  8.490828E+03
       288   3 -7.152863E+05 -1.737667E+05 -7.530858E+04 -2.572773E+05 -9.301639E+03  1.015201E+04
       288   4 -4.505294E+05 -8.449157E+04 -2.979928E+04 -1.826311E+05 -2.654491E+04  6.126913E+03
       288   5 -4.529351E+05 -6.987310E+04 -1.492860E+04 -1.793358E+05 -1.860059E+04  8.207501E+03
       288   6 -4.492797E+05 -7.569031E+04 -8.386908E+03 -1.859348E+05 -1.044441E+04  9.722472E+03
       288   7 -1.334377E+05  3.707631E+04  5.095119E+04 -9.278266E+04 -2.690809E+04  5.989659E+03
       288   8 -1.613908E+05  3.991097E+04  5.874870E+04 -9.872643E+04 -1.935367E+04  7.924028E+03
       288   9 -1.832028E+05  2.239055E+04  5.852945E+04 -1.145644E+05 -1.158773E+04  9.292736E+03
       288  10 -7.675247E+05 -2.060523E+05 -1.105596E+05 -2.724378E+05  4.036652E-10  9.365942E-11
       288  11 -7.443965E+05 -1.796515E+05 -8.861344E+04 -2.599106E+05  2.666974E-10  5.824164E-12
       288  12 -7.152864E+05 -1.737668E+05 -7.530894E+04 -2.572772E+05  1.980316E-10 -9.528711E-11
       288  13 -4.505302E+05 -8.449180E+04 -2.980067E+04 -1.826310E+05  1.684169E-11 -4.095324E-11
       288  14 -4.529355E+05 -6.987327E+04 -1.492938E+04 -1.793356E+05  1.644478E-10  8.231674E-12
       288  15 -4.492798E+05 -7.569044E+04 -8.387290E+03 -1.859347E+05 -1.986288E-11 -3.008237E-11
       288  16 -1.334385E+05  3.707607E+04  5.094976E+04 -9.278253E+04 -1.520263E-10 -1.820811E-11
       288  17 -1.613913E+05  3.991080E+04  5.874788E+04 -9.872630E+04 -1.076375E-10 -5.716328E-11
       288  18 -1.832030E+05  2.239042E+04  5.852904E+04 -1.145644E+05 -1.616351E-10 -4.901900E-11
       288  19 -7.675239E+05 -2.060520E+05 -1.105583E+05 -2.724379E+05  2.618193E+04 -6.264087E+03
       288  20 -7.443962E+05 -1.796513E+05 -8.861271E+04 -2.599107E+05  1.784790E+04 -8.490828E+03
       288  21 -7.152863E+05 -1.737667E+05 -7.530858E+04 -2.572773E+05  9.301639E+03 -1.015201E+04
       288  22 -4.505294E+05 -8.449157E+04 -2.979928E+04 -1.826311E+05  2.654491E+04 -6.126913E+03
       288  23 -4.529351E+05 -6.987310E+04 -1.492860E+04 -1.793358E+05  1.860059E+04 -8.207501E+03
       288  24 -4.492797E+05 -7.569031E+04 -8.386908E+03 -1.859348E+05  1.044441E+04 -9.722472E+03
       288  25 -1.334377E+05  3.707631E+04  5.095119E+04 -9.278266E+04  2.690809E+04 -5.989659E+03
       288  26 -1.613908E+05  3.991097E+04  5.874870E+04 -9.872643E+04  1.935367E+04 -7.924028E+03
       288  27 -1.832028E+05  2.239055E+04  5.852945E+04 -1.145644E+05  1.158773E+04 -9.292736E+03
       289   1 -6.868343E+05 -1.658180E+05 -6.642563E+04 -2.505734E+05 -7.944227E+03  9.627852E+03
       289   2 -6.646183E+05 -1.493630E+05 -5.660553E+04 -2.369769E+05 -5.654597E+03  8.873962E+03
       289   3 -6.321033E+05 -1.444830E+05 -4.829516E+04 -2.355875E+05 -3.352705E+03  8.085904E+03
       289   4 -4.487568E+05 -7.671973E+04 -6.440799E+03 -1.853203E+05 -8.917797E+03  9.261985E+03
       289   5 -4.538590E+05 -7.059895E+04 -3.454184E+03 -1.793421E+05 -6.651233E+03  8.499632E+03
       289   6 -4.486583E+05 -7.604800E+04 -1.958471E+03 -1.855707E+05 -4.372498E+03  7.703087E+03
       289   7 -2.106239E+05  1.238225E+04  5.353951E+04 -1.200446E+05 -9.891775E+03  8.895965E+03
       289   8 -2.430568E+05  8.167793E+03  4.969350E+04 -1.216897E+05 -7.648238E+03  8.125164E+03
       289   9 -2.651812E+05 -7.611175E+03  4.437533E+04 -1.355409E+05 -5.392617E+03  7.320148E+03
       289  10 -6.868344E+05 -1.658181E+05 -6.642592E+04 -2.505733E+05  2.185348E-10 -1.739695E-10
       289  11 -6.646183E+05 -1.493631E+05 -5.660574E+04 -2.369769E+05  1.806180E-10  5.341209E-11
       289  12 -6.321033E+05 -1.444830E+05 -4.829531E+04 -2.355874E+05 -1.400907E-10  1.645703E-10
       289  13 -4.487570E+05 -7.671985E+04 -6.441110E+03 -1.853203E+05 -5.705140E-11  3.234604E-11
       289  14 -4.538591E+05 -7.059903E+04 -3.454402E+03 -1.793421E+05  2.657585E-10  6.383472E-11
       289  15 -4.486584E+05 -7.604807E+04 -1.958619E+03 -1.855707E+05  1.081756E-10  2.129573E-10
       289  16 -2.106241E+05  1.238214E+04  5.353918E+04 -1.200446E+05  1.548758E-10 -2.715018E-11
       289  17 -2.430569E+05  8.167707E+03  4.969327E+04 -1.216897E+05 -9.783949E-11 -4.951737E-11
       289  18 -2.651813E+05 -7.611241E+03  4.437517E+04 -1.355408E+05  2.790542E-10  6.708187E-11
       289  19 -6.868343E+05 -1.658180E+05 -6.642563E+04 -2.505734E+05  7.944227E+03 -9.627852E+03
       289  20 -6.646183E+05 -1.493630E+05 -5.660553E+04 -2.369769E+05  5.654597E+03 -8.873962E+03
       289  21 -6.321033E+05 -1.444830E+05 -4.829516E+04 -2.355875E+05  3.352705E+03 -8.085904E+03
       289  22 -4.487568E+05 -7.671973E+04 -6.440799E+03 -1.853203E+05  8.917797E+03 -9.261985E+03
       289  23 -4.538590E+05 -7.059895E+04 -3.454184E+03 -1.793421E+05  6.651233E+03 -8.499632E+03
       289  24 -4.486583E+05 -7.604800E+04 -1.958471E+03 -1.855707E+05  4.372498E+03 -7.703087E+03
       289  25 -2.106239E+05  1.238225E+04  5.353951E+04 -1.200446E+05  9.891775E+03 -8.895965E+03
       289  26 -2.430568E+05  8.167793E+03  4.969350E+04 -1.216897E+05  7.648238E+03 -8.125164E+03
       289  27 -2.651812E+05 -7.611175E+03  4.437533E+04 -1.355409E+05  5.392617E+03 -7.320148E+03
       290   1 -6.048210E+05 -1.344849E+05 -4.081501E+04 -2.282480E+05 -2.754025E+03  7.339540E+03
       290   2 -5.825724E+05 -1.186768E+05 -3.336736E+04 -2.144662E+05 -1.733688E+03  6.059010E+03
       290   3 -5.495277E+05 -1.138083E+05 -2.628611E+04 -2.131352E+05 -7.119689E+02  4.773834E+03
       290   4 -4.485791E+05 -7.613652E+04 -1.518384E+03 -1.855383E+05 -3.767470E+03  6.959210E+03
       290   5 -4.539720E+05 -7.064150E+04 -9.422690E+02 -1.793218E+05 -2.750239E+03  5.677631E+03
       290   6 -4.485697E+05 -7.608558E+04 -7.301568E+02 -1.855564E+05 -1.731652E+03  4.391404E+03
       290   7 -2.923126E+05 -1.778635E+04  3.777649E+04 -1.428186E+05 -4.781197E+03  6.578773E+03
       290   8 -3.253552E+05 -2.260505E+04  3.148159E+04 -1.441708E+05 -3.767022E+03  5.296166E+03
       290   9 -3.476017E+05 -3.836218E+04  2.482498E+04 -1.579736E+05 -2.751517E+03  4.008906E+03
       290  10 -6.048210E+05 -1.344849E+05 -4.081513E+04 -2.282480E+05  6.678251E-11  2.783901E-10
       290  11 -5.825725E+05 -1.186768E+05 -3.336744E+04 -2.144662E+05 -1.829762E-10 -1.141729E-10
       290  12 -5.495277E+05 -1.138083E+05 -2.628615E+04 -2.131352E+05 -2.525611E-10 -4.352735E-11
       290  13 -4.485791E+05 -7.613658E+04 -1.518501E+03 -1.855383E+05 -7.661657E-11  3.143625E-11
       290  14 -4.539721E+05 -7.064154E+04 -9.423438E+02 -1.793218E+05 -3.822682E-10  1.997982E-11
       290  15 -4.485697E+05 -7.608560E+04 -7.301987E+02 -1.855564E+05 -4.628450E-11 -5.399352E-11
       290  16 -2.923126E+05 -1.778640E+04  3.777637E+04 -1.428186E+05  5.812108E-11  4.153645E-11
       290  17 -3.253552E+05 -2.260509E+04  3.148151E+04 -1.441708E+05 -3.013811E-12  4.853135E-11
       290  18 -3.476017E+05 -3.836220E+04  2.482494E+04 -1.579736E+05 -1.455580E-10 -5.535714E-11
       290  19 -6.048210E+05 -1.344849E+05 -4.081501E+04 -2.282480E+05  2.754025E+03 -7.339540E+03
       290  20 -5.825724E+05 -1.186768E+05 -3.336736E+04 -2.144662E+05  1.733688E+03 -6.059010E+03
       290  21 -5.495277E+05 -1.138083E+05 -2.628611E+04 -2.131352E+05  7.119689E+02 -4.773834E+03
       290  22 -4.485791E+05 -7.613652E+04 -1.518384E+03 -1.855383E+05  3.767470E+03 -6.959210E+03
       290  23 -4.539720E+05 -7.064150E+04 -9.422690E+02 -1.793218E+05  2.750239E+03 -5.677631E+03
       290  24 -4.485697E+05 -7.608558E+04 -7.301568E+02 -1.855564E+05  1.731652E+03 -4.391404E+03
       290  25 -2.923126E+05 -1.778635E+04  3.777649E+04 -1.428186E+05  4.781197E+03 -6.578773E+03
       290  26 -3.253552E+05 -2.260505E+04  3.148159E+04 -1.441708E+05  3.767022E+03 -5.296166E+03
       290  27 -3.476017E+05 -3.836218E+04  2.482498E+04 -1.579736E+05  2.751517E+03 -4.008906E+03
       291   1 -5.222201E+05 -1.036033E+05 -1.919776E+04 -2.057169E+05 -2.702317E+02  3.966287E+03
       291   2 -4.998706E+05 -8.777949E+04 -1.248204E+04 -1.918639E+05  7.336140E+02  2.669759E+03
       291   3 -4.666895E+05 -8.293639E+04 -6.120161E+03 -1.905189E+05  1.737472E+03  1.372841E+03
       291   4 -4.485607E+05 -7.609634E+04 -7.251997E+02 -1.855680E+05 -1.291113E+03  3.583463E+03
       291   5 -4.539783E+05 -7.062376E+04 -9.088603E+02 -1.793071E+05 -2.875126E+02  2.286887E+03
       291   6 -4.485652E+05 -7.613188E+04 -1.446143E+03 -1.855545E+05  7.160791E+02  9.899124E+02
       291   7 -3.748963E+05 -4.858914E+04  1.774686E+04 -1.654171E+05 -2.312122E+03  3.200591E+03
       291   8 -4.080841E+05 -5.346789E+04  1.066415E+04 -1.667494E+05 -1.308722E+03  1.903983E+03
       291   9 -4.304405E+05 -6.932733E+04  3.227872E+03 -1.805899E+05 -3.053503E+02  6.069701E+02
       291  10 -5.222202E+05 -1.036033E+05 -1.919779E+04 -2.057169E+05  1.380898E-10  1.332443E-10
       291  11 -4.998706E+05 -8.777949E+04 -1.248205E+04 -1.918639E+05  1.068548E-10  7.896253E-12
       291  12 -4.666895E+05 -8.293639E+04 -6.120170E+03 -1.905189E+05  3.785204E-10 -9.383973E-11
       291  13 -4.485607E+05 -7.609635E+04 -7.252269E+02 -1.855680E+05 -3.195525E-10  3.506369E-12
       291  14 -4.539783E+05 -7.062376E+04 -9.088703E+02 -1.793071E+05  1.165752E-10 -8.017159E-11
       291  15 -4.485652E+05 -7.613189E+04 -1.446146E+03 -1.855545E+05  2.582777E-11 -1.947124E-10
       291  16 -3.748963E+05 -4.858915E+04  1.774683E+04 -1.654171E+05 -1.532864E-10 -4.228979E-11
       291  17 -4.080841E+05 -5.346790E+04  1.066414E+04 -1.667494E+05  1.729303E-10 -5.048975E-11
       291  18 -4.304405E+05 -6.932733E+04  3.227871E+03 -1.805899E+05 -8.265017E-11 -9.739659E-11
       291  19 -5.222201E+05 -1.036033E+05 -1.919776E+04 -2.057169E+05  2.702317E+02 -3.966287E+03
       291  20 -4.998706E+05 -8.777949E+04 -1.248204E+04 -1.918639E+05 -7.336140E+02 -2.669759E+03
       291  21 -4.666895E+05 -8.293639E+04 -6.120161E+03 -1.905189E+05 -1.737472E+03 -1.372841E+03
       291  22 -4.485607E+05 -7.609634E+04 -7.251997E+02 -1.855680E+05  1.291113E+03 -3.583463E+03
       291  23 -4.539783E+05 -7.062376E+04 -9.088603E+02 -1.793071E+05  2.875126E+02 -2.286887E+03
       291  24 -4.485652E+05 -7.613188E+04 -1.446143E+03 -1.855545E+05 -7.160791E+02 -9.899124E+02
       291  25 -3.748963E+05 -4.858914E+04  1.774686E+04 -1.654171E+05  2.312122E+03 -3.200591E+03
       291  26 -4.080841E+05 -5.346789E+04  1.066415E+04 -1.667494E+05  1.308722E+03 -1.903983E+03
       291  27 -4.304405E+05 -6.932733E+04  3.227872E+03 -1.805899E+05  3.053503E+02 -6.069701E+02
       292   1 -4.393187E+05 -7.270549E+04  5.619799E+02 -1.832063E+05  2.335951E+03  6.199610E+02
       292   2 -4.168872E+05 -5.674753E+04  6.055643E+03 -1.692048E+05  4.516169E+03 -2.344139E+02
       292   3 -3.840277E+05 -5.245276E+04  1.013889E+04 -1.675919E+05  6.689897E+03 -1.071070E+03
       292   4 -4.486250E+05 -7.606896E+04 -1.861778E+03 -1.856085E+05  1.309283E+03  2.350571E+02
       292   5 -4.538820E+05 -7.054795E+04 -3.268674E+03 -1.792975E+05  3.501698E+03 -6.147814E+02
       292   6 -4.487139E+05 -7.669262E+04 -6.095674E+03 -1.853753E+05  5.687540E+03 -1.446927E+03
       292   7 -4.579312E+05 -7.943243E+04 -4.285538E+03 -1.880108E+05  2.826324E+02 -1.498410E+02
       292   8 -4.908753E+05 -8.434825E+04 -1.259307E+04 -1.893896E+05  2.487296E+03 -9.951235E+02
       292   9 -5.133958E+05 -1.009321E+05 -2.233049E+04 -2.031569E+05  4.685301E+03 -1.822739E+03
       292  10 -4.393187E+05 -7.270549E+04  5.619689E+02 -1.832063E+05  2.169076E-10 -7.517251E-11
       292  11 -4.168873E+05 -5.674754E+04  6.055605E+03 -1.692048E+05 -1.736669E-10  3.002492E-11
       292  12 -3.840278E+05 -5.245277E+04  1.013880E+04 -1.675919E+05  1.389475E-12  1.738670E-10
       292  13 -4.486250E+05 -7.606896E+04 -1.861781E+03 -1.856085E+05  1.490178E-10 -1.562271E-10
       292  14 -4.538820E+05 -7.054795E+04 -3.268698E+03 -1.792975E+05  3.832128E-11 -5.159292E-11
       292  15 -4.487140E+05 -7.669264E+04 -6.095739E+03 -1.853753E+05 -2.315188E-10 -2.457589E-11
       292  16 -4.579312E+05 -7.943243E+04 -4.285538E+03 -1.880108E+05 -2.552666E-11 -1.209491E-10
       292  17 -4.908753E+05 -8.434825E+04 -1.259309E+04 -1.893896E+05 -1.337443E-10  1.990572E-11
       292  18 -5.133958E+05 -1.009321E+05 -2.233054E+04 -2.031569E+05 -1.574682E-11 -7.761570E-11
       292  19 -4.393187E+05 -7.270549E+04  5.619799E+02 -1.832063E+05 -2.335951E+03 -6.199610E+02
       292  20 -4.168872E+05 -5.674753E+04  6.055643E+03 -1.692048E+05 -4.516169E+03  2.344139E+02
       292  21 -3.840277E+05 -5.245276E+04  1.013889E+04 -1.675919E+05 -6.689897E+03  1.071070E+03
       292  22 -4.486250E+05 -7.606896E+04 -1.861778E+03 -1.856085E+05 -1.309283E+03 -2.350571E+02
       292  23 -4.538820E+05 -7.054795E+04 -3.268674E+03 -1.792975E+05 -3.501698E+03  6.147814E+02
       292  24 -4.487139E+05 -7.669262E+04 -6.095674E+03 -1.853753E+05 -5.687540E+03  1.446927E+03
       292  25 -4.579312E+05 -7.943243E+04 -4.285538E+03 -1.880108E+05 -2.826324E+02  1.498410E+02
       292  26 -4.908753E+05 -8.434825E+04 -1.259307E+04 -1.893896E+05 -2.487296E+03  9.951235E+02
       292  27 -5.133958E+05 -1.009321E+05 -2.233049E+04 -2.031569E+05 -4.685301E+03  1.822739E+03
       293   1 -3.561614E+05 -4.229995E+04  1.536519E+04 -1.619270E+05  8.248953E+03 -1.504890E+03
       293   2 -3.338250E+05 -2.458494E+04  1.607600E+04 -1.459418E+05  1.578449E+04 -2.960083E+02
       293   3 -3.049635E+05 -2.696306E+04  9.078201E+03 -1.402665E+05  2.319632E+04  1.244819E+03
       293   4 -4.491926E+05 -7.573821E+04 -7.937528E+03 -1.859780E+05  7.145753E+03 -1.918590E+03
       293   5 -4.530191E+05 -6.982761E+04 -1.411865E+04 -1.792637E+05  1.491084E+04 -6.237803E+02
       293   6 -4.503683E+05 -8.405754E+04 -2.819176E+04 -1.828599E+05  2.255187E+04  1.002830E+03
       293   7 -5.422158E+05 -1.091762E+05 -3.124102E+04 -2.100259E+05  6.042729E+03 -2.332229E+03
       293   8 -5.721996E+05 -1.150693E+05 -4.431450E+04 -2.125798E+05  1.403736E+04 -9.514818E+02
       293   9 -5.957523E+05 -1.411501E+05 -6.546346E+04 -2.254442E+05  2.190758E+04  7.609101E+02
       293  10 -3.561615E+05 -4.229997E+04  1.536506E+04 -1.619269E+05 -1.938668E-10  2.107386E-11
       293  11 -3.338252E+05 -2.458501E+04  1.607553E+04 -1.459418E+05 -1.327788E-10 -3.515654E-11
       293  12 -3.049641E+05 -2.696321E+04  9.077186E+03 -1.402665E+05 -9.745556E-11  9.421535E-12
       293  13 -4.491927E+05 -7.573822E+04 -7.937631E+03 -1.859780E+05 -1.808561E-11  4.543699E-11
       293  14 -4.530194E+05 -6.982767E+04 -1.411907E+04 -1.792636E+05 -8.007994E-13  2.976118E-11
       293  15 -4.503688E+05 -8.405768E+04 -2.819272E+04 -1.828600E+05  1.084236E-10 -7.963846E-12
       293  16 -5.422158E+05 -1.091762E+05 -3.124110E+04 -2.100259E+05  7.692210E-11 -1.093853E-10
       293  17 -5.721999E+05 -1.150694E+05 -4.431488E+04 -2.125798E+05 -2.074014E-10  8.654071E-12
       293  18 -5.957528E+05 -1.411502E+05 -6.546436E+04 -2.254442E+05  2.326425E-11  9.174811E-12
       293  19 -3.561614E+05 -4.229995E+04  1.536519E+04 -1.619270E+05 -8.248953E+03  1.504890E+03
       293  20 -3.338250E+05 -2.458494E+04  1.607600E+04 -1.459418E+05 -1.578449E+04  2.960083E+02
       293  21 -3.049635E+05 -2.696306E+04  9.078201E+03 -1.402665E+05 -2.319632E+04 -1.244819E+03
       293  22 -4.491926E+05 -7.573821E+04 -7.937528E+03 -1.859780E+05 -7.145753E+03  1.918590E+03
       293  23 -4.530191E+05 -6.982761E+04 -1.411865E+04 -1.792637E+05 -1.491084E+04  6.237803E+02
       293  24 -4.503683E+05 -8.405754E+04 -2.819176E+04 -1.828599E+05 -2.255187E+04 -1.002830E+03
       293  25 -5.422158E+05 -1.091762E+05 -3.124102E+04 -2.100259E+05 -6.042729E+03  2.332229E+03
       293  26 -5.721996E+05 -1.150693E+05 -4.431450E+04 -2.125798E+05 -1.403736E+04  9.514818E+02
       293  27 -5.957523E+05 -1.411501E+05 -6.546346E+04 -2.254442E+05 -2.190758E+04 -7.609101E+02
       294   1 -2.691927E+05 -1.736295E+04  8.797166E+03 -1.552209E+05  3.048137E+04  2.128448E+03
       294   2 -2.517513E+05  2.344424E+04 -9.149666E+03 -1.128590E+05  5.887304E+04  1.214026E+04
       294   3 -2.705745E+05 -6.139181E+04 -7.957098E+04 -5.287979E+04  8.486312E+04  2.855669E+04
       294   4 -4.549614E+05 -7.147742E+04 -3.514722E+04 -1.902465E+05  2.785435E+04  1.143558E+03
       294   5 -4.439158E+05 -6.159937E+04 -6.027839E+04 -1.790217E+05  6.069463E+04  1.282211E+04
       294   6 -4.700339E+05 -1.782732E+05 -1.414233E+05 -1.501774E+05  9.113222E+04  3.090272E+04
       294   7 -6.406961E+05 -1.255923E+05 -7.909380E+04 -2.252640E+05  2.522819E+04  1.588289E+02
       294   8 -6.360423E+05 -1.466356E+05 -1.114099E+05 -2.451640E+05  6.251559E+04  1.350363E+04
       294   9 -6.694477E+05 -2.951303E+05 -2.032782E+05 -2.474400E+05  9.739904E+04  3.324682E+04
       294  10 -2.691937E+05 -1.736321E+04  8.795411E+03 -1.552210E+05 -1.036369E-10  1.085857E-10
       294  11 -2.517551E+05  2.344315E+04 -9.156459E+03 -1.128595E+05 -5.348816E-11  1.253969E-10
       294  12 -2.705825E+05 -6.139462E+04 -7.958605E+04 -5.288175E+04  1.325632E-11  9.678996E-11
       294  13 -4.549623E+05 -7.147763E+04 -3.514868E+04 -1.902465E+05 -1.365820E-11  8.869078E-11
       294  14 -4.439198E+05 -6.160053E+04 -6.028563E+04 -1.790223E+05  1.779209E-10 -2.792769E-11
       294  15 -4.700431E+05 -1.782765E+05 -1.414407E+05 -1.501796E+05 -3.508080E-10  2.058712E-11
       294  16 -6.406968E+05 -1.255925E+05 -7.909500E+04 -2.252640E+05  3.208191E-10 -9.383819E-12
       294  17 -6.360466E+05 -1.466369E+05 -1.114176E+05 -2.451647E+05 -9.238536E-11  1.064270E-10
       294  18 -6.694582E+05 -2.951341E+05 -2.032982E+05 -2.474426E+05 -1.514178E-10  3.770893E-11
       294  19 -2.691927E+05 -1.736295E+04  8.797166E+03 -1.552209E+05 -3.048137E+04 -2.128448E+03
       294  20 -2.517513E+05  2.344424E+04 -9.149666E+03 -1.128590E+05 -5.887304E+04 -1.214026E+04
       294  21 -2.705745E+05 -6.139181E+04 -7.957098E+04 -5.287979E+04 -8.486312E+04 -2.855669E+04
       294  22 -4.549614E+05 -7.147742E+04 -3.514722E+04 -1.902465E+05 -2.785435E+04 -1.143558E+03
       294  23 -4.439158E+05 -6.159937E+04 -6.027839E+04 -1.790217E+05 -6.069463E+04 -1.282211E+04
       294  24 -4.700339E+05 -1.782732E+05 -1.414233E+05 -1.501774E+05 -9.113222E+04 -3.090272E+04
       294  25 -6.406961E+05 -1.255923E+05 -7.909380E+04 -2.252640E+05 -2.522819E+04 -1.588289E+02
       294  26 -6.360423E+05 -1.466356E+05 -1.114099E+05 -2.451640E+05 -6.251559E+04 -1.350363E+04
       294  27 -6.694477E+05 -2.951303E+05 -2.032782E+05 -2.474400E+05 -9.739904E+04 -3.324682E+04
       295   1 -5.237410E+05 -1.300727E+05 -1.028293E+05 -1.126453E+04  5.889711E+04  1.121995E+04
       295   2 -4.458465E+05 -2.117009E+05 -1.366663E+05 -1.679068E+04  4.694807E+04  3.428508E+04
       295   3 -3.397463E+05 -1.884484E+05 -1.364145E+05 -6.801629E+04  3.501161E+04  3.362935E+04
       295   4  4.046314E+05  1.008819E+05  1.238546E+05 -5.315543E+04  8.495851E+04  1.123161E+04
       295   5  3.890495E+05 -6.292917E+03  5.546667E+04 -3.028452E+04  5.533570E+04  3.428353E+04
       295   6  4.046914E+05 -5.598065E+03  3.340067E+04 -5.310688E+04  2.572850E+04  3.362772E+04
       295   7  1.333795E+06  3.317799E+05  3.504792E+05 -9.510925E+04  1.110587E+05  1.123974E+04
       295   8  1.224591E+06  1.990670E+05  2.475539E+05 -4.379669E+04  6.373449E+04  3.428163E+04
       295   9  1.149644E+06  1.772147E+05  2.031801E+05 -3.817940E+04  1.643434E+04  3.362564E+04
       295  10 -5.237448E+05 -1.300737E+05 -1.028360E+05 -1.126506E+04  4.792812E-10  5.638769E-11
       295  11 -4.458491E+05 -2.117027E+05 -1.366727E+05 -1.679198E+04  2.869926E-10 -7.527129E-11
       295  12 -3.397479E+05 -1.884499E+05 -1.364189E+05 -6.801724E+04 -3.599979E-10  1.155348E-10
       295  13  4.046236E+05  1.008799E+05  1.238408E+05 -5.315620E+04 -3.208351E-11 -2.234109E-10
       295  14  3.890459E+05 -6.295001E+03  5.545871E+04 -3.028605E+04 -2.424565E-10 -1.915111E-10
       295  15  4.046904E+05 -5.599457E+03  3.339730E+04 -5.310758E+04 -2.307375E-11  1.596339E-11
       295  16  1.333782E+06  3.317765E+05  3.504559E+05 -9.511026E+04 -1.400559E-10  1.433108E-10
       295  17  1.224586E+06  1.990647E+05  2.475440E+05 -4.379845E+04 -6.953281E-10 -4.368900E-10
       295  18  1.149643E+06  1.772135E+05  2.031775E+05 -3.817985E+04 -1.503507E-10  3.632678E-11
       295  19 -5.237410E+05 -1.300727E+05 -1.028293E+05 -1.126453E+04 -5.889711E+04 -1.121995E+04
       295  20 -4.458465E+05 -2.117009E+05 -1.366663E+05 -1.679068E+04 -4.694807E+04 -3.428508E+04
       295  21 -3.397463E+05 -1.884484E+05 -1.364145E+05 -6.801629E+04 -3.501161E+04 -3.362935E+04
       295  22  4.046314E+05  1.008819E+05  1.238546E+05 -5.315543E+04 -8.495851E+04 -1.123161E+04
       295  23  3.890495E+05 -6.292917E+03  5.546667E+04 -3.028452E+04 -5.533570E+04 -3.428353E+04
       295  24  4.046914E+05 -5.598065E+03  3.340067E+04 -5.310688E+04 -2.572850E+04 -3.362772E+04
       295  25  1.333795E+06  3.317799E+05  3.504792E+05 -9.510925E+04 -1.110587E+05 -1.123974E+04
       295  26  1.224591E+06  1.990670E+05  2.475539E+05 -4.379669E+04 -6.373449E+04 -3.428163E+04
       295  27  1.149644E+06  1.772147E+05  2.031801E+05 -3.817940E+04 -1.643434E+04 -3.362564E+04
       296   1 -2.602800E+05 -1.547501E+05 -1.241455E+05 -5.066180E+04  2.280328E+04  2.825054E+04
       296   2 -1.706145E+05 -1.400489E+05 -1.155358E+05 -2.935609E+04  1.646098E+04  2.499261E+04
       296   3 -7.801931E+04 -1.174885E+05 -1.008014E+05 -5.424601E+04  1.011376E+04  2.060289E+04
       296   4  3.984587E+05  7.190486E+03  2.684351E+04 -5.322825E+04  2.081464E+04  2.824877E+04
       296   5  3.969418E+05 -5.950610E+02  1.422899E+04 -3.013318E+04  1.362344E+04  2.499218E+04
       296   6  3.984891E+05 -3.784263E+02  8.323314E+03 -5.323085E+04  6.428216E+03  2.060426E+04
       296   7  1.057599E+06  1.691009E+05  1.778040E+05 -5.579741E+04  1.882391E+04  2.824701E+04
       296   8  9.647965E+05  1.388364E+05  1.439727E+05 -3.091095E+04  1.078333E+04  2.499176E+04
       296   9  8.752079E+05  1.167159E+05  1.174332E+05 -5.221485E+04  2.739869E+03  2.060563E+04
       296  10 -2.602808E+05 -1.547511E+05 -1.241479E+05 -5.066232E+04  2.858294E-10 -6.871783E-11
       296  11 -1.706150E+05 -1.400496E+05 -1.155375E+05 -2.935642E+04 -2.025384E-10 -3.430056E-10
       296  12 -7.801954E+04 -1.174890E+05 -1.008024E+05 -5.424618E+04 -7.304058E-10  2.601597E-10
       296  13  3.984580E+05  7.189512E+03  2.684120E+04 -5.322872E+04 -3.362681E-10  1.167239E-10
       296  14  3.969414E+05 -5.957816E+02  1.422747E+04 -3.013345E+04  2.334967E-10 -4.151690E-10
       296  15  3.984890E+05 -3.788933E+02  8.322439E+03 -5.323095E+04 -3.065462E-10  2.632170E-10
       296  16  1.057599E+06  1.690999E+05  1.778018E+05 -5.579783E+04 -5.316251E-10  2.342520E-10
       296  17  9.647962E+05  1.388357E+05  1.439713E+05 -3.091116E+04  3.662098E-11 -1.165504E-10
       296  18  8.752078E+05  1.167154E+05  1.174324E+05 -5.221490E+04  1.606397E-10  2.981017E-11
       296  19 -2.602800E+05 -1.547501E+05 -1.241455E+05 -5.066180E+04 -2.280328E+04 -2.825054E+04
       296  20 -1.706145E+05 -1.400489E+05 -1.155358E+05 -2.935609E+04 -1.646098E+04 -2.499261E+04
       296  21 -7.801931E+04 -1.174885E+05 -1.008014E+05 -5.424601E+04 -1.011376E+04 -2.060289E+04
       296  22  3.984587E+05  7.190486E+03  2.684351E+04 -5.322825E+04 -2.081464E+04 -2.824877E+04
       296  23  3.969418E+05 -5.950610E+02  1.422899E+04 -3.013318E+04 -1.362344E+04 -2.499218E+04
       296  24  3.984891E+05 -3.784263E+02  8.323314E+03 -5.323085E+04 -6.428216E+03 -2.060426E+04
       296  25  1.057599E+06  1.691009E+05  1.778040E+05 -5.579741E+04 -1.882391E+04 -2.824701E+04
       296  26  9.647965E+05  1.388364E+05  1.439727E+05 -3.091095E+04 -1.078333E+04 -2.499176E+04
       296  27  8.752079E+05  1.167159E+05  1.174332E+05 -5.221485E+04 -2.739869E+03 -2.060563E+04
       297   1  6.288862E+03 -9.563064E+04 -8.281963E+04 -5.295314E+04  8.457843E+03  1.781140E+04
       297   2  9.686086E+04 -7.394268E+04 -6.508893E+04 -3.003873E+04  6.673618E+03  1.330789E+04
       297   3  1.877914E+05 -5.160158E+04 -4.604408E+04 -5.315830E+04  4.887003E+03  8.754186E+03
       297   4  3.979052E+05  5.272589E+02  6.433263E+03 -5.319421E+04  5.126825E+03  1.781318E+04
       297   5  3.977343E+05 -3.371313E+01  3.660706E+03 -3.017813E+04  3.303980E+03  1.331038E+04
       297   6  3.979204E+05  6.538403E+01  2.228705E+03 -5.319465E+04  1.479001E+03  8.757444E+03
       297   7  7.896638E+05  9.667454E+04  9.567621E+04 -5.343541E+04  1.793723E+03  1.781496E+04
       297   8  6.986915E+05  7.386898E+04  7.240446E+04 -3.031758E+04 -6.727709E+01  1.331288E+04
       297   9  6.080903E+05  5.172927E+04  5.049862E+04 -5.323100E+04 -1.930145E+03  8.760702E+03
       297  10  6.288700E+03 -9.563100E+04 -8.282036E+04 -5.295326E+04 -4.863707E-10  1.875968E-10
       297  11  9.686076E+04 -7.394288E+04 -6.508935E+04 -3.003880E+04 -4.384709E-10  2.606711E-10
       297  12  1.877913E+05 -5.160167E+04 -4.604427E+04 -5.315834E+04  3.488456E-10 -6.070272E-10
       297  13  3.979051E+05  5.269111E+02  6.432617E+03 -5.319429E+04 -2.565524E-10  2.439772E-10
       297  14  3.977342E+05 -3.390634E+01  3.660353E+03 -3.017816E+04 -2.772407E-11  5.569686E-10
       297  15  3.979204E+05  6.530107E+01  2.228557E+03 -5.319466E+04 -9.017743E-11  5.936822E-10
       297  16  7.896637E+05  9.667420E+04  9.567561E+04 -5.343543E+04 -3.434173E-10  8.378576E-11
       297  17  6.986915E+05  7.386879E+04  7.240413E+04 -3.031758E+04  2.603473E-10 -5.400501E-10
       297  18  6.080903E+05  5.172919E+04  5.049847E+04 -5.323099E+04 -4.703021E-10 -3.020216E-10
       297  19  6.288862E+03 -9.563064E+04 -8.281963E+04 -5.295314E+04 -8.457843E+03 -1.781140E+04
       297  20  9.686086E+04 -7.394268E+04 -6.508893E+04 -3.003873E+04 -6.673618E+03 -1.330789E+04
       297  21  1.877914E+05 -5.160158E+04 -4.604408E+04 -5.315830E+04 -4.887003E+03 -8.754186E+03
       297  22  3.979052E+05  5.272589E+02  6.433263E+03 -5.319421E+04 -5.126825E+03 -1.781318E+04
       297  23  3.977343E+05 -3.371313E+01  3.660706E+03 -3.017813E+04 -3.303980E+03 -1.331038E+04
       297  24  3.979204E+05  6.538403E+01  2.228705E+03 -5.319465E+04 -1.479001E+03 -8.757444E+03
       297  25  7.896638E+05  9.667454E+04  9.567621E+04 -5.343541E+04 -1.793723E+03 -1.781496E+04
       297  26  6.986915E+05  7.386898E+04  7.240446E+04 -3.031758E+04  6.727709E+01 -1.331288E+04
       297  27  6.080903E+05  5.172927E+04  5.049862E+04 -5.323100E+04  1.930145E+03 -8.760702E+03
       298   1  2.723619E+05 -3.064605E+04 -2.661746E+04 -5.311482E+04  4.503707E+03  6.094257E+03
       298   2  3.629737E+05 -8.518376E+03 -6.688379E+03 -3.018652E+04  3.868535E+03  1.539353E+03
       298   3  4.535953E+05  1.373922E+04  1.365996E+04 -5.321637E+04  3.233035E+03 -3.017569E+03
       298   4  3.978488E+05  1.233070E+02  1.788441E+03 -5.317793E+04  1.113942E+03  6.097750E+03
       298   5  3.978478E+05  4.693695E+01  1.278832E+03 -3.019895E+04  4.769723E+02  1.542914E+03
       298   6  3.978505E+05  1.016407E+02  1.190357E+03 -5.317796E+04 -1.602340E+02 -3.013909E+03
       298   7  5.233503E+05  3.089158E+04  3.019337E+04 -5.324104E+04 -2.276501E+03  6.101243E+03
       298   8  4.327230E+05  8.612172E+03  9.246007E+03 -3.021138E+04 -2.914779E+03  1.546475E+03
       298   9  3.421087E+05 -1.353614E+04 -1.127940E+04 -5.313956E+04 -3.553202E+03 -3.010248E+03
       298  10  2.723619E+05 -3.064609E+04 -2.661757E+04 -5.311484E+04  3.821789E-10 -3.271377E-10
       298  11  3.629737E+05 -8.518383E+03 -6.688412E+03 -3.018652E+04  1.282941E-10 -2.792669E-11
       298  12  4.535953E+05  1.373920E+04  1.365992E+04 -5.321636E+04  4.974925E-10 -1.074464E-10
       298  13  3.978488E+05  1.232667E+02  1.788368E+03 -5.317793E+04  9.228806E-11 -9.469677E-10
       298  14  3.978478E+05  4.693433E+01  1.278827E+03 -3.019895E+04  5.542539E-11  1.738987E-10
       298  15  3.978505E+05  1.016309E+02  1.190340E+03 -5.317796E+04  4.582960E-10 -5.861562E-10
       298  16  5.233503E+05  3.089154E+04  3.019329E+04 -5.324103E+04 -3.697709E-10  7.098860E-11
       298  17  4.327230E+05  8.612167E+03  9.245987E+03 -3.021138E+04 -7.426216E-11 -2.447622E-10
       298  18  3.421087E+05 -1.353615E+04 -1.127944E+04 -5.313957E+04 -4.815962E-10 -8.645519E-10
       298  19  2.723619E+05 -3.064605E+04 -2.661746E+04 -5.311482E+04 -4.503707E+03 -6.094257E+03
       298  20  3.629737E+05 -8.518376E+03 -6.688379E+03 -3.018652E+04 -3.868535E+03 -1.539353E+03
       298  21  4.535953E+05  1.373922E+04  1.365996E+04 -5.321637E+04 -3.233035E+03  3.017569E+03
       298  22  3.978488E+05  1.233070E+02  1.788441E+03 -5.317793E+04 -1.113942E+03 -6.097750E+03
       298  23  3.978478E+05  4.693695E+01  1.278832E+03 -3.019895E+04 -4.769723E+02 -1.542914E+03
       298  24  3.978505E+05  1.016407E+02  1.190357E+03 -5.317796E+04  1.602340E+02  3.013909E+03
       298  25  5.233503E+05  3.089158E+04  3.019337E+04 -5.324104E+04  2.276501E+03 -6.101243E+03
       298  26  4.327230E+05  8.612172E+03  9.246007E+03 -3.021138E+04  2.914779E+03 -1.546475E+03
       298  27  3.421087E+05 -1.353614E+04 -1.127940E+04 -5.313956E+04  3.553202E+03  3.010248E+03
       299   1  5.382429E+05  3.462794E+04  3.361550E+04 -5.328004E+04  3.006894E+03 -5.670719E+03
       299   2  6.289186E+05  5.677426E+04  5.456154E+04 -3.030351E+04  2.124603E+03 -1.022969E+04
       299   3  7.196839E+05  7.907565E+04  7.610228E+04 -5.332638E+04  1.243790E+03 -1.478923E+04
       299   4  3.978636E+05  1.006102E+02  1.284423E+03 -5.318740E+04 -3.877845E+02 -5.667205E+03
       299   5  3.978176E+05  2.341281E+01  1.774028E+03 -3.018715E+04 -1.270457E+03 -1.022674E+04
       299   6  3.978522E+05  1.015909E+02  2.858792E+03 -5.318737E+04 -2.151527E+03 -1.478680E+04
       299   7  2.575026E+05 -3.442809E+04 -3.104792E+04 -5.309477E+04 -3.781702E+03 -5.663692E+03
       299   8  1.667660E+05 -5.673113E+04 -5.101694E+04 -3.007083E+04 -4.664266E+03 -1.022379E+04
       299   9  7.611643E+04 -7.887962E+04 -7.039139E+04 -5.304840E+04 -5.545100E+03 -1.478438E+04
       299  10  5.382428E+05  3.462790E+04  3.361543E+04 -5.328003E+04 -1.676226E-10  5.373480E-10
       299  11  6.289186E+05  5.677414E+04  5.456134E+04 -3.030349E+04  3.386185E-10  1.199233E-09
       299  12  7.196838E+05  7.907542E+04  7.610187E+04 -5.332637E+04  3.420213E-10 -6.307546E-10
       299  13  3.978636E+05  1.005757E+02  1.284363E+03 -5.318740E+04  2.524121E-10 -1.150713E-10
       299  14  3.978175E+05  2.330005E+01  1.773828E+03 -3.018716E+04  6.817069E-11 -6.480602E-10
       299  15  3.978521E+05  1.013548E+02  2.858372E+03 -5.318739E+04 -1.466387E-10  2.155964E-10
       299  16  2.575026E+05 -3.442813E+04 -3.104801E+04 -5.309479E+04  2.255095E-10 -1.698274E-10
       299  17  1.667659E+05 -5.673125E+04 -5.101717E+04 -3.007087E+04 -2.130919E-10 -3.548142E-10
       299  18  7.611634E+04 -7.887987E+04 -7.039186E+04 -5.304847E+04 -9.625273E-10  1.590906E-10
       299  19  5.382429E+05  3.462794E+04  3.361550E+04 -5.328004E+04 -3.006894E+03  5.670719E+03
       299  20  6.289186E+05  5.677426E+04  5.456154E+04 -3.030351E+04 -2.124603E+03  1.022969E+04
       299  21  7.196839E+05  7.907565E+04  7.610228E+04 -5.332638E+04 -1.243790E+03  1.478923E+04
       299  22  3.978636E+05  1.006102E+02  1.284423E+03 -5.318740E+04  3.877845E+02  5.667205E+03
       299  23  3.978176E+05  2.341281E+01  1.774028E+03 -3.018715E+04  1.270457E+03  1.022674E+04
       299  24  3.978522E+05  1.015909E+02  2.858792E+03 -5.318737E+04  2.151527E+03  1.478680E+04
       299  25  2.575026E+05 -3.442809E+04 -3.104792E+04 -5.309477E+04  3.781702E+03  5.663692E+03
       299  26  1.667660E+05 -5.673113E+04 -5.101694E+04 -3.007083E+04  4.664266E+03  1.022379E+04
       299  27  7.611643E+04 -7.887962E+04 -7.039139E+04 -5.304840E+04  5.545100E+03  1.478438E+04
       300   1  8.046643E+05  9.991018E+04  9.683706E+04 -5.323908E+04  6.754718E+02 -1.745481E+04
       300   2  8.953437E+05  1.220772E+05  1.199497E+05 -3.024637E+04 -2.492495E+03 -2.201641E+04
       300   3  9.867863E+05  1.453315E+05  1.454078E+05 -5.341704E+04 -5.657426E+03 -2.652017E+04
       300   4  3.979855E+05  1.661734E+00  3.692088E+03 -5.322423E+04 -2.743909E+03 -1.745292E+04
       300   5  3.975987E+05 -1.335565E+02  6.271323E+03 -3.014117E+04 -5.866758E+03 -2.201574E+04
       300   6  3.979603E+05  8.119232E+02  1.116653E+04 -5.322375E+04 -8.986116E+03 -2.652067E+04
       300   7 -8.540112E+03 -9.991836E+04 -8.946371E+04 -5.320936E+04 -6.161071E+03 -1.745103E+04
       300   8 -9.991685E+04 -1.223615E+05 -1.074232E+05 -3.003602E+04 -9.238341E+03 -2.201507E+04
       300   9 -1.905445E+05 -1.437316E+05 -1.230973E+05 -5.303060E+04 -1.231168E+04 -2.652116E+04
       300  10  8.046642E+05  9.990986E+04  9.683649E+04 -5.323907E+04  5.907682E-10 -1.045955E-09
       300  11  8.953436E+05  1.220766E+05  1.199488E+05 -3.024642E+04 -2.381320E-10 -1.445905E-10
       300  12  9.867861E+05  1.453307E+05  1.454064E+05 -5.341716E+04 -8.356888E-10  1.261778E-10
       300  13  3.979855E+05  1.332556E+00  3.691501E+03 -5.322427E+04 -3.158151E-10  2.457726E-10
       300  14  3.975986E+05 -1.340863E+02  6.270348E+03 -3.014128E+04  4.714984E-10 -6.246667E-10
       300  15  3.979601E+05  8.111461E+02  1.116506E+04 -5.322394E+04  1.207017E-10 -1.216353E-10
       300  16 -8.540234E+03 -9.991869E+04 -8.946435E+04 -5.320944E+04 -6.094109E-10  2.769117E-10
       300  17 -9.991707E+04 -1.223620E+05 -1.074243E+05 -3.003618E+04  1.920419E-10  1.775408E-10
       300  18 -1.905449E+05 -1.437324E+05 -1.230989E+05 -5.303086E+04  7.332292E-10  1.659469E-10
       300  19  8.046643E+05  9.991018E+04  9.683706E+04 -5.323908E+04 -6.754718E+02  1.745481E+04
       300  20  8.953437E+05  1.220772E+05  1.199497E+05 -3.024637E+04  2.492495E+03  2.201641E+04
       300  21  9.867863E+05  1.453315E+05  1.454078E+05 -5.341704E+04  5.657426E+03  2.652017E+04
       300  22  3.979855E+05  1.661734E+00  3.692088E+03 -5.322423E+04  2.743909E+03  1.745292E+04
       300  23  3.975987E+05 -1.335565E+02  6.271323E+03 -3.014117E+04  5.866758E+03  2.201574E+04
       300  24  3.979603E+05  8.119232E+02  1.116653E+04 -5.322375E+04  8.986116E+03  2.652067E+04
       300  25 -8.540112E+03 -9.991836E+04 -8.946371E+04 -5.320936E+04  6.161071E+03  1.745103E+04
       300  26 -9.991685E+04 -1.223615E+05 -1.074232E+05 -3.003602E+04  9.238341E+03  2.201507E+04
       300  27 -1.905445E+05 -1.437316E+05 -1.230973E+05 -5.303060E+04  1.231168E+04  2.652116E+04
       301   1  1.073107E+06  1.647756E+05  1.686516E+05 -5.120211E+04 -7.487103E+03 -2.934839E+04
       301   2  1.161950E+06  1.868956E+05  1.997335E+05 -3.106670E+04 -2.105747E+04 -3.372118E+04
       301   3  1.256402E+06  2.230874E+05  2.432248E+05 -5.734167E+04 -3.462524E+04 -3.673445E+04
       301   4  3.989756E+05 -7.694112E+02  1.448008E+04 -5.327847E+04 -1.124457E+04 -2.934972E+04
       301   5  3.962381E+05 -1.092662E+03  2.481373E+04 -3.007304E+04 -2.378813E+04 -3.372439E+04
       301   6  3.989336E+05  1.248900E+04  4.685618E+04 -5.328113E+04 -3.632715E+04 -3.673890E+04
       301   7 -2.747355E+05 -1.663460E+05 -1.397212E+05 -5.535251E+04 -1.499799E+04 -2.935103E+04
       301   8 -3.689312E+05 -1.891216E+05 -1.501443E+05 -2.908061E+04 -2.651545E+04 -3.372762E+04
       301   9 -4.578551E+05 -1.981605E+05 -1.495607E+05 -4.922627E+04 -3.802670E+04 -3.674336E+04
       301  10  1.073107E+06  1.647747E+05  1.686499E+05 -5.120229E+04 -6.853329E-10  5.573357E-10
       301  11  1.161949E+06  1.868942E+05  1.997305E+05 -3.106727E+04 -4.013773E-10  4.583407E-10
       301  12  1.256401E+06  2.230856E+05  2.432200E+05 -5.734269E+04 -3.561842E-10 -1.650019E-10
       301  13  3.989752E+05 -7.703703E+02  1.447822E+04 -5.327873E+04  4.245813E-12  1.758447E-10
       301  14  3.962371E+05 -1.094035E+03  2.481053E+04 -3.007368E+04  7.940149E-11  9.130674E-12
       301  15  3.989318E+05  1.248719E+04  4.685116E+04 -5.328220E+04  2.245180E-10 -3.975763E-11
       301  16 -2.747359E+05 -1.663470E+05 -1.397232E+05 -5.535286E+04  2.444557E-10  1.700730E-10
       301  17 -3.689322E+05 -1.891230E+05 -1.501478E+05 -2.908133E+04  4.430216E-10  1.044687E-10
       301  18 -4.578571E+05 -1.981623E+05 -1.495660E+05 -4.922739E+04 -1.647749E-10  3.888739E-10
       301  19  1.073107E+06  1.647756E+05  1.686516E+05 -5.120211E+04  7.487103E+03  2.934839E+04
       301  20  1.161950E+06  1.868956E+05  1.997335E+05 -3.106670E+04  2.105747E+04  3.372118E+04
       301  21  1.256402E+06  2.230874E+05  2.432248E+05 -5.734167E+04  3.462524E+04  3.673445E+04
       301  22  3.989756E+05 -7.694112E+02  1.448008E+04 -5.327847E+04  1.124457E+04  2.934972E+04
       301  23  3.962381E+05 -1.092662E+03  2.481373E+04 -3.007304E+04  2.378813E+04  3.372439E+04
       301  24  3.989336E+05  1.248900E+04  4.685618E+04 -5.328113E+04  3.632715E+04  3.673890E+04
       301  25 -2.747355E+05 -1.663460E+05 -1.397212E+05 -5.535251E+04  1.499799E+04  2.935103E+04
       301  26 -3.689312E+05 -1.891216E+05 -1.501443E+05 -2.908061E+04  2.651545E+04  3.372762E+04
       301  27 -4.578551E+05 -1.981605E+05 -1.495607E+05 -4.922627E+04  3.802670E+04  3.674336E+04
       302   1  1.353612E+06  2.217845E+05  2.733506E+05 -2.659165E+04 -3.439284E+04 -4.268776E+04
       302   2  1.417390E+06  2.432825E+05  3.346930E+05 -5.338600E+04 -1.074499E+05 -4.261922E+04
       302   3  1.539261E+06  4.565803E+05  4.916180E+05 -1.261599E+05 -1.805631E+05 -1.398790E+04
       302   4  4.098007E+05 -9.835992E+03  5.830495E+04 -5.312202E+04 -4.489982E+04 -4.269724E+04
       302   5  3.825243E+05 -1.098373E+04  9.686081E+04 -3.024779E+04 -9.659690E+04 -4.261690E+04
       302   6  4.097190E+05  1.761273E+05  2.162755E+05 -5.334670E+04 -1.483364E+05 -1.396424E+04
       302   7 -5.331840E+05 -2.415155E+05 -1.567979E+05 -7.961187E+04 -5.539096E+04 -4.270584E+04
       302   8 -6.513503E+05 -2.653226E+05 -1.410414E+05 -7.148616E+03 -8.576170E+04 -4.261377E+04
       302   9 -7.186480E+05 -1.043991E+05 -5.915285E+04  1.933363E+04 -1.161678E+05 -1.393302E+04
       302  10  1.353610E+06  2.217823E+05  2.733449E+05 -2.659283E+04 -5.441630E-10  1.359415E-12
       302  11  1.417377E+06  2.432775E+05  3.346679E+05 -5.338969E+04  1.154088E-10  2.009677E-10
       302  12  1.539226E+06  4.565714E+05  4.915565E+05 -1.261619E+05  2.916535E-10 -2.792963E-10
       302  13  4.097980E+05 -9.838491E+03  5.829774E+04 -5.312356E+04 -6.513106E-10  6.370131E-10
       302  14  3.825138E+05 -1.098818E+04  9.683987E+04 -3.025110E+04  2.357048E-11  1.857156E-09
       302  15  4.096953E+05  1.761211E+05  2.162338E+05 -5.334836E+04 -2.168054E-10 -7.557489E-11
       302  16 -5.331878E+05 -2.415183E+05 -1.568071E+05 -7.961377E+04  4.872083E-10  5.328122E-10
       302  17 -6.513586E+05 -2.653265E+05 -1.410586E+05 -7.151560E+03 -1.370830E-10  3.118475E-10
       302  18 -7.186626E+05 -1.044029E+05 -5.917860E+04  1.933232E+04  9.046089E-11 -5.754615E-10
       302  19  1.353612E+06  2.217845E+05  2.733506E+05 -2.659165E+04  3.439284E+04  4.268776E+04
       302  20  1.417390E+06  2.432825E+05  3.346930E+05 -5.338600E+04  1.074499E+05  4.261922E+04
       302  21  1.539261E+06  4.565803E+05  4.916180E+05 -1.261599E+05  1.805631E+05  1.398790E+04
       302  22  4.098007E+05 -9.835992E+03  5.830495E+04 -5.312202E+04  4.489982E+04  4.269724E+04
       302  23  3.825243E+05 -1.098373E+04  9.686081E+04 -3.024779E+04  9.659690E+04  4.261690E+04
       302  24  4.097190E+05  1.761273E+05  2.162755E+05 -5.334670E+04  1.483364E+05  1.396424E+04
       302  25 -5.331840E+05 -2.415155E+05 -1.567979E+05 -7.961187E+04  5.539096E+04  4.270584E+04
       302  26 -6.513503E+05 -2.653226E+05 -1.410414E+05 -7.148616E+03  8.576170E+04  4.261377E+04
       302  27 -7.186480E+05 -1.043991E+05 -5.915285E+04  1.933363E+04  1.161678E+05  1.393302E+04
       303   1  2.283850E+05  8.494365E+05  2.406858E+05 -1.455778E+05  6.534268E+03  7.102454E+04
       303   2  1.058168E+05  6.370090E+05  1.397157E+05 -7.595199E+04  1.763683E+04  3.790248E+04
       303   3  5.710943E+04  4.472069E+05  7.871626E+04 -1.075070E+05  1.067327E+04  4.770553E+03
       303   4  6.698300E+04  2.011573E+05  8.190951E+04 -1.170286E+05  6.554538E+03  5.602497E+04
       303   5 -3.935866E+03  1.910454E+05  3.684109E+04 -6.647868E+04  1.764016E+04  3.637680E+04
       303   6 -3.297171E+03  2.012114E+05  2.242089E+04 -1.171079E+05  1.065591E+04  1.670789E+04
       303   7 -9.444697E+04 -4.467372E+05 -7.689626E+04 -8.850903E+04  6.573443E+03  4.104099E+04
       303   8 -1.137022E+05 -2.547343E+05 -6.604672E+04 -5.701216E+04  1.764345E+04  3.485219E+04
       303   9 -6.370755E+04 -4.472758E+04 -3.387786E+04 -1.267050E+05  1.063819E+04  2.864054E+04
       303  10  2.283836E+05  8.494311E+05  2.406762E+05 -1.455782E+05 -2.284919E-10 -2.970221E-10
       303  11  1.058161E+05  6.370074E+05  1.397124E+05 -7.595252E+04 -1.664290E-10 -6.491553E-10
       303  12  5.710931E+04  4.472068E+05  7.871601E+04 -1.075071E+05  7.354997E-10  1.260443E-10
       303  13  6.698211E+04  2.011539E+05  8.190354E+04 -1.170289E+05  4.193129E-10 -2.714049E-10
       303  14 -3.936556E+03  1.910439E+05  3.683802E+04 -6.647920E+04 -1.002547E-09 -2.569770E-10
       303  15 -3.297368E+03  2.012110E+05  2.242015E+04 -1.171081E+05  3.516247E-10  1.758221E-10
       303  16 -9.444747E+04 -4.467391E+05 -7.689951E+04 -8.850925E+04  4.357590E-11  2.287470E-11
       303  17 -1.137028E+05 -2.547357E+05 -6.604959E+04 -5.701265E+04  2.573634E-10  3.306005E-10
       303  18 -6.370789E+04 -4.472849E+04 -3.387962E+04 -1.267052E+05 -6.375767E-11 -3.665001E-10
       303  19  2.283850E+05  8.494365E+05  2.406858E+05 -1.455778E+05 -6.534268E+03 -7.102454E+04
       303  20  1.058168E+05  6.370090E+05  1.397157E+05 -7.595199E+04 -1.763683E+04 -3.790248E+04
       303  21  5.710943E+04  4.472069E+05  7.871626E+04 -1.075070E+05 -1.067327E+04 -4.770553E+03
       303  22  6.698300E+04  2.011573E+05  8.190951E+04 -1.170286E+05 -6.554538E+03 -5.602497E+04
       303  23 -3.935866E+03  1.910454E+05  3.684109E+04 -6.647868E+04 -1.764016E+04 -3.637680E+04
       303  24 -3.297171E+03  2.012114E+05  2.242089E+04 -1.171079E+05 -1.065591E+04 -1.670789E+04
       303  25 -9.444697E+04 -4.467372E+05 -7.689626E+04 -8.850903E+04 -6.573443E+03 -4.104099E+04
       303  26 -1.137022E+05 -2.547343E+05 -6.604672E+04 -5.701216E+04 -1.764345E+04 -3.485219E+04
       303  27 -6.370755E+04 -4.472758E+04 -3.387786E+04 -1.267050E+05 -1.063819E+04 -2.864054E+04
       304   1  1.935869E+04  2.551723E+05  3.144822E+04 -1.189952E+05  2.589030E+03  6.642485E+03
       304   2 -3.530970E+04  5.338250E+04 -2.244747E+04 -6.654127E+04 -6.287055E+03  1.719863E+03
       304   3 -8.400654E+04 -1.465427E+05 -7.172254E+04 -1.158880E+05 -1.482903E+04 -3.198752E+03
       304   4  5.098097E+03  1.971335E+05  1.820034E+04 -1.172190E+05  2.578904E+03  1.337785E+04
       304   5 -2.222750E+02  1.961905E+05  1.020541E+04 -6.632296E+04 -6.296095E+03  8.206268E+03
       304   6  4.746995E+02  1.971188E+05  7.007221E+03 -1.172255E+05 -1.483714E+04  3.037146E+03
       304   7 -9.162696E+03  1.390980E+05  4.952405E+03 -1.154431E+05  2.568816E+03  2.011259E+04
       304   8  3.486375E+04  3.390175E+05  4.285712E+04 -6.610459E+04 -6.305130E+03  1.469415E+04
       304   9  8.494774E+04  5.408899E+05  8.572937E+04 -1.185638E+05 -1.484526E+04  9.276467E+03
       304  10  1.935867E+04  2.551722E+05  3.144812E+04 -1.189952E+05 -6.498307E-11 -6.278177E-10
       304  11 -3.530974E+04  5.338249E+04 -2.244755E+04 -6.654126E+04  2.785865E-10 -8.355800E-10
       304  12 -8.400678E+04 -1.465427E+05 -7.172297E+04 -1.158880E+05 -8.486190E-10  2.267242E-10
       304  13  5.098042E+03  1.971333E+05  1.819999E+04 -1.172190E+05  4.776981E-11 -3.354822E-10
       304  14 -2.223357E+02  1.961904E+05  1.020521E+04 -6.632292E+04  7.284994E-10 -2.985060E-10
       304  15  4.744606E+02  1.971188E+05  7.006790E+03 -1.172255E+05  8.916777E-10  6.470400E-11
       304  16 -9.162812E+03  1.390975E+05  4.951633E+03 -1.154431E+05 -2.948489E-10  2.541931E-10
       304  17  3.486365E+04  3.390172E+05  4.285664E+04 -6.610452E+04 -7.371774E-10  4.290129E-10
       304  18  8.494748E+04  5.408897E+05  8.572879E+04 -1.185637E+05 -2.205331E-10 -3.045311E-10
       304  19  1.935869E+04  2.551723E+05  3.144822E+04 -1.189952E+05 -2.589030E+03 -6.642485E+03
       304  20 -3.530970E+04  5.338250E+04 -2.244747E+04 -6.654127E+04  6.287055E+03 -1.719863E+03
       304  21 -8.400654E+04 -1.465427E+05 -7.172254E+04 -1.158880E+05  1.482903E+04  3.198752E+03
       304  22  5.098097E+03  1.971335E+05  1.820034E+04 -1.172190E+05 -2.578904E+03 -1.337785E+04
       304  23 -2.222750E+02  1.961905E+05  1.020541E+04 -6.632296E+04  6.296095E+03 -8.206268E+03
       304  24  4.746995E+02  1.971188E+05  7.007221E+03 -1.172255E+05  1.483714E+04 -3.037146E+03
       304  25 -9.162696E+03  1.390980E+05  4.952405E+03 -1.154431E+05 -2.568816E+03 -2.011259E+04
       304  26  3.486375E+04  3.390175E+05  4.285712E+04 -6.610459E+04  6.305130E+03 -1.469415E+04
       304  27  8.494774E+04  5.408899E+05  8.572937E+04 -1.185638E+05  1.484526E+04 -9.276467E+03
       305   1 -1.304278E+05 -3.344633E+05 -1.153324E+05 -1.175589E+05 -2.366119E+04 -1.179785E+04
       305   2 -1.804344E+05 -5.352856E+05 -1.630986E+05 -6.507391E+04 -2.954109E+04  4.015304E+03
       305   3 -2.257923E+05 -7.368850E+05 -2.199933E+05 -1.136192E+05 -1.032209E+04  1.984161E+04
       305   4  2.058328E+02  1.972017E+05  6.127957E+03 -1.170530E+05 -2.367742E+04  1.892784E+03
       305   5 -4.431476E+02  1.959505E+05  5.444146E+03 -6.653922E+04 -2.953397E+04 -9.562304E+02
       305   6  6.796232E+03  1.971224E+05  8.595485E+03 -1.170479E+05 -1.030485E+04 -3.786642E+03
       305   7  1.308200E+05  7.291291E+05  1.275706E+05 -1.165466E+05 -2.369362E+04  1.559504E+04
       305   8  1.795107E+05  9.276815E+05  1.739515E+05 -6.800613E+04 -2.952683E+04 -5.933578E+03
       305   9  2.393205E+05  1.131926E+06  2.371226E+05 -1.204816E+05 -1.028737E+04 -2.745040E+04
       305  10 -1.304284E+05 -3.344636E+05 -1.153337E+05 -1.175591E+05 -4.443641E-10 -6.191460E-11
       305  11 -1.804354E+05 -5.352859E+05 -1.631003E+05 -6.507382E+04  1.955605E-10 -3.274903E-10
       305  12 -2.257925E+05 -7.368855E+05 -2.199942E+05 -1.136190E+05 -4.937737E-12  2.590762E-11
       305  13  2.052298E+02  1.972015E+05  6.126897E+03 -1.170529E+05 -6.182928E-10 -1.509443E-10
       305  14 -4.440846E+02  1.959503E+05  5.442505E+03 -6.653924E+04  3.849041E-10 -2.752122E-10
       305  15  6.796114E+03  1.971223E+05  8.595258E+03 -1.170479E+05 -6.017418E-11  1.213505E-10
       305  16  1.308193E+05  7.291287E+05  1.275690E+05 -1.165463E+05  3.687753E-10 -2.720903E-10
       305  17  1.795098E+05  9.276812E+05  1.739498E+05 -6.800627E+04 -2.727108E-10 -1.225932E-12
       305  18  2.393202E+05  1.131925E+06  2.371210E+05 -1.204818E+05 -2.216730E-10 -6.189069E-12
       305  19 -1.304278E+05 -3.344633E+05 -1.153324E+05 -1.175589E+05  2.366119E+04  1.179785E+04
       305  20 -1.804344E+05 -5.352856E+05 -1.630986E+05 -6.507391E+04  2.954109E+04 -4.015304E+03
       305  21 -2.257923E+05 -7.368850E+05 -2.199933E+05 -1.136192E+05  1.032209E+04 -1.984161E+04
       305  22  2.058328E+02  1.972017E+05  6.127957E+03 -1.170530E+05  2.367742E+04 -1.892784E+03
       305  23 -4.431476E+02  1.959505E+05  5.444146E+03 -6.653922E+04  2.953397E+04  9.562304E+02
       305  24  6.796232E+03  1.971224E+05  8.595485E+03 -1.170479E+05  1.030485E+04  3.786642E+03
       305  25  1.308200E+05  7.291291E+05  1.275706E+05 -1.165466E+05  2.369362E+04 -1.559504E+04
       305  26  1.795107E+05  9.276815E+05  1.739515E+05 -6.800613E+04  2.952683E+04  5.933578E+03
       305  27  2.393205E+05  1.131926E+06  2.371226E+05 -1.204816E+05  1.028737E+04  2.745040E+04
       306   1 -1.430438E+06 -5.090467E+05 -3.179322E+05 -5.169917E+05 -1.444507E+05 -4.804919E+04
       306   2 -1.389284E+06 -2.986818E+05 -1.856590E+05 -5.185185E+05 -9.348919E+04 -1.590399E+04
       306   3 -1.407380E+06 -2.697705E+05 -1.409791E+05 -4.901084E+05 -3.822672E+04  4.808392E+03
       306   4 -1.055786E+06 -3.071510E+05 -2.051800E+05 -3.526105E+05 -1.326098E+05 -4.361652E+04
       306   5 -1.015985E+06 -1.397833E+05 -8.744517E+04 -3.966561E+05 -8.957463E+04 -1.443779E+04
       306   6 -1.033823E+06 -1.522404E+05 -5.097595E+04 -4.107765E+05 -4.224075E+04  3.301996E+03
       306   7 -6.809871E+05 -1.051961E+05 -9.244046E+04 -1.881248E+05 -1.207610E+05 -3.917797E+04
       306   8 -6.425489E+05  1.913589E+04  1.075662E+04 -2.747231E+05 -8.565749E+04 -1.297032E+04
       306   9 -6.601298E+05 -3.471070E+04  3.901700E+04 -3.314061E+05 -4.625740E+04  1.794976E+03
       306  10 -1.430461E+06 -5.090549E+05 -3.179758E+05 -5.169973E+05  5.583528E-10  2.011357E-10
       306  11 -1.389293E+06 -2.986844E+05 -1.856759E+05 -5.185197E+05  2.945461E-09  1.639395E-09
       306  12 -1.407382E+06 -2.697709E+05 -1.409819E+05 -4.901082E+05  2.251325E-09  3.468832E-10
       306  13 -1.055805E+06 -3.071578E+05 -2.052167E+05 -3.526152E+05  2.515525E-09  3.765168E-10
       306  14 -1.015994E+06 -1.397857E+05 -8.746067E+04 -3.966571E+05  2.953545E-09  1.788215E-09
       306  15 -1.033825E+06 -1.522409E+05 -5.097933E+04 -4.107764E+05  1.218043E-09  4.280590E-10
       306  16 -6.810032E+05 -1.052017E+05 -9.247079E+04 -1.881286E+05  2.519054E-09  5.981123E-10
       306  17 -6.425569E+05  1.913374E+04  1.074250E+04 -2.747240E+05  3.205648E-09  1.116520E-09
       306  18 -6.601321E+05 -3.471128E+04  3.901297E+04 -3.314060E+05 -3.693443E-11  4.356049E-10
       306  19 -1.430438E+06 -5.090467E+05 -3.179322E+05 -5.169917E+05  1.444507E+05  4.804919E+04
       306  20 -1.389284E+06 -2.986818E+05 -1.856590E+05 -5.185185E+05  9.348919E+04  1.590399E+04
       306  21 -1.407380E+06 -2.697705E+05 -1.409791E+05 -4.901084E+05  3.822672E+04 -4.808392E+03
       306  22 -1.055786E+06 -3.071510E+05 -2.051800E+05 -3.526105E+05  1.326098E+05  4.361652E+04
       306  23 -1.015985E+06 -1.397833E+05 -8.744517E+04 -3.966561E+05  8.957463E+04  1.443779E+04
       306  24 -1.033823E+06 -1.522404E+05 -5.097595E+04 -4.107765E+05  4.224075E+04 -3.301996E+03
       306  25 -6.809871E+05 -1.051961E+05 -9.244046E+04 -1.881248E+05  1.207610E+05  3.917797E+04
       306  26 -6.425489E+05  1.913589E+04  1.075662E+04 -2.747231E+05  8.565749E+04  1.297032E+04
       306  27 -6.601298E+05 -3.471070E+04  3.901700E+04 -3.314061E+05  4.625740E+04 -1.794976E+03
       307   1 -1.350941E+06 -2.957201E+05 -1.236172E+05 -4.928125E+05 -3.407495E+04  3.708847E+03
       307   2 -1.323776E+06 -2.627736E+05 -9.501784E+04 -4.784690E+05 -2.280282E+04  6.812578E+03
       307   3 -1.290652E+06 -2.557257E+05 -7.819131E+04 -4.751645E+05 -1.130395E+04  9.312457E+03
       307   4 -1.027100E+06 -1.705686E+05 -4.088810E+04 -4.001451E+05 -3.456265E+04  3.524903E+03
       307   5 -1.029262E+06 -1.516205E+05 -2.047521E+04 -3.968888E+05 -2.370510E+04  6.473469E+03
       307   6 -1.025382E+06 -1.584842E+05 -1.150145E+04 -4.046721E+05 -1.262145E+04  8.817977E+03
       307   7 -7.031546E+05 -4.540790E+04  4.183283E+04 -3.074328E+05 -3.505062E+04  3.340847E+03
       307   8 -7.346625E+05 -4.046100E+04  5.406064E+04 -3.152732E+05 -2.460785E+04  6.134180E+03
       307   9 -7.600425E+05 -6.123883E+04  5.518286E+04 -3.341528E+05 -1.393958E+04  8.323277E+03
       307  10 -1.350942E+06 -2.957205E+05 -1.236194E+05 -4.928124E+05 -4.162518E-10 -5.179976E-10
       307  11 -1.323776E+06 -2.627738E+05 -9.501891E+04 -4.784689E+05 -6.818977E-10 -1.978215E-12
       307  12 -1.290652E+06 -2.557259E+05 -7.819172E+04 -4.751644E+05  2.014076E-11 -8.480055E-11
       307  13 -1.027101E+06 -1.705690E+05 -4.089038E+04 -4.001450E+05 -1.942566E-10 -5.970518E-11
       307  14 -1.029262E+06 -1.516207E+05 -2.047634E+04 -3.968887E+05 -4.715500E-10  1.420266E-10
       307  15 -1.025382E+06 -1.584843E+05 -1.150190E+04 -4.046721E+05 -2.480508E-10 -1.414771E-11
       307  16 -7.031559E+05 -4.540824E+04  4.183050E+04 -3.074327E+05 -2.752260E-11  3.541783E-10
       307  17 -7.346631E+05 -4.046121E+04  5.405944E+04 -3.152731E+05 -5.365237E-10 -2.387631E-11
       307  18 -7.600427E+05 -6.123895E+04  5.518236E+04 -3.341527E+05  9.830637E-11  2.963431E-11
       307  19 -1.350941E+06 -2.957201E+05 -1.236172E+05 -4.928125E+05  3.407495E+04 -3.708847E+03
       307  20 -1.323776E+06 -2.627736E+05 -9.501784E+04 -4.784690E+05  2.280282E+04 -6.812578E+03
       307  21 -1.290652E+06 -2.557257E+05 -7.819131E+04 -4.751645E+05  1.130395E+04 -9.312457E+03
       307  22 -1.027100E+06 -1.705686E+05 -4.088810E+04 -4.001451E+05  3.456265E+04 -3.524903E+03
       307  23 -1.029262E+06 -1.516205E+05 -2.047521E+04 -3.968888E+05  2.370510E+04 -6.473469E+03
       307  24 -1.025382E+06 -1.584842E+05 -1.150145E+04 -4.046721E+05  1.262145E+04 -8.817977E+03
       307  25 -7.031546E+05 -4.540790E+04  4.183283E+04 -3.074328E+05  3.505062E+04 -3.340847E+03
       307  26 -7.346625E+05 -4.046100E+04  5.406064E+04 -3.152732E+05  2.460785E+04 -6.134180E+03
       307  27 -7.600425E+05 -6.123883E+04  5.518286E+04 -3.341528E+05  1.393958E+04 -8.323277E+03
       308   1 -1.257019E+06 -2.468872E+05 -6.739797E+04 -4.674953E+05 -9.456871E+03  8.805126E+03
       308   2 -1.230866E+06 -2.274076E+05 -5.526454E+04 -4.515479E+05 -6.429813E+03  8.042827E+03
       308   3 -1.192734E+06 -2.216784E+05 -4.520146E+04 -4.499340E+05 -3.387752E+03  7.239029E+03
       308   4 -1.024638E+06 -1.599224E+05 -8.830343E+03 -4.038573E+05 -1.060087E+04  8.375861E+03
       308   5 -1.030562E+06 -1.525905E+05 -4.727405E+03 -3.968615E+05 -7.601763E+03  7.603303E+03
       308   6 -1.024504E+06 -1.590031E+05 -2.671971E+03 -4.041996E+05 -4.587781E+03  6.789205E+03
       308   7 -7.922057E+05 -7.295431E+04  4.973273E+04 -3.401979E+05 -1.174533E+04  7.946423E+03
       308   8 -8.302201E+05 -7.777084E+04  4.580653E+04 -3.421592E+05 -8.774127E+03  7.163624E+03
       308   9 -8.562453E+05 -9.632590E+04  3.985544E+04 -3.584539E+05 -5.788172E+03  6.339246E+03
       308  10 -1.257019E+06 -2.468873E+05 -6.739828E+04 -4.674952E+05 -3.098018E-10 -2.402564E-10
       308  11 -1.230866E+06 -2.274077E+05 -5.526474E+04 -4.515479E+05 -2.859797E-10 -3.711109E-12
       308  12 -1.192734E+06 -2.216784E+05 -4.520157E+04 -4.499340E+05  3.927845E-10  8.462448E-11
       308  13 -1.024638E+06 -1.599225E+05 -8.830686E+03 -4.038572E+05  6.652013E-11 -8.212611E-11
       308  14 -1.030563E+06 -1.525906E+05 -4.727622E+03 -3.968615E+05  1.056493E-10  8.509687E-11
       308  15 -1.024504E+06 -1.590032E+05 -2.672097E+03 -4.041996E+05  6.024739E-11  1.678849E-10
       308  16 -7.922058E+05 -7.295442E+04  4.973235E+04 -3.401978E+05  2.000807E-11  1.182131E-10
       308  17 -8.302202E+05 -7.777091E+04  4.580629E+04 -3.421591E+05  5.509014E-11  3.077286E-10
       308  18 -8.562454E+05 -9.632595E+04  3.985530E+04 -3.584538E+05 -3.731485E-10 -3.203821E-10
       308  19 -1.257019E+06 -2.468872E+05 -6.739797E+04 -4.674953E+05  9.456871E+03 -8.805126E+03
       308  20 -1.230866E+06 -2.274076E+05 -5.526454E+04 -4.515479E+05  6.429813E+03 -8.042827E+03
       308  21 -1.192734E+06 -2.216784E+05 -4.520146E+04 -4.499340E+05  3.387752E+03 -7.239029E+03
       308  22 -1.024638E+06 -1.599224E+05 -8.830343E+03 -4.038573E+05  1.060087E+04 -8.375861E+03
       308  23 -1.030562E+06 -1.525905E+05 -4.727405E+03 -3.968615E+05  7.601763E+03 -7.603303E+03
       308  24 -1.024504E+06 -1.590031E+05 -2.671971E+03 -4.041996E+05  4.587781E+03 -6.789205E+03
       308  25 -7.922057E+05 -7.295431E+04  4.973273E+04 -3.401979E+05  1.174533E+04 -7.946423E+03
       308  26 -8.302201E+05 -7.777084E+04  4.580653E+04 -3.421592E+05  8.774127E+03 -7.163624E+03
       308  27 -8.562453E+05 -9.632590E+04  3.985544E+04 -3.584539E+05  5.788172E+03 -6.339246E+03
       309   1 -1.160512E+06 -2.099384E+05 -3.628583E+04 -4.413178E+05 -2.627151E+03  6.379492E+03
       309   2 -1.134208E+06 -1.912643E+05 -2.735684E+04 -4.250452E+05 -1.349444E+03  4.893797E+03
       309   3 -1.095180E+06 -1.855181E+05 -1.892016E+04 -4.234958E+05 -6.931865E+01  3.400673E+03
       309   4 -1.024381E+06 -1.591357E+05 -2.062941E+03 -4.041672E+05 -3.822871E+03  5.931392E+03
       309   5 -1.030737E+06 -1.526391E+05 -1.256945E+03 -3.968175E+05 -2.550177E+03  4.443933E+03
       309   6 -1.024369E+06 -1.590693E+05 -9.391025E+02 -4.041911E+05 -1.275104E+03  2.949039E+03
       309   7 -8.882307E+05 -1.083318E+05  3.215848E+04 -3.670093E+05 -5.018879E+03  5.483184E+03
       309   8 -9.272556E+05 -1.140134E+05  2.484204E+04 -3.685856E+05 -3.751127E+03  3.993988E+03
       309   9 -9.535541E+05 -1.326203E+05  1.704147E+04 -3.848845E+05 -2.481035E+03  2.497350E+03
       309  10 -1.160513E+06 -2.099385E+05 -3.628592E+04 -4.413178E+05 -3.062921E-10 -7.028694E-11
       309  11 -1.134208E+06 -1.912643E+05 -2.735689E+04 -4.250451E+05  1.012484E-10  7.700565E-10
       309  12 -1.095180E+06 -1.855181E+05 -1.892018E+04 -4.234958E+05  2.648399E-10 -4.644316E-10
       309  13 -1.024381E+06 -1.591358E+05 -2.063035E+03 -4.041672E+05 -4.326659E-10 -2.149322E-10
       309  14 -1.030737E+06 -1.526392E+05 -1.256994E+03 -3.968175E+05 -6.195898E-11  9.296844E-11
       309  15 -1.024369E+06 -1.590693E+05 -9.391219E+02 -4.041911E+05 -2.747852E-10 -1.654674E-10
       309  16 -8.882307E+05 -1.083319E+05  3.215838E+04 -3.670092E+05  2.884685E-10 -1.548390E-10
       309  17 -9.272557E+05 -1.140134E+05  2.484198E+04 -3.685856E+05 -1.633793E-10  1.678165E-11
       309  18 -9.535541E+05 -1.326203E+05  1.704145E+04 -3.848845E+05 -4.313161E-10 -4.478690E-10
       309  19 -1.160512E+06 -2.099384E+05 -3.628583E+04 -4.413178E+05  2.627151E+03 -6.379492E+03
       309  20 -1.134208E+06 -1.912643E+05 -2.735684E+04 -4.250452E+05  1.349444E+03 -4.893797E+03
       309  21 -1.095180E+06 -1.855181E+05 -1.892016E+04 -4.234958E+05  6.931865E+01 -3.400673E+03
       309  22 -1.024381E+06 -1.591357E+05 -2.062941E+03 -4.041672E+05  3.822871E+03 -5.931392E+03
       309  23 -1.030737E+06 -1.526391E+05 -1.256945E+03 -3.968175E+05  2.550177E+03 -4.443933E+03
       309  24 -1.024369E+06 -1.590693E+05 -9.391025E+02 -4.041911E+05  1.275104E+03 -2.949039E+03
       309  25 -8.882307E+05 -1.083318E+05  3.215848E+04 -3.670093E+05  5.018879E+03 -5.483184E+03
       309  26 -9.272556E+05 -1.140134E+05  2.484204E+04 -3.685856E+05  3.751127E+03 -3.993988E+03
       309  27 -9.535541E+05 -1.326203E+05  1.704147E+04 -3.848845E+05  2.481035E+03 -2.497350E+03
       310   1 -1.062845E+06 -1.734462E+05 -1.050265E+04 -4.147298E+05  4.639692E+02  2.448771E+03
       310   2 -1.036415E+06 -1.547477E+05 -2.526563E+03 -3.983569E+05  1.660290E+03  9.178866E+02
       310   3 -9.971896E+05 -1.490244E+05  5.023128E+03 -3.967857E+05  2.856287E+03 -6.121005E+02
       310   4 -1.024354E+06 -1.590849E+05 -9.112975E+02 -4.042065E+05 -7.435645E+02  1.996522E+03
       310   5 -1.030753E+06 -1.526196E+05 -1.095911E+03 -3.967970E+05  4.533456E+02  4.658588E+02
       310   6 -1.024360E+06 -1.591299E+05 -1.707527E+03 -4.041897E+05  1.649897E+03 -1.063913E+03
       310   7 -9.858606E+05 -1.447233E+05  8.679990E+03 -3.936826E+05 -1.951185E+03  1.544240E+03
       310   8 -1.025092E+06 -1.504914E+05  3.347486E+02 -3.952370E+05 -7.536137E+02  1.382545E+01
       310   9 -1.051530E+06 -1.692353E+05 -8.438233E+03 -4.115934E+05  4.435636E+02 -1.515704E+03
       310  10 -1.062845E+06 -1.734463E+05 -1.050266E+04 -4.147298E+05 -1.912280E-10 -3.859150E-10
       310  11 -1.036415E+06 -1.547477E+05 -2.526570E+03 -3.983569E+05  5.220526E-10  6.314526E-10
       310  12 -9.971896E+05 -1.490244E+05  5.023112E+03 -3.967857E+05 -5.559325E-10  7.599280E-11
       310  13 -1.024354E+06 -1.590849E+05 -9.113060E+02 -4.042065E+05  2.310512E-10 -5.145506E-10
       310  14 -1.030753E+06 -1.526196E+05 -1.095912E+03 -3.967970E+05  3.052640E-10  6.822254E-10
       310  15 -1.024360E+06 -1.591299E+05 -1.707534E+03 -4.041897E+05 -1.526750E-10  4.704371E-10
       310  16 -9.858606E+05 -1.447233E+05  8.679979E+03 -3.936826E+05  1.762800E-10 -9.273436E-11
       310  17 -1.025092E+06 -1.504914E+05  3.347476E+02 -3.952370E+05 -4.059314E-10 -2.936123E-10
       310  18 -1.051530E+06 -1.692353E+05 -8.438238E+03 -4.115934E+05 -3.781912E-11 -1.785655E-10
       310  19 -1.062845E+06 -1.734462E+05 -1.050265E+04 -4.147298E+05 -4.639692E+02 -2.448771E+03
       310  20 -1.036415E+06 -1.547477E+05 -2.526563E+03 -3.983569E+05 -1.660290E+03 -9.178866E+02
       310  21 -9.971896E+05 -1.490244E+05  5.023128E+03 -3.967857E+05 -2.856287E+03  6.121005E+02
       310  22 -1.024354E+06 -1.590849E+05 -9.112975E+02 -4.042065E+05  7.435645E+02 -1.996522E+03
       310  23 -1.030753E+06 -1.526196E+05 -1.095911E+03 -3.967970E+05 -4.533456E+02 -4.658588E+02
       310  24 -1.024360E+06 -1.591299E+05 -1.707527E+03 -4.041897E+05 -1.649897E+03  1.063913E+03
       310  25 -9.858606E+05 -1.447233E+05  8.679990E+03 -3.936826E+05  1.951185E+03 -1.544240E+03
       310  26 -1.025092E+06 -1.504914E+05  3.347486E+02 -3.952370E+05  7.536137E+02 -1.382545E+01
       310  27 -1.051530E+06 -1.692353E+05 -8.438233E+03 -4.115934E+05 -4.435636E+02  1.515704E+03
       311   1 -9.648620E+05 -1.369276E+05  1.293328E+04 -3.881412E+05  3.561515E+03 -1.502807E+03
       311   2 -9.384495E+05 -1.181441E+05  1.942592E+04 -3.716568E+05  6.111180E+03 -2.518483E+03
       311   3 -8.997544E+05 -1.130805E+05  2.427308E+04 -3.697716E+05  8.650674E+03 -3.505892E+03
       311   4 -1.024440E+06 -1.590442E+05 -2.187213E+03 -4.042394E+05  2.349287E+03 -1.956836E+03
       311   5 -1.030632E+06 -1.525494E+05 -3.823829E+03 -3.968027E+05  4.918233E+03 -2.965394E+03
       311   6 -1.024546E+06 -1.597787E+05 -7.121388E+03 -4.039656E+05  7.476906E+03 -3.945722E+03
       311   7 -1.084014E+06 -1.811605E+05 -1.730792E+04 -4.203362E+05  1.137190E+03 -2.410815E+03
       311   8 -1.122806E+06 -1.869542E+05 -2.707425E+04 -4.219451E+05  3.725479E+03 -3.412233E+03
       311   9 -1.149323E+06 -2.064761E+05 -3.851722E+04 -4.381536E+05  6.303392E+03 -4.385456E+03
       311  10 -9.648620E+05 -1.369276E+05  1.293325E+04 -3.881412E+05 -2.242504E-10  1.018304E-10
       311  11 -9.384496E+05 -1.181441E+05  1.942584E+04 -3.716568E+05 -2.253470E-11  1.732530E-10
       311  12 -8.997544E+05 -1.130805E+05  2.427291E+04 -3.697716E+05 -1.284995E-10  3.390980E-10
       311  13 -1.024440E+06 -1.590442E+05 -2.187231E+03 -4.042394E+05  4.746902E-11  4.656548E-10
       311  14 -1.030632E+06 -1.525494E+05 -3.823891E+03 -3.968027E+05 -1.247381E-10  7.410572E-11
       311  15 -1.024546E+06 -1.597788E+05 -7.121522E+03 -4.039656E+05 -5.778825E-10 -3.697067E-10
       311  16 -1.084014E+06 -1.811605E+05 -1.730794E+04 -4.203362E+05  2.552608E-10  2.312445E-10
       311  17 -1.122806E+06 -1.869542E+05 -2.707430E+04 -4.219451E+05  8.176164E-11  2.939301E-10
       311  18 -1.149323E+06 -2.064761E+05 -3.851733E+04 -4.381536E+05  4.911278E-10 -1.832815E-12
       311  19 -9.648620E+05 -1.369276E+05  1.293328E+04 -3.881412E+05 -3.561515E+03  1.502807E+03
       311  20 -9.384495E+05 -1.181441E+05  1.942592E+04 -3.716568E+05 -6.111180E+03  2.518483E+03
       311  21 -8.997544E+05 -1.130805E+05  2.427308E+04 -3.697716E+05 -8.650674E+03  3.505892E+03
       311  22 -1.024440E+06 -1.590442E+05 -2.187213E+03 -4.042394E+05 -2.349287E+03  1.956836E+03
       311  23 -1.030632E+06 -1.525494E+05 -3.823829E+03 -3.968027E+05 -4.918233E+03  2.965394E+03
       311  24 -1.024546E+06 -1.597787E+05 -7.121388E+03 -4.039656E+05 -7.476906E+03  3.945722E+03
       311  25 -1.084014E+06 -1.811605E+05 -1.730792E+04 -4.203362E+05 -1.137190E+03  2.410815E+03
       311  26 -1.122806E+06 -1.869542E+05 -2.707425E+04 -4.219451E+05 -3.725479E+03  3.412233E+03
       311  27 -1.149323E+06 -2.064761E+05 -3.851722E+04 -4.381536E+05 -6.303392E+03  4.385456E+03
       312   1 -8.670848E+05 -1.011381E+05  3.041881E+04 -3.630910E+05  1.049203E+04 -4.019639E+03
       312   2 -8.410385E+05 -8.047099E+04  3.124646E+04 -3.444383E+05  1.923978E+04 -2.621860E+03
       312   3 -8.073730E+05 -8.325114E+04  2.310729E+04 -3.378172E+05  2.781613E+04 -7.642435E+02
       312   4 -1.025131E+06 -1.586362E+05 -9.270431E+03 -4.046392E+05  9.183760E+03 -4.509941E+03
       312   5 -1.029598E+06 -1.517449E+05 -1.648924E+04 -3.968023E+05  1.824874E+04 -2.993545E+03
       312   6 -1.026511E+06 -1.683665E+05 -3.292868E+04 -4.009977E+05  2.714183E+04 -1.017487E+03
       312   7 -1.183153E+06 -2.161330E+05 -4.896164E+04 -4.461781E+05  7.875856E+03 -5.000113E+03
       312   8 -1.218123E+06 -2.230161E+05 -6.422767E+04 -4.491517E+05  1.725803E+04 -3.365104E+03
       312   9 -1.245601E+06 -2.534774E+05 -8.896831E+04 -4.641573E+05  2.646780E+04 -1.270623E+03
       312  10 -8.670849E+05 -1.011382E+05  3.041858E+04 -3.630910E+05 -1.831551E-10  9.868547E-11
       312  11 -8.410389E+05 -8.047110E+04  3.124575E+04 -3.444382E+05 -6.197706E-10 -3.805912E-10
       312  12 -8.073738E+05 -8.325135E+04  2.310583E+04 -3.378172E+05 -3.291721E-10 -3.215179E-10
       312  13 -1.025131E+06 -1.586362E+05 -9.270628E+03 -4.046392E+05  6.123005E-11  2.685280E-10
       312  14 -1.029599E+06 -1.517450E+05 -1.648988E+04 -3.968022E+05  1.014503E-10  3.727975E-10
       312  15 -1.026512E+06 -1.683667E+05 -3.293006E+04 -4.009977E+05 -3.430348E-10 -2.095991E-10
       312  16 -1.183153E+06 -2.161330E+05 -4.896180E+04 -4.461780E+05  3.139126E-10 -9.074756E-11
       312  17 -1.218123E+06 -2.230162E+05 -6.422825E+04 -4.491517E+05  2.963870E-10  2.215567E-10
       312  18 -1.245602E+06 -2.534776E+05 -8.896963E+04 -4.641573E+05  5.130493E-10  4.379794E-10
       312  19 -8.670848E+05 -1.011381E+05  3.041881E+04 -3.630910E+05 -1.049203E+04  4.019639E+03
       312  20 -8.410385E+05 -8.047099E+04  3.124646E+04 -3.444383E+05 -1.923978E+04  2.621860E+03
       312  21 -8.073730E+05 -8.325114E+04  2.310729E+04 -3.378172E+05 -2.781613E+04  7.642435E+02
       312  22 -1.025131E+06 -1.586362E+05 -9.270431E+03 -4.046392E+05 -9.183760E+03  4.509941E+03
       312  23 -1.029598E+06 -1.517449E+05 -1.648924E+04 -3.968023E+05 -1.824874E+04  2.993545E+03
       312  24 -1.026511E+06 -1.683665E+05 -3.292868E+04 -4.009977E+05 -2.714183E+04  1.017487E+03
       312  25 -1.183153E+06 -2.161330E+05 -4.896164E+04 -4.461781E+05 -7.875856E+03  5.000113E+03
       312  26 -1.218123E+06 -2.230161E+05 -6.422767E+04 -4.491517E+05 -1.725803E+04  3.365104E+03
       312  27 -1.245601E+06 -2.534774E+05 -8.896831E+04 -4.641573E+05 -2.646780E+04  1.270623E+03
       313   1 -7.658425E+05 -7.205114E+04  2.265622E+04 -3.552765E+05  3.676166E+04  2.638393E+02
       313   2 -7.459294E+05 -2.470938E+04  1.632175E+03 -3.060958E+05  6.897180E+04  1.181933E+04
       313   3 -7.684274E+05 -1.237524E+05 -8.000474E+04 -2.360701E+05  9.790054E+04  3.212944E+04
       313   4 -1.031920E+06 -1.536137E+05 -4.105221E+04 -4.095661E+05  3.338629E+04 -1.001020E+03
       313   5 -1.018920E+06 -1.421938E+05 -7.041563E+04 -3.965966E+05  7.167052E+04  1.282916E+04
       313   6 -1.049563E+06 -2.784079E+05 -1.652312E+05 -3.627784E+05  1.066716E+05  3.541119E+04
       313   7 -1.297930E+06 -2.351771E+05 -1.047659E+05 -4.638374E+05  3.001248E+04 -2.265538E+03
       313   8 -1.291836E+06 -2.596661E+05 -1.424697E+05 -4.870588E+05  7.436793E+04  1.383833E+04
       313   9 -1.330612E+06 -4.330259E+05 -2.504640E+05 -4.894248E+05  1.154383E+05  3.868954E+04
       313  10 -7.658440E+05 -7.205151E+04  2.265368E+04 -3.552765E+05 -1.717245E-11 -1.475809E-10
       313  11 -7.459346E+05 -2.471081E+04  1.622961E+03 -3.060965E+05 -9.826914E-11 -1.827102E-10
       313  12 -7.684379E+05 -1.237560E+05 -8.002472E+04 -2.360726E+05 -2.011886E-10 -5.756358E-11
       313  13 -1.031922E+06 -1.536140E+05 -4.105431E+04 -4.095661E+05 -4.095386E-10 -2.005804E-10
       313  14 -1.018925E+06 -1.421954E+05 -7.042561E+04 -3.965974E+05 -8.372727E-10 -2.308569E-10
       313  15 -1.049575E+06 -2.784123E+05 -1.652550E+05 -3.627815E+05 -2.217662E-10 -1.083722E-11
       313  16 -1.297931E+06 -2.351773E+05 -1.047676E+05 -4.638373E+05 -2.011288E-10 -1.791714E-11
       313  17 -1.291842E+06 -2.596678E+05 -1.424804E+05 -4.870596E+05 -7.178660E-10 -3.248958E-10
       313  18 -1.330627E+06 -4.330311E+05 -2.504920E+05 -4.894284E+05 -5.358933E-10 -9.200982E-11
       313  19 -7.658425E+05 -7.205114E+04  2.265622E+04 -3.552765E+05 -3.676166E+04 -2.638393E+02
       313  20 -7.459294E+05 -2.470938E+04  1.632175E+03 -3.060958E+05 -6.897180E+04 -1.181933E+04
       313  21 -7.684274E+05 -1.237524E+05 -8.000474E+04 -2.360701E+05 -9.790054E+04 -3.212944E+04
       313  22 -1.031920E+06 -1.536137E+05 -4.105221E+04 -4.095661E+05 -3.338629E+04  1.001020E+03
       313  23 -1.018920E+06 -1.421938E+05 -7.041563E+04 -3.965966E+05 -7.167052E+04 -1.282916E+04
       313  24 -1.049563E+06 -2.784079E+05 -1.652312E+05 -3.627784E+05 -1.066716E+05 -3.541119E+04
       313  25 -1.297930E+06 -2.351771E+05 -1.047659E+05 -4.638374E+05 -3.001248E+04  2.265538E+03
       313  26 -1.291836E+06 -2.596661E+05 -1.424697E+05 -4.870588E+05 -7.436793E+04 -1.383833E+04
       313  27 -1.330612E+06 -4.330259E+05 -2.504640E+05 -4.894248E+05 -1.154383E+05 -3.868954E+04
       314   1  4.524496E+05  1.075300E+05  1.896254E+05  9.598236E+04  2.623274E+05  1.198277E+04
       314   2  4.851790E+05 -2.339200E+05 -1.021363E+04  1.989484E+04  1.794791E+05  3.578433E+04
       314   3  6.202078E+05 -2.115151E+05 -6.504088E+04 -9.795993E+04  9.664976E+04  3.552321E+04
       314   4  1.404446E+06  3.435754E+05  4.216764E+05 -4.715104E+04  2.894322E+05  1.196086E+04
       314   5  1.351953E+06 -2.101991E+04  1.889981E+05 -2.603827E+04  1.885174E+05  3.577774E+04
       314   6  1.404712E+06 -1.893992E+04  1.137049E+05 -4.668687E+04  8.763640E+04  3.552100E+04
       314   7  2.357315E+06  5.796320E+05  6.536754E+05 -1.905045E+05  3.165783E+05  1.192653E+04
       314   8  2.219426E+06  1.918359E+05  3.881617E+05 -7.203614E+04  1.975680E+05  3.576983E+04
       314   9  2.189791E+06  1.736025E+05  2.924123E+05  4.651406E+03  7.861170E+04  3.551730E+04
       314  10  4.523757E+05  1.075113E+05  1.894960E+05  9.597983E+04 -5.184214E-10  5.344861E-10
       314  11  4.851440E+05 -2.339300E+05 -1.027652E+04  1.988966E+04 -1.259837E-11 -5.391814E-10
       314  12  6.201975E+05 -2.115189E+05 -6.506079E+04 -9.796270E+04  7.628916E-10 -3.010182E-10
       314  13  1.404357E+06  3.435528E+05  4.215190E+05 -4.715383E+04  5.890905E-10  2.196932E-10
       314  14  1.351915E+06 -2.103080E+04  1.889291E+05 -2.604370E+04 -1.311042E-09 -1.544305E-09
       314  15  1.404703E+06 -1.894333E+04  1.136881E+05 -4.668937E+04 -3.809755E-10 -1.796592E-10
       314  16  2.357207E+06  5.796050E+05  6.534875E+05 -1.905076E+05  9.121877E-10 -1.036960E-10
       314  17  2.219384E+06  1.918241E+05  3.880862E+05 -7.204182E+04 -5.188698E-10 -6.397592E-11
       314  18  2.189784E+06  1.735995E+05  2.923983E+05  4.649160E+03 -1.043922E-09 -3.826320E-10
       314  19  4.524496E+05  1.075300E+05  1.896254E+05  9.598236E+04 -2.623274E+05 -1.198277E+04
       314  20  4.851790E+05 -2.339200E+05 -1.021363E+04  1.989484E+04 -1.794791E+05 -3.578433E+04
       314  21  6.202078E+05 -2.115151E+05 -6.504088E+04 -9.795993E+04 -9.664976E+04 -3.552321E+04
       314  22  1.404446E+06  3.435754E+05  4.216764E+05 -4.715104E+04 -2.894322E+05 -1.196086E+04
       314  23  1.351953E+06 -2.101991E+04  1.889981E+05 -2.603827E+04 -1.885174E+05 -3.577774E+04
       314  24  1.404712E+06 -1.893992E+04  1.137049E+05 -4.668687E+04 -8.763640E+04 -3.552100E+04
       314  25  2.357315E+06  5.796320E+05  6.536754E+05 -1.905045E+05 -3.165783E+05 -1.192653E+04
       314  26  2.219426E+06  1.918359E+05  3.881617E+05 -7.203614E+04 -1.975680E+05 -3.576983E+04
       314  27  2.189791E+06  1.736025E+05  2.924123E+05  4.651406E+03 -7.861170E+04 -3.551730E+04
       315   1  6.758620E+05 -1.492361E+05 -7.064001E+04 -3.854417E+04  7.247395E+04  3.035449E+04
       315   2  7.519039E+05 -1.557706E+05 -9.464356E+04 -2.422370E+04  4.883778E+04  2.759870E+04
       315   3  8.379986E+05 -1.354147E+05 -9.648994E+04 -5.095775E+04  2.519659E+04  2.372156E+04
       315   4  1.383565E+06  2.454179E+04  9.139671E+04 -4.666120E+04  7.090415E+04  3.035016E+04
       315   5  1.378502E+06 -1.976087E+03  4.846064E+04 -2.612988E+04  4.640719E+04  2.759572E+04
       315   6  1.383623E+06 -1.470589E+03  2.825993E+04 -4.664973E+04  2.190826E+04  2.371999E+04
       315   7  2.091731E+06  1.982852E+05  2.534006E+05 -5.478760E+04  6.933254E+04  3.034588E+04
       315   8  2.005463E+06  1.517913E+05  1.915392E+05 -2.803802E+04  4.397415E+04  2.759276E+04
       315   9  1.929523E+06  1.324529E+05  1.529904E+05 -4.233790E+04  1.861707E+04  2.371837E+04
       315  10  6.758562E+05 -1.492385E+05 -7.065160E+04 -3.854594E+04 -5.351534E-10 -7.437848E-10
       315  11  7.519012E+05 -1.557721E+05 -9.464947E+04 -2.422478E+04 -8.086380E-11  3.675164E-10
       315  12  8.379977E+05 -1.354155E+05 -9.649219E+04 -5.095823E+04  1.764964E-10 -2.603758E-10
       315  13  1.383559E+06  2.453946E+04  9.138555E+04 -4.666293E+04  3.034008E-10 -4.315396E-10
       315  14  1.378500E+06 -1.977482E+03  4.845517E+04 -2.613091E+04 -6.546958E-10 -6.751385E-11
       315  15  1.383622E+06 -1.471322E+03  2.825797E+04 -4.665015E+04 -8.798528E-10 -1.457378E-10
       315  16  2.091725E+06  1.982829E+05  2.533899E+05 -5.478929E+04  7.122055E-10 -3.833290E-11
       315  17  2.005461E+06  1.517899E+05  1.915342E+05 -2.803899E+04 -1.431428E-09 -5.668252E-10
       315  18  1.929522E+06  1.324522E+05  1.529887E+05 -4.233825E+04 -5.951022E-10  2.031028E-10
       315  19  6.758620E+05 -1.492361E+05 -7.064001E+04 -3.854417E+04 -7.247395E+04 -3.035449E+04
       315  20  7.519039E+05 -1.557706E+05 -9.464356E+04 -2.422370E+04 -4.883778E+04 -2.759870E+04
       315  21  8.379986E+05 -1.354147E+05 -9.648994E+04 -5.095775E+04 -2.519659E+04 -2.372156E+04
       315  22  1.383565E+06  2.454179E+04  9.139671E+04 -4.666120E+04 -7.090415E+04 -3.035016E+04
       315  23  1.378502E+06 -1.976087E+03  4.846064E+04 -2.612988E+04 -4.640719E+04 -2.759572E+04
       315  24  1.383623E+06 -1.470589E+03  2.825993E+04 -4.664973E+04 -2.190826E+04 -2.371999E+04
       315  25  2.091731E+06  1.982852E+05  2.534006E+05 -5.478760E+04 -6.933254E+04 -3.034588E+04
       315  26  2.005463E+06  1.517913E+05  1.915392E+05 -2.803802E+04 -4.397415E+04 -2.759276E+04
       315  27  1.929523E+06  1.324529E+05  1.529904E+05 -4.233790E+04 -1.861707E+04 -2.371837E+04
       316   1  9.108411E+05 -1.138920E+05 -8.545354E+04 -4.640080E+04  2.041174E+04  2.124256E+04
       316   2  9.896373E+05 -9.628694E+04 -7.703173E+04 -2.647282E+04  1.432291E+04  1.730058E+04
       316   3  1.069803E+06 -7.667486E+04 -6.413265E+04 -4.683963E+04  8.230885E+03  1.332447E+04
       316   4  1.381680E+06  1.611892E+03  2.181725E+04 -4.648430E+04  1.749675E+04  2.124152E+04
       316   5  1.381008E+06 -2.480065E+02  1.230159E+04 -2.633786E+04  1.137807E+04  1.730034E+04
       316   6  1.381702E+06 -9.679552E+01  7.280996E+03 -4.648464E+04  5.256962E+03  1.332506E+04
       316   7  1.852724E+06  1.171004E+05  1.290737E+05 -4.656785E+04  1.457956E+04  2.124049E+04
       316   8  1.772520E+06  9.578033E+04  1.016250E+05 -2.620281E+04  8.431386E+03  1.730009E+04
       316   9  1.693692E+06  7.647452E+04  7.868829E+04 -4.612946E+04  2.281559E+03  1.332563E+04
       316  10  9.108406E+05 -1.138926E+05 -8.545517E+04 -4.640115E+04  3.333416E-10 -2.597298E-10
       316  11  9.896370E+05 -9.628732E+04 -7.703268E+04 -2.647302E+04  1.082399E-09  2.224848E-10
       316  12  1.069803E+06 -7.667507E+04 -6.413311E+04 -4.683972E+04 -6.072754E-10  6.851013E-10
       316  13  1.381679E+06  1.611325E+03  2.181583E+04 -4.648460E+04 -5.219426E-10 -8.434330E-11
       316  14  1.381008E+06 -2.483628E+02  1.230079E+04 -2.633802E+04  9.509836E-10  5.565252E-11
       316  15  1.381702E+06 -9.699371E+01  7.280610E+03 -4.648470E+04  5.923933E-11  3.560332E-10
       316  16  1.852723E+06  1.170999E+05  1.290724E+05 -4.656810E+04 -9.590213E-10  1.300723E-10
       316  17  1.772520E+06  9.577999E+04  1.016243E+05 -2.620293E+04 -1.048030E-09 -9.424531E-11
       316  18  1.693691E+06  7.647433E+04  7.868795E+04 -4.612948E+04 -2.944704E-10  7.276586E-10
       316  19  9.108411E+05 -1.138920E+05 -8.545354E+04 -4.640080E+04 -2.041174E+04 -2.124256E+04
       316  20  9.896373E+05 -9.628694E+04 -7.703173E+04 -2.647282E+04 -1.432291E+04 -1.730058E+04
       316  21  1.069803E+06 -7.667486E+04 -6.413265E+04 -4.683963E+04 -8.230885E+03 -1.332447E+04
       316  22  1.381680E+06  1.611892E+03  2.181725E+04 -4.648430E+04 -1.749675E+04 -2.124152E+04
       316  23  1.381008E+06 -2.480065E+02  1.230159E+04 -2.633786E+04 -1.137807E+04 -1.730034E+04
       316  24  1.381702E+06 -9.679552E+01  7.280996E+03 -4.648464E+04 -5.256962E+03 -1.332506E+04
       316  25  1.852724E+06  1.171004E+05  1.290737E+05 -4.656785E+04 -1.457956E+04 -2.124049E+04
       316  26  1.772520E+06  9.578033E+04  1.016250E+05 -2.620281E+04 -8.431386E+03 -1.730009E+04
       316  27  1.693692E+06  7.647452E+04  7.868829E+04 -4.612946E+04 -2.281559E+03 -1.332563E+04
       317   1  1.143225E+06 -5.830971E+04 -4.845150E+04 -4.643819E+04  7.034349E+03  1.100911E+04
       317   2  1.221734E+06 -3.918628E+04 -3.276670E+04 -2.648064E+04  5.218528E+03  7.055637E+03
       317   3  1.300506E+06 -1.987728E+04 -1.586155E+04 -4.638352E+04  3.401519E+03  3.108150E+03
       317   4  1.381465E+06  1.004958E+02  5.691404E+03 -4.638823E+04  4.086989E+03  1.101004E+04
       317   5  1.381342E+06 -2.577302E+01  3.658743E+03 -2.645836E+04  2.274847E+03  7.056877E+03
       317   6  1.381473E+06  3.315127E+01  2.843725E+03 -4.638830E+04  4.617427E+02  3.109724E+03
       317   7  1.619759E+06  5.850679E+04  5.983066E+04 -4.633825E+04  1.138510E+03  1.101096E+04
       317   8  1.540973E+06  3.913297E+04  4.008256E+04 -2.643607E+04 -6.695826E+02  7.058117E+03
       317   9  1.462447E+06  1.994313E+04  2.154859E+04 -4.639307E+04 -2.478413E+03  3.111298E+03
       317  10  1.143224E+06 -5.830986E+04 -4.845182E+04 -4.643825E+04  2.780155E-10  3.583125E-10
       317  11  1.221734E+06 -3.918634E+04 -3.276685E+04 -2.648067E+04 -6.131994E-10  3.569910E-10
       317  12  1.300506E+06 -1.987729E+04 -1.586159E+04 -4.638353E+04 -1.371674E-09  2.193295E-10
       317  13  1.381465E+06  1.003610E+02  5.691145E+03 -4.638827E+04 -1.357378E-09  6.231470E-10
       317  14  1.381342E+06 -2.582792E+01  3.658640E+03 -2.645838E+04  8.945353E-10 -6.961338E-10
       317  15  1.381473E+06  3.314082E+01  2.843706E+03 -4.638830E+04 -2.779586E-10 -4.227661E-10
       317  16  1.619759E+06  5.850666E+04  5.983043E+04 -4.633826E+04  4.692931E-11 -3.700367E-10
       317  17  1.540973E+06  3.913292E+04  4.008246E+04 -2.643607E+04 -4.709819E-10 -7.607965E-10
       317  18  1.462447E+06  1.994312E+04  2.154856E+04 -4.639307E+04  1.200006E-09 -6.236634E-10
       317  19  1.143225E+06 -5.830971E+04 -4.845150E+04 -4.643819E+04 -7.034349E+03 -1.100911E+04
       317  20  1.221734E+06 -3.918628E+04 -3.276670E+04 -2.648064E+04 -5.218528E+03 -7.055637E+03
       317  21  1.300506E+06 -1.987728E+04 -1.586155E+04 -4.638352E+04 -3.401519E+03 -3.108150E+03
       317  22  1.381465E+06  1.004958E+02  5.691404E+03 -4.638823E+04 -4.086989E+03 -1.101004E+04
       317  23  1.381342E+06 -2.577302E+01  3.658743E+03 -2.645836E+04 -2.274847E+03 -7.056877E+03
       317  24  1.381473E+06  3.315127E+01  2.843725E+03 -4.638830E+04 -4.617427E+02 -3.109724E+03
       317  25  1.619759E+06  5.850679E+04  5.983066E+04 -4.633825E+04 -1.138510E+03 -1.101096E+04
       317  26  1.540973E+06  3.913297E+04  4.008256E+04 -2.643607E+04  6.695826E+02 -7.058117E+03
       317  27  1.462447E+06  1.994313E+04  2.154859E+04 -4.639307E+04  2.478413E+03 -3.111298E+03
       318   1  1.373709E+06 -1.822907E+03  1.231379E+03 -4.636053E+04  2.889300E+03  8.133791E+02
       318   2  1.452115E+06  1.734419E+04  1.942536E+04 -2.645012E+04  1.265375E+03 -3.129081E+03
       318   3  1.530737E+06  3.667491E+04  3.870490E+04 -4.632996E+04 -3.583028E+02 -7.073017E+03
       318   4  1.381465E+06  3.412393E+01  2.772575E+03 -4.637291E+04 -4.899971E+01  8.150100E+02
       318   5  1.381358E+06 -1.412770E+01  3.279293E+03 -2.647761E+04 -1.674042E+03 -3.127605E+03
       318   6  1.381461E+06  1.021592E+02  4.873040E+03 -4.637285E+04 -3.298635E+03 -7.071673E+03
       318   7  1.389221E+06  1.891155E+03  4.313801E+03 -4.638528E+04 -2.987336E+03  8.166411E+02
       318   8  1.310605E+06 -1.737279E+04 -1.286707E+04 -2.650509E+04 -4.613127E+03 -3.126129E+03
       318   9  1.232206E+06 -3.647212E+04 -2.896022E+04 -4.641572E+04 -6.238267E+03 -7.070328E+03
       318  10  1.373709E+06 -1.822910E+03  1.231362E+03 -4.636053E+04 -1.847707E-10  2.201348E-10
       318  11  1.452115E+06  1.734418E+04  1.942534E+04 -2.645011E+04  9.523869E-10 -1.692947E-10
       318  12  1.530737E+06  3.667486E+04  3.870480E+04 -4.632996E+04 -2.966873E-10 -2.638070E-10
       318  13  1.381465E+06  3.412322E+01  2.772574E+03 -4.637291E+04 -4.649575E-10  7.294003E-10
       318  14  1.381358E+06 -1.413896E+01  3.279269E+03 -2.647761E+04 -1.100767E-10  6.995817E-10
       318  15  1.381461E+06  1.021025E+02  4.872926E+03 -4.637286E+04  1.106834E-09 -8.196358E-10
       318  16  1.389221E+06  1.891152E+03  4.313783E+03 -4.638528E+04  3.328438E-10  4.272069E-10
       318  17  1.310605E+06 -1.737281E+04 -1.286713E+04 -2.650510E+04 -5.144498E-10  7.286023E-10
       318  18  1.232206E+06 -3.647219E+04 -2.896039E+04 -4.641575E+04 -2.566220E-10 -3.121962E-10
       318  19  1.373709E+06 -1.822907E+03  1.231379E+03 -4.636053E+04 -2.889300E+03 -8.133791E+02
       318  20  1.452115E+06  1.734419E+04  1.942536E+04 -2.645012E+04 -1.265375E+03  3.129081E+03
       318  21  1.530737E+06  3.667491E+04  3.870490E+04 -4.632996E+04  3.583028E+02  7.073017E+03
       318  22  1.381465E+06  3.412393E+01  2.772575E+03 -4.637291E+04  4.899971E+01 -8.150100E+02
       318  23  1.381358E+06 -1.412770E+01  3.279293E+03 -2.647761E+04  1.674042E+03  3.127605E+03
       318  24  1.381461E+06  1.021592E+02  4.873040E+03 -4.637285E+04  3.298635E+03  7.071673E+03
       318  25  1.389221E+06  1.891155E+03  4.313801E+03 -4.638528E+04  2.987336E+03 -8.166411E+02
       318  26  1.310605E+06 -1.737279E+04 -1.286707E+04 -2.650509E+04  4.613127E+03  3.126129E+03
       318  27  1.232206E+06 -3.647212E+04 -2.896022E+04 -4.641572E+04  6.238267E+03  7.070328E+03
       319   1  1.604363E+06  5.461230E+04  5.720440E+04 -4.615243E+04 -1.332155E+03 -9.379034E+03
       319   2  1.682903E+06  7.384052E+04  7.916675E+04 -2.631724E+04 -6.487003E+03 -1.333549E+04
       319   3  1.762564E+06  9.475693E+04  1.049038E+05 -4.655771E+04 -1.164077E+04 -1.725798E+04
       319   4  1.381654E+06 -6.276236E+01  6.163838E+03 -4.643661E+04 -4.294680E+03 -9.377922E+03
       319   5  1.381091E+06 -1.907061E+02  1.030419E+04 -2.639795E+04 -9.422140E+03 -1.333502E+04
       319   6  1.381636E+06  1.365624E+03  1.820183E+04 -4.643611E+04 -1.454788E+04 -1.725812E+04
       319   7  1.158991E+06 -5.474127E+04 -4.487995E+04 -4.672069E+04 -7.256154E+03 -9.376807E+03
       319   8  1.079362E+06 -7.422823E+04 -5.856427E+04 -2.647860E+04 -1.235587E+04 -1.333454E+04
       319   9  1.000843E+06 -9.203569E+04 -6.850954E+04 -4.631457E+04 -1.745322E+04 -1.725825E+04
       319  10  1.604363E+06  5.461221E+04  5.720423E+04 -4.615244E+04 -1.136449E-09  5.788399E-11
       319  11  1.682903E+06  7.384032E+04  7.916634E+04 -2.631731E+04  4.254017E-10 -1.013173E-10
       319  12  1.762563E+06  9.475657E+04  1.049030E+05 -4.655787E+04  8.945603E-11  2.879451E-10
       319  13  1.381654E+06 -6.286180E+01  6.163638E+03 -4.643665E+04 -9.118921E-11 -6.603006E-10
       319  14  1.381090E+06 -1.909210E+02  1.030369E+04 -2.639805E+04  1.891244E-09 -5.228089E-10
       319  15  1.381636E+06  1.365247E+03  1.820087E+04 -4.643631E+04  3.854794E-10  2.297888E-10
       319  16  1.158991E+06 -5.474138E+04 -4.488021E+04 -4.672074E+04  8.774914E-10  1.804594E-10
       319  17  1.079362E+06 -7.422846E+04 -5.856490E+04 -2.647874E+04 -1.838362E-10 -4.631632E-10
       319  18  1.000843E+06 -9.203610E+04 -6.851067E+04 -4.631481E+04 -2.733135E-10  2.092121E-10
       319  19  1.604363E+06  5.461230E+04  5.720440E+04 -4.615243E+04  1.332155E+03  9.379034E+03
       319  20  1.682903E+06  7.384052E+04  7.916675E+04 -2.631724E+04  6.487003E+03  1.333549E+04
       319  21  1.762564E+06  9.475693E+04  1.049038E+05 -4.655771E+04  1.164077E+04  1.725798E+04
       319  22  1.381654E+06 -6.276236E+01  6.163838E+03 -4.643661E+04  4.294680E+03  9.377922E+03
       319  23  1.381091E+06 -1.907061E+02  1.030419E+04 -2.639795E+04  9.422140E+03  1.333502E+04
       319  24  1.381636E+06  1.365624E+03  1.820183E+04 -4.643611E+04  1.454788E+04  1.725812E+04
       319  25  1.158991E+06 -5.474127E+04 -4.487995E+04 -4.672069E+04  7.256154E+03  9.376807E+03
       319  26  1.079362E+06 -7.422823E+04 -5.856427E+04 -2.647860E+04  1.235587E+04  1.333454E+04
       319  27  1.000843E+06 -9.203569E+04 -6.850954E+04 -4.631457E+04  1.745322E+04  1.725825E+04
       320   1  1.838514E+06  1.104971E+05  1.276200E+05 -4.305282E+04 -1.498308E+04 -1.970587E+04
       320   2  1.914629E+06  1.297464E+05  1.626169E+05 -2.790522E+04 -3.616827E+04 -2.355928E+04
       320   3  1.999322E+06  1.716318E+05  2.170700E+05 -5.346059E+04 -5.735383E+04 -2.639551E+04
       320   4  1.383254E+06 -1.201535E+03  2.355871E+04 -4.657472E+04 -1.822715E+04 -1.970644E+04
       320   5  1.379006E+06 -1.628295E+03  4.037221E+04 -2.622457E+04 -3.863820E+04 -2.356110E+04
       320   6  1.383204E+06  2.045907E+04  7.611846E+04 -4.657892E+04 -5.904692E+04 -2.639853E+04
       320   7  9.281851E+05 -1.129145E+05 -8.051604E+04 -5.009401E+04 -2.146886E+04 -1.970696E+04
       320   8  8.436476E+05 -1.330228E+05 -8.189115E+04 -2.454538E+04 -4.110601E+04 -2.356294E+04
       320   9  7.674377E+05 -1.307398E+05 -6.485794E+04 -3.970414E+04 -6.073833E+04 -2.640159E+04
       320  10  1.838513E+06  1.104966E+05  1.276188E+05 -4.305305E+04  1.512481E-09 -1.877271E-12
       320  11  1.914628E+06  1.297455E+05  1.626134E+05 -2.790591E+04  1.414630E-10 -4.965369E-10
       320  12  1.999318E+06  1.716302E+05  2.170626E+05 -5.346181E+04 -2.724681E-10 -1.116232E-09
       320  13  1.383253E+06 -1.202041E+03  2.355736E+04 -4.657501E+04  5.053964E-11  9.297815E-11
       320  14  1.379004E+06 -1.629291E+03  4.036837E+04 -2.622530E+04 -6.127637E-10 -5.689846E-10
       320  15  1.383201E+06  2.045739E+04  7.611061E+04 -4.658018E+04 -8.961595E-11 -7.571462E-10
       320  16  9.281845E+05 -1.129150E+05 -8.051763E+04 -5.009435E+04 -4.925646E-10  6.702046E-11
       320  17  8.436457E+05 -1.330239E+05 -8.189536E+04 -2.454616E+04 -4.311231E-10 -4.551504E-10
       320  18  7.674336E+05 -1.307416E+05 -6.486618E+04 -3.970543E+04 -2.567769E-11  1.798050E-10
       320  19  1.838514E+06  1.104971E+05  1.276200E+05 -4.305282E+04  1.498308E+04  1.970587E+04
       320  20  1.914629E+06  1.297464E+05  1.626169E+05 -2.790522E+04  3.616827E+04  2.355928E+04
       320  21  1.999322E+06  1.716318E+05  2.170700E+05 -5.346059E+04  5.735383E+04  2.639551E+04
       320  22  1.383254E+06 -1.201535E+03  2.355871E+04 -4.657472E+04  1.822715E+04  1.970644E+04
       320  23  1.379006E+06 -1.628295E+03  4.037221E+04 -2.622457E+04  3.863820E+04  2.356110E+04
       320  24  1.383204E+06  2.045907E+04  7.611846E+04 -4.657892E+04  5.904692E+04  2.639853E+04
       320  25  9.281851E+05 -1.129145E+05 -8.051604E+04 -5.009401E+04  2.146886E+04  1.970696E+04
       320  26  8.436476E+05 -1.330228E+05 -8.189115E+04 -2.454538E+04  4.110601E+04  2.356294E+04
       320  27  7.674377E+05 -1.307398E+05 -6.485794E+04 -3.970414E+04  6.073833E+04  2.640159E+04
       321   1  2.093085E+06  1.540048E+05  2.522905E+05 -3.993243E+03 -6.454976E+04 -3.127082E+04
       321   2  2.130592E+06  1.724063E+05  3.350511E+05 -6.460243E+04 -1.648923E+05 -3.181178E+04
       321   3  2.258451E+06  4.988130E+05  5.600741E+05 -1.664321E+05 -2.652724E+05 -1.056401E+04
       321   4  1.400815E+06 -1.575119E+04  9.469293E+04 -4.661261E+04 -7.298209E+04 -3.127291E+04
       321   5  1.356891E+06 -1.749145E+04  1.573841E+05 -2.615028E+04 -1.569962E+05 -3.181841E+04
       321   6  1.400589E+06  2.861287E+05  3.511325E+05 -4.689506E+04 -2.410319E+05 -1.058923E+04
       321   7  7.089926E+05 -1.855335E+05 -6.293459E+04 -8.918421E+04 -8.140509E+04 -3.127385E+04
       321   8  5.837458E+05 -2.074252E+05 -2.032145E+04  1.225361E+04 -1.491099E+05 -3.182407E+04
       321   9  5.434289E+05  7.344444E+04  1.421475E+05  7.247677E+04 -2.168246E+05 -1.060519E+04
       321  10  2.093080E+06  1.540027E+05  2.522809E+05 -3.994867E+03  1.226239E-10 -6.339960E-10
       321  11  2.130562E+06  1.723980E+05  3.349983E+05 -6.460665E+04  7.046564E-10  5.658852E-10
       321  12  2.258375E+06  4.987941E+05  5.599421E+05 -1.664343E+05  6.494992E-10  8.511144E-10
       321  13  1.400809E+06 -1.575366E+04  9.468110E+04 -4.661445E+04 -2.037085E-09 -1.309145E-09
       321  14  1.356864E+06 -1.749913E+04  1.573359E+05 -2.615430E+04 -5.076161E-10  3.247397E-10
       321  15  1.400527E+06  2.861130E+05  3.510234E+05 -4.689712E+04 -3.752402E-10 -2.965435E-10
       321  16  7.089852E+05 -1.855363E+05 -6.294887E+04 -8.918626E+04 -4.747190E-10  1.015314E-10
       321  17  5.837217E+05 -2.074323E+05 -2.036509E+04  1.224979E+04 -1.987662E-09 -5.688407E-10
       321  18  5.433784E+05  7.343171E+04  1.420591E+05  7.247492E+04 -2.403972E-10  9.281154E-10
       321  19  2.093085E+06  1.540048E+05  2.522905E+05 -3.993243E+03  6.454976E+04  3.127082E+04
       321  20  2.130592E+06  1.724063E+05  3.350511E+05 -6.460243E+04  1.648923E+05  3.181178E+04
       321  21  2.258451E+06  4.988130E+05  5.600741E+05 -1.664321E+05  2.652724E+05  1.056401E+04
       321  22  1.400815E+06 -1.575119E+04  9.469293E+04 -4.661261E+04  7.298209E+04  3.127291E+04
       321  23  1.356891E+06 -1.749145E+04  1.573841E+05 -2.615028E+04  1.569962E+05  3.181841E+04
       321  24  1.400589E+06  2.861287E+05  3.511325E+05 -4.689506E+04  2.410319E+05  1.058923E+04
       321  25  7.089926E+05 -1.855335E+05 -6.293459E+04 -8.918421E+04  8.140509E+04  3.127385E+04
       321  26  5.837458E+05 -2.074252E+05 -2.032145E+04  1.225361E+04  1.491099E+05  3.182407E+04
       321  27  5.434289E+05  7.344444E+04  1.421475E+05  7.247677E+04  2.168246E+05  1.060519E+04
       322   1  1.991711E+05  5.114600E+05  2.409281E+05 -1.504824E+05 -5.669437E+02  1.490704E+05
       322   2 -2.638337E+04  3.580922E+05  9.003209E+04 -6.685430E+04 -3.282137E+03  9.136705E+04
       322   3 -5.534146E+04  2.611226E+05  2.577598E+04 -4.645120E+04 -8.920411E+03  3.366922E+04
       322   4  1.832343E+05  4.491896E+05  2.251702E+05 -7.341592E+04 -5.503176E+02  1.500944E+05
       322   5 -1.102495E+04  4.211976E+05  1.042702E+05 -4.197489E+04 -3.284035E+03  9.456607E+04
       322   6 -9.077827E+03  4.492200E+05  6.851024E+04 -7.374578E+04 -8.931062E+03  3.903207E+04
       322   7  1.673196E+05  3.869355E+05  2.094153E+05  3.642883E+03 -5.334359E+02  1.511182E+05
       322   8  4.335539E+03  4.843082E+05  1.185084E+05 -1.709293E+04 -3.285677E+03  9.776542E+04
       322   9  3.718615E+04  6.373517E+05  1.112427E+05 -1.010487E+05 -8.942183E+03  4.439653E+04
       322  10  1.991651E+05  5.114361E+05  2.408863E+05 -1.504824E+05 -2.336105E-10 -4.683195E-10
       322  11 -2.638562E+04  3.580832E+05  9.001640E+04 -6.685406E+04 -8.552828E-10 -4.449260E-10
       322  12 -5.534184E+04  2.611214E+05  2.577370E+04 -4.645096E+04  1.493209E-09  4.625100E-10
       322  13  1.832283E+05  4.491654E+05  2.251279E+05 -7.341585E+04  1.068203E-09  8.918662E-10
       322  14 -1.102736E+04  4.211880E+05  1.042534E+05 -4.197464E+04 -5.032827E-10 -1.900832E-09
       322  15 -9.078321E+03  4.492183E+05  6.850723E+04 -7.374550E+04  6.087295E-10  3.594615E-10
       322  16  1.673135E+05  3.869110E+05  2.093724E+05  3.642948E+03  1.355419E-10  4.258353E-10
       322  17  4.332964E+03  4.842979E+05  1.184905E+05 -1.709267E+04  9.196899E-10 -6.854648E-10
       322  18  3.718554E+04  6.373496E+05  1.112389E+05 -1.010484E+05 -3.326800E-10 -1.388981E-09
       322  19  1.991711E+05  5.114600E+05  2.409281E+05 -1.504824E+05  5.669437E+02 -1.490704E+05
       322  20 -2.638337E+04  3.580922E+05  9.003209E+04 -6.685430E+04  3.282137E+03 -9.136705E+04
       322  21 -5.534146E+04  2.611226E+05  2.577598E+04 -4.645120E+04  8.920411E+03 -3.366922E+04
       322  22  1.832343E+05  4.491896E+05  2.251702E+05 -7.341592E+04  5.503176E+02 -1.500944E+05
       322  23 -1.102495E+04  4.211976E+05  1.042702E+05 -4.197489E+04  3.284035E+03 -9.456607E+04
       322  24 -9.077827E+03  4.492200E+05  6.851024E+04 -7.374578E+04  8.931062E+03 -3.903207E+04
       322  25  1.673196E+05  3.869355E+05  2.094153E+05  3.642883E+03  5.334359E+02 -1.511182E+05
       322  26  4.335539E+03  4.843082E+05  1.185084E+05 -1.709293E+04  3.285677E+03 -9.776542E+04
       322  27  3.718615E+04  6.373517E+05  1.112427E+05 -1.010487E+05  8.942183E+03 -4.439653E+04
       323   1 -6.221579E+04  1.334544E+05 -1.061408E+04 -7.960520E+04 -1.304299E+04  2.366893E+04
       323   2 -1.075207E+05  3.351348E+03 -5.364644E+04 -4.172111E+04 -1.895806E+04  1.738853E+03
       323   3 -1.273215E+05 -1.176291E+05 -7.605754E+04 -6.745681E+04 -2.387144E+04 -2.018163E+04
       323   4  1.281264E+04  4.388024E+05  5.939504E+04 -7.373573E+04 -1.305044E+04  2.848166E+04
       323   5 -1.676139E+03  4.341714E+05  4.485060E+04 -4.193090E+04 -1.896318E+04  5.794298E+03
       323   6  9.462176E+03  4.387744E+05  5.144652E+04 -7.374190E+04 -2.387417E+04 -1.688779E+04
       323   7  8.783474E+04  7.442369E+05  1.293981E+05 -6.786332E+04 -1.305779E+04  3.329674E+04
       323   8  1.041555E+05  8.651634E+05  1.433355E+05 -4.214076E+04 -1.896829E+04  9.852531E+03
       323   9  1.462244E+05  9.954647E+05  1.789303E+05 -8.003255E+04 -2.387697E+04 -1.359102E+04
       323  10 -6.221612E+04  1.334537E+05 -1.061545E+04 -7.960495E+04  6.618579E-10 -2.767984E-10
       323  11 -1.075211E+05  3.351248E+03 -5.364712E+04 -4.172109E+04  2.202315E-12 -8.370867E-10
       323  12 -1.273222E+05 -1.176297E+05 -7.605938E+04 -6.745720E+04 -5.311489E-10  7.850000E-11
       323  13  1.281224E+04  4.388015E+05  5.939320E+04 -7.373544E+04 -2.541406E-11  9.619249E-10
       323  14 -1.676534E+03  4.341712E+05  4.484986E+04 -4.193081E+04  7.905924E-10 -1.465839E-09
       323  15  9.461487E+03  4.387739E+05  5.144491E+04 -7.374222E+04  7.603568E-10  1.405692E-10
       323  16  8.783426E+04  7.442357E+05  1.293957E+05 -6.786297E+04 -2.133753E-10  3.697593E-10
       323  17  1.041551E+05  8.651632E+05  1.433347E+05 -4.214061E+04 -1.210151E-09 -2.258058E-10
       323  18  1.462238E+05  9.954643E+05  1.789289E+05 -8.003281E+04 -4.558280E-10 -7.741991E-10
       323  19 -6.221579E+04  1.334544E+05 -1.061408E+04 -7.960520E+04  1.304299E+04 -2.366893E+04
       323  20 -1.075207E+05  3.351348E+03 -5.364644E+04 -4.172111E+04  1.895806E+04 -1.738853E+03
       323  21 -1.273215E+05 -1.176291E+05 -7.605754E+04 -6.745681E+04  2.387144E+04  2.018163E+04
       323  22  1.281264E+04  4.388024E+05  5.939504E+04 -7.373573E+04  1.305044E+04 -2.848166E+04
       323  23 -1.676139E+03  4.341714E+05  4.485060E+04 -4.193090E+04  1.896318E+04 -5.794298E+03
       323  24  9.462176E+03  4.387744E+05  5.144652E+04 -7.374190E+04  2.387417E+04  1.688779E+04
       323  25  8.783474E+04  7.442369E+05  1.293981E+05 -6.786332E+04  1.305779E+04 -3.329674E+04
       323  26  1.041555E+05  8.651634E+05  1.433355E+05 -4.214076E+04  1.896829E+04 -9.852531E+03
       323  27  1.462244E+05  9.954647E+05  1.789303E+05 -8.003255E+04  2.387697E+04  1.359102E+04
       324   1 -1.722254E+05 -2.278764E+05 -9.688460E+04 -9.382294E+04 -3.029292E+04 -3.654024E+04
       324   2 -2.053158E+05 -3.744855E+05 -1.019867E+05 -2.238209E+04 -3.258676E+04 -6.218202E+04
       324   3 -9.032608E+04 -4.804760E+05 -5.331060E+04 -1.399412E+04 -1.082215E+04 -8.780293E+04
       324   4 -6.672051E+03  4.463940E+05  5.695611E+04 -7.364869E+04 -3.030452E+04 -2.588923E+04
       324   5 -8.682297E+03  4.245266E+05  8.196078E+04 -4.207663E+04 -3.257579E+04 -6.947057E+04
       324   6  1.403921E+05  4.463125E+05  1.731453E+05 -7.354609E+04 -1.079910E+04 -1.130373E+05
       324   7  1.588514E+05  1.121087E+06  2.107678E+05 -5.345218E+04 -3.031543E+04 -1.522673E+04
       324   8  1.879081E+05  1.224130E+06  2.658664E+05 -6.179658E+04 -3.256438E+04 -7.676840E+04
       324   9  3.710604E+05  1.373893E+06  3.995428E+05 -1.331871E+05 -1.077124E+04 -1.383091E+05
       324  10 -1.722267E+05 -2.278780E+05 -9.688883E+04 -9.382383E+04  3.073245E-10  8.004488E-11
       324  11 -2.053180E+05 -3.744899E+05 -1.019960E+05 -2.238373E+04 -1.700363E-10 -2.203528E-10
       324  12 -9.032827E+04 -4.804843E+05 -5.332532E+04 -1.399489E+04 -2.429257E-10  1.381457E-11
       324  13 -6.673217E+03  4.463930E+05  5.695313E+04 -7.364932E+04 -6.196604E-10  5.883778E-10
       324  14 -8.684731E+03  4.245211E+05  8.194972E+04 -4.207845E+04  1.316768E-10 -9.078915E-10
       324  15  1.403885E+05  4.462988E+05  1.731211E+05 -7.354707E+04 -1.736216E-10  4.004170E-11
       324  16  1.588503E+05  1.121086E+06  2.107657E+05 -5.345255E+04  1.806389E-10 -2.427353E-10
       324  17  1.879053E+05  1.224124E+06  2.658533E+05 -6.179859E+04 -2.721956E-10 -2.768720E-10
       324  18  3.710552E+05  1.373873E+06  3.995067E+05 -1.331883E+05 -2.295762E-10 -1.645830E-10
       324  19 -1.722254E+05 -2.278764E+05 -9.688460E+04 -9.382294E+04  3.029292E+04  3.654024E+04
       324  20 -2.053158E+05 -3.744855E+05 -1.019867E+05 -2.238209E+04  3.258676E+04  6.218202E+04
       324  21 -9.032608E+04 -4.804760E+05 -5.331060E+04 -1.399412E+04  1.082215E+04  8.780293E+04
       324  22 -6.672051E+03  4.463940E+05  5.695611E+04 -7.364869E+04  3.030452E+04  2.588923E+04
       324  23 -8.682297E+03  4.245266E+05  8.196078E+04 -4.207663E+04  3.257579E+04  6.947057E+04
       324  24  1.403921E+05  4.463125E+05  1.731453E+05 -7.354609E+04  1.079910E+04  1.130373E+05
       324  25  1.588514E+05  1.121087E+06  2.107678E+05 -5.345218E+04  3.031543E+04  1.522673E+04
       324  26  1.879081E+05  1.224130E+06  2.658664E+05 -6.179658E+04  3.256438E+04  7.676840E+04
       324  27  3.710604E+05  1.373893E+06  3.995428E+05 -1.331871E+05  1.077124E+04  1.383091E+05
       325   1 -2.722951E+06 -1.042017E+06 -5.679024E+05 -1.055959E+06 -2.720046E+05 -8.334070E+04
       325   2 -2.651010E+06 -7.522091E+05 -3.460286E+05 -1.022456E+06 -1.730698E+05 -2.063137E+03
       325   3 -2.639608E+06 -6.340541E+05 -2.517682E+05 -9.670609E+05 -6.314526E+04  5.014011E+04
       325   4 -1.731141E+06 -5.289545E+05 -2.846787E+05 -6.407526E+05 -1.901161E+05 -5.257329E+04
       325   5 -1.689599E+06 -3.371477E+05 -1.311713E+05 -6.932149E+05 -1.360358E+05  1.184921E+04
       325   6 -1.699578E+06 -3.079541E+05 -6.951928E+04 -7.238203E+05 -7.098715E+04  4.718085E+04
       325   7 -7.383207E+05 -1.553933E+04 -1.521296E+03 -2.248601E+05 -1.080862E+05 -2.170591E+04
       325   8 -7.272280E+05  7.809287E+04  8.363468E+04 -3.634674E+05 -9.894003E+04  2.579408E+04
       325   9 -7.586186E+05  1.820658E+04  1.126941E+05 -4.802431E+05 -7.884190E+04  4.421731E+04
       325  10 -2.723032E+06 -1.042045E+06 -5.680552E+05 -1.055977E+06  5.999720E-10  3.451847E-10
       325  11 -2.651043E+06 -7.522171E+05 -3.460851E+05 -1.022456E+06  2.060583E-09 -3.299405E-10
       325  12 -2.639613E+06 -6.340579E+05 -2.517804E+05 -9.670583E+05  1.349532E-09  7.253941E-10
       325  13 -1.731181E+06 -5.289672E+05 -2.847520E+05 -6.407607E+05 -1.476835E-09  2.840410E-10
       325  14 -1.689619E+06 -3.371528E+05 -1.312064E+05 -6.932136E+05 -1.908339E-10 -2.689133E-10
       325  15 -1.699584E+06 -3.079579E+05 -6.953294E+04 -7.238176E+05 -8.624822E-10 -1.611845E-10
       325  16 -7.383334E+05 -1.554298E+04 -1.544165E+03 -2.248620E+05 -1.263633E-09 -1.417022E-09
       325  17 -7.272387E+05  7.808953E+04  8.361502E+04 -3.634653E+05 -1.343104E-09 -1.535643E-09
       325  18 -7.586258E+05  1.820282E+04  1.126787E+05 -4.802403E+05 -2.612317E-10 -1.857916E-09
       325  19 -2.722951E+06 -1.042017E+06 -5.679024E+05 -1.055959E+06  2.720046E+05  8.334070E+04
       325  20 -2.651010E+06 -7.522091E+05 -3.460286E+05 -1.022456E+06  1.730698E+05  2.063137E+03
       325  21 -2.639608E+06 -6.340541E+05 -2.517682E+05 -9.670609E+05  6.314526E+04 -5.014011E+04
       325  22 -1.731141E+06 -5.289545E+05 -2.846787E+05 -6.407526E+05  1.901161E+05  5.257329E+04
       325  23 -1.689599E+06 -3.371477E+05 -1.311713E+05 -6.932149E+05  1.360358E+05 -1.184921E+04
       325  24 -1.699578E+06 -3.079541E+05 -6.951928E+04 -7.238203E+05  7.098715E+04 -4.718085E+04
       325  25 -7.383207E+05 -1.553933E+04 -1.521296E+03 -2.248601E+05  1.080862E+05  2.170591E+04
       325  26 -7.272280E+05  7.809287E+04  8.363468E+04 -3.634674E+05  9.894003E+04 -2.579408E+04
       325  27 -7.586186E+05  1.820658E+04  1.126941E+05 -4.802431E+05  7.884190E+04 -4.421731E+04
       326   1 -2.559403E+06 -6.338495E+05 -2.230583E+05 -9.635206E+05 -5.877529E+04  4.815360E+04
       326   2 -2.482399E+06 -5.851262E+05 -1.786095E+05 -9.322131E+05 -4.016467E+04  5.160993E+04
       326   3 -2.395577E+06 -5.591469E+05 -1.492214E+05 -9.166383E+05 -2.071214E+04  5.282486E+04
       326   4 -1.690964E+06 -3.132006E+05 -5.274403E+04 -7.184355E+05 -6.187478E+04  4.697816E+04
       326   5 -1.695516E+06 -2.974611E+05 -2.783441E+04 -7.123251E+05 -4.670719E+04  4.914248E+04
       326   6 -1.689565E+06 -3.037724E+05 -1.523404E+04 -7.219483E+05 -3.070083E+04  4.906586E+04
       326   7 -8.217392E+05  7.520205E+03  1.175360E+05 -4.730296E+05 -6.497891E+04  4.580094E+04
       326   8 -9.079894E+05 -9.739984E+03  1.229136E+05 -4.921778E+05 -5.325858E+04  4.667168E+04
       326   9 -9.830378E+05 -4.835645E+04  1.187314E+05 -5.270543E+05 -4.070163E+04  4.530240E+04
       326  10 -2.559407E+06 -6.338530E+05 -2.230691E+05 -9.635183E+05  2.418684E-08  1.019281E-08
       326  11 -2.482402E+06 -5.851295E+05 -1.786176E+05 -9.322115E+05  3.627879E-09  3.717864E-09
       326  12 -2.395578E+06 -5.591500E+05 -1.492274E+05 -9.166374E+05 -1.984902E-08 -7.481397E-09
       326  13 -1.690968E+06 -3.132040E+05 -5.275537E+04 -7.184332E+05  1.933653E-09  1.077581E-09
       326  14 -1.695519E+06 -2.974643E+05 -2.784304E+04 -7.123233E+05  5.979742E-09  2.365625E-09
       326  15 -1.689566E+06 -3.037752E+05 -1.524033E+04 -7.219471E+05  2.262708E-09  1.461005E-09
       326  16 -8.217443E+05  7.516822E+03  1.175241E+05 -4.730272E+05 -2.026683E-08 -7.586064E-09
       326  17 -9.079931E+05 -9.743081E+03  1.229042E+05 -4.921758E+05  5.129597E-09  2.914334E-09
       326  18 -9.830401E+05 -4.835909E+04  1.187244E+05 -5.270528E+05  2.382332E-08  1.077036E-08
       326  19 -2.559403E+06 -6.338495E+05 -2.230583E+05 -9.635206E+05  5.877529E+04 -4.815360E+04
       326  20 -2.482399E+06 -5.851262E+05 -1.786095E+05 -9.322131E+05  4.016467E+04 -5.160993E+04
       326  21 -2.395577E+06 -5.591469E+05 -1.492214E+05 -9.166383E+05  2.071214E+04 -5.282486E+04
       326  22 -1.690964E+06 -3.132006E+05 -5.274403E+04 -7.184355E+05  6.187478E+04 -4.697816E+04
       326  23 -1.695516E+06 -2.974611E+05 -2.783441E+04 -7.123251E+05  4.670719E+04 -4.914248E+04
       326  24 -1.689565E+06 -3.037724E+05 -1.523404E+04 -7.219483E+05  3.070083E+04 -4.906586E+04
       326  25 -8.217392E+05  7.520205E+03  1.175360E+05 -4.730296E+05  6.497891E+04 -4.580094E+04
       326  26 -9.079894E+05 -9.739984E+03  1.229136E+05 -4.921778E+05  5.325858E+04 -4.667168E+04
       326  27 -9.830378E+05 -4.835645E+04  1.187314E+05 -5.270543E+05  4.070163E+04 -4.530240E+04
       327   1 -2.338457E+06 -5.398694E+05 -1.343874E+05 -9.017830E+05 -1.750164E+04  4.971358E+04
       327   2 -2.261749E+06 -5.015244E+05 -1.132830E+05 -8.699072E+05 -1.169526E+04  4.466402E+04
       327   3 -2.170469E+06 -4.786964E+05 -9.481591E+04 -8.553471E+05 -5.821466E+03  3.942691E+04
       327   4 -1.688885E+06 -3.040524E+05 -1.145641E+04 -7.216392E+05 -2.715428E+04  4.608276E+04
       327   5 -1.696156E+06 -2.961869E+05 -6.297025E+03 -7.130227E+05 -2.163455E+04  4.092825E+04
       327   6 -1.688809E+06 -3.037813E+05 -3.546455E+03 -7.217240E+05 -1.604796E+04  3.558612E+04
       327   7 -1.038864E+06 -6.819490E+04  1.114595E+05 -5.413180E+05 -3.681785E+04  4.244785E+04
       327   8 -1.130225E+06 -9.081929E+04  1.006771E+05 -5.560043E+05 -3.158361E+04  3.718883E+04
       327   9 -1.206905E+06 -1.288451E+05  8.771399E+04 -5.880042E+05 -2.628297E+04  3.174215E+04
       327  10 -2.338458E+06 -5.398721E+05 -1.343926E+05 -9.017823E+05  8.249264E-10 -3.625800E-10
       327  11 -2.261749E+06 -5.015266E+05 -1.132870E+05 -8.699068E+05  2.894918E-10 -8.885220E-10
       327  12 -2.170470E+06 -4.786981E+05 -9.481889E+04 -8.553469E+05 -7.043271E-10 -7.622053E-10
       327  13 -1.688886E+06 -3.040549E+05 -1.146178E+04 -7.216382E+05 -9.061522E-11  1.601186E-10
       327  14 -1.696157E+06 -2.961888E+05 -6.301049E+03 -7.130220E+05  3.395777E-10 -5.336169E-10
       327  15 -1.688809E+06 -3.037827E+05 -3.549316E+03 -7.217236E+05 -1.724404E-10 -6.425904E-10
       327  16 -1.038866E+06 -6.819720E+04  1.114535E+05 -5.413168E+05 -3.469442E-10  8.966834E-10
       327  17 -1.130227E+06 -9.082104E+04  1.006726E+05 -5.560033E+05  1.235950E-10 -2.323950E-10
       327  18 -1.206906E+06 -1.288463E+05  8.771080E+04 -5.880035E+05  7.830331E-10 -3.115558E-10
       327  19 -2.338457E+06 -5.398694E+05 -1.343874E+05 -9.017830E+05  1.750164E+04 -4.971358E+04
       327  20 -2.261749E+06 -5.015244E+05 -1.132830E+05 -8.699072E+05  1.169526E+04 -4.466402E+04
       327  21 -2.170469E+06 -4.786964E+05 -9.481591E+04 -8.553471E+05  5.821466E+03 -3.942691E+04
       327  22 -1.688885E+06 -3.040524E+05 -1.145641E+04 -7.216392E+05  2.715428E+04 -4.608276E+04
       327  23 -1.696156E+06 -2.961869E+05 -6.297025E+03 -7.130227E+05  2.163455E+04 -4.092825E+04
       327  24 -1.688809E+06 -3.037813E+05 -3.546455E+03 -7.217240E+05  1.604796E+04 -3.558612E+04
       327  25 -1.038864E+06 -6.819490E+04  1.114595E+05 -5.413180E+05  3.681785E+04 -4.244785E+04
       327  26 -1.130225E+06 -9.081929E+04  1.006771E+05 -5.560043E+05  3.158361E+04 -3.718883E+04
       327  27 -1.206905E+06 -1.288451E+05  8.771399E+04 -5.880042E+05  2.628297E+04 -3.174215E+04
       328   1 -2.114320E+06 -4.583267E+05 -8.293678E+04 -8.398609E+05 -3.862186E+03  3.576353E+04
       328   2 -2.037365E+06 -4.200898E+05 -6.615559E+04 -8.077158E+05 -4.932742E+02  2.947374E+04
       328   3 -1.945315E+06 -3.970717E+05 -5.003103E+04 -7.929881E+05  2.882375E+03  2.316016E+04
       328   4 -1.688702E+06 -3.038038E+05 -2.728186E+03 -7.217126E+05 -1.408084E+04  3.192704E+04
       328   5 -1.696239E+06 -2.961893E+05 -1.702838E+03 -7.130016E+05 -1.074836E+04  2.562531E+04
       328   6 -1.688681E+06 -3.037868E+05 -1.305438E+03 -7.217107E+05 -7.409263E+03  1.929971E+04
       328   7 -1.262898E+06 -1.492658E+05  7.747251E+04 -6.034898E+05 -2.430691E+04  2.808779E+04
       328   8 -1.354991E+06 -1.722782E+05  6.274564E+04 -6.182389E+05 -2.100949E+04  2.177461E+04
       328   9 -1.431975E+06 -2.104949E+05  4.741853E+04 -6.504051E+05 -1.770556E+04  1.543752E+04
       328  10 -2.114320E+06 -4.583281E+05 -8.293921E+04 -8.398607E+05  1.621867E-10 -2.594852E-10
       328  11 -2.037366E+06 -4.200907E+05 -6.615722E+04 -8.077158E+05  2.429550E-10  1.633218E-12
       328  12 -1.945315E+06 -3.970722E+05 -5.003206E+04 -7.929882E+05  8.087833E-10 -5.764203E-11
       328  13 -1.688702E+06 -3.038050E+05 -2.730472E+03 -7.217122E+05  4.567156E-11 -3.093385E-10
       328  14 -1.696239E+06 -2.961901E+05 -1.704288E+03 -7.130014E+05  1.456982E-10 -1.385318E-10
       328  15 -1.688681E+06 -3.037872E+05 -1.306241E+03 -7.217106E+05 -2.367889E-10 -7.882697E-11
       328  16 -1.262898E+06 -1.492668E+05  7.746991E+04 -6.034892E+05 -6.090672E-10 -3.464284E-10
       328  17 -1.354991E+06 -1.722788E+05  6.274392E+04 -6.182386E+05 -8.423711E-10 -1.942137E-10
       328  18 -1.431975E+06 -2.104952E+05  4.741750E+04 -6.504048E+05 -3.254534E-10  1.304653E-10
       328  19 -2.114320E+06 -4.583267E+05 -8.293678E+04 -8.398609E+05  3.862186E+03 -3.576353E+04
       328  20 -2.037365E+06 -4.200898E+05 -6.615559E+04 -8.077158E+05  4.932742E+02 -2.947374E+04
       328  21 -1.945315E+06 -3.970717E+05 -5.003103E+04 -7.929881E+05 -2.882375E+03 -2.316016E+04
       328  22 -1.688702E+06 -3.038038E+05 -2.728186E+03 -7.217126E+05  1.408084E+04 -3.192704E+04
       328  23 -1.696239E+06 -2.961893E+05 -1.702838E+03 -7.130016E+05  1.074836E+04 -2.562531E+04
       328  24 -1.688681E+06 -3.037868E+05 -1.305438E+03 -7.217107E+05  7.409263E+03 -1.929971E+04
       328  25 -1.262898E+06 -1.492658E+05  7.747251E+04 -6.034898E+05  2.430691E+04 -2.808779E+04
       328  26 -1.354991E+06 -1.722782E+05  6.274564E+04 -6.182389E+05  2.100949E+04 -2.177461E+04
       328  27 -1.431975E+06 -2.104949E+05  4.741853E+04 -6.504051E+05  1.770556E+04 -1.543752E+04
       329   1 -1.889020E+06 -3.765600E+05 -3.890795E+04 -7.774163E+05  4.561888E+03  1.936836E+04
       329   2 -1.811795E+06 -3.382104E+05 -2.344147E+04 -7.451883E+05  7.853788E+03  1.300662E+04
       329   3 -1.719434E+06 -3.151164E+05 -8.567776E+03 -7.304373E+05  1.114394E+04  6.647476E+03
       329   4 -1.688666E+06 -3.037903E+05 -1.288934E+03 -7.217236E+05 -5.739056E+03  1.550510E+04
       329   5 -1.696224E+06 -2.961377E+05 -1.603640E+03 -7.129916E+05 -2.443474E+03  9.145324E+03
       329   6 -1.688653E+06 -3.037418E+05 -2.514370E+03 -7.217392E+05  8.502364E+02  2.788127E+03
       329   7 -1.488270E+06 -2.310168E+05  3.632892E+04 -6.660141E+05 -1.604356E+04  1.164050E+04
       329   8 -1.580639E+06 -2.540638E+05  2.023395E+04 -6.807894E+05 -1.274274E+04  5.283272E+03
       329   9 -1.657871E+06 -2.923671E+05  3.539369E+03 -7.130407E+05 -9.443924E+03 -1.071399E+03
       329  10 -1.889020E+06 -3.765604E+05 -3.890869E+04 -7.774164E+05 -5.009296E-11 -2.272091E-10
       329  11 -1.811795E+06 -3.382106E+05 -2.344191E+04 -7.451884E+05  5.912488E-11  1.975068E-10
       329  12 -1.719434E+06 -3.151165E+05 -8.568093E+03 -7.304374E+05  2.089653E-10 -9.832692E-11
       329  13 -1.688666E+06 -3.037905E+05 -1.289447E+03 -7.217236E+05  7.171847E-10  2.706748E-10
       329  14 -1.696224E+06 -2.961377E+05 -1.603808E+03 -7.129916E+05  8.777079E-11  2.234516E-10
       329  15 -1.688653E+06 -3.037418E+05 -2.514386E+03 -7.217392E+05 -8.007113E-10 -2.495943E-10
       329  16 -1.488271E+06 -2.310170E+05  3.632818E+04 -6.660140E+05 -6.837482E-11  4.703455E-10
       329  17 -1.580639E+06 -2.540639E+05  2.023360E+04 -6.807893E+05  1.779084E-10  2.312464E-10
       329  18 -1.657871E+06 -2.923671E+05  3.539198E+03 -7.130407E+05 -3.056109E-10  2.075265E-10
       329  19 -1.889020E+06 -3.765600E+05 -3.890795E+04 -7.774163E+05 -4.561888E+03 -1.936836E+04
       329  20 -1.811795E+06 -3.382104E+05 -2.344147E+04 -7.451883E+05 -7.853788E+03 -1.300662E+04
       329  21 -1.719434E+06 -3.151164E+05 -8.567776E+03 -7.304373E+05 -1.114394E+04 -6.647476E+03
       329  22 -1.688666E+06 -3.037903E+05 -1.288934E+03 -7.217236E+05  5.739056E+03 -1.550510E+04
       329  23 -1.696224E+06 -2.961377E+05 -1.603640E+03 -7.129916E+05  2.443474E+03 -9.145324E+03
       329  24 -1.688653E+06 -3.037418E+05 -2.514370E+03 -7.217392E+05 -8.502364E+02 -2.788127E+03
       329  25 -1.488270E+06 -2.310168E+05  3.632892E+04 -6.660141E+05  1.604356E+04 -1.164050E+04
       329  26 -1.580639E+06 -2.540638E+05  2.023395E+04 -6.807894E+05  1.274274E+04 -5.283272E+03
       329  27 -1.657871E+06 -2.923671E+05  3.539369E+03 -7.130407E+05  9.443924E+03  1.071399E+03
       330   1 -1.663065E+06 -2.945944E+05  1.821490E+03 -7.149075E+05  1.309407E+04  2.952625E+03
       330   2 -1.585624E+06 -2.562375E+05  1.516174E+04 -6.826723E+05  1.827668E+04 -2.646528E+03
       330   3 -1.493395E+06 -2.334172E+05  2.641972E+04 -6.679339E+05  2.342106E+04 -8.140730E+03
       330   4 -1.688727E+06 -3.037283E+05 -3.254389E+03 -7.217751E+05  2.783301E+03 -9.131115E+02
       330   5 -1.696117E+06 -2.960356E+05 -5.744537E+03 -7.129922E+05  8.126531E+03 -6.452615E+03
       330   6 -1.688762E+06 -3.039134E+05 -1.044588E+04 -7.217101E+05  1.343112E+04 -1.188728E+04
       330   7 -1.714388E+06 -3.128620E+05 -8.329907E+03 -7.286425E+05 -7.527105E+03 -4.778721E+03
       330   8 -1.806599E+06 -3.358327E+05 -2.665102E+04 -7.433072E+05 -2.021728E+03 -1.025801E+04
       330   9 -1.884089E+06 -3.744063E+05 -4.731261E+04 -7.754704E+05  3.444557E+03 -1.563259E+04
       330  10 -1.663065E+06 -2.945945E+05  1.821150E+03 -7.149075E+05  3.075424E-10 -6.152889E-11
       330  11 -1.585624E+06 -2.562376E+05  1.516110E+04 -6.826723E+05  1.842409E-10  1.879492E-10
       330  12 -1.493395E+06 -2.334174E+05  2.641856E+04 -6.679338E+05 -1.300270E-09 -2.220215E-10
       330  13 -1.688727E+06 -3.037283E+05 -3.254405E+03 -7.217751E+05 -1.365237E-10 -9.402919E-11
       330  14 -1.696117E+06 -2.960356E+05 -5.744739E+03 -7.129922E+05 -9.832908E-10 -5.918618E-10
       330  15 -1.688762E+06 -3.039136E+05 -1.044648E+04 -7.217099E+05  2.371159E-10  5.152769E-10
       330  16 -1.714388E+06 -3.128621E+05 -8.330057E+03 -7.286425E+05 -3.810502E-10 -2.012240E-10
       330  17 -1.806599E+06 -3.358328E+05 -2.665122E+04 -7.433073E+05  8.522960E-10  8.876049E-11
       330  18 -1.884089E+06 -3.744065E+05 -4.731309E+04 -7.754704E+05  3.016121E-10  8.152455E-10
       330  19 -1.663065E+06 -2.945944E+05  1.821490E+03 -7.149075E+05 -1.309407E+04 -2.952625E+03
       330  20 -1.585624E+06 -2.562375E+05  1.516174E+04 -6.826723E+05 -1.827668E+04  2.646528E+03
       330  21 -1.493395E+06 -2.334172E+05  2.641972E+04 -6.679339E+05 -2.342106E+04  8.140730E+03
       330  22 -1.688727E+06 -3.037283E+05 -3.254389E+03 -7.217751E+05 -2.783301E+03  9.131115E+02
       330  23 -1.696117E+06 -2.960356E+05 -5.744537E+03 -7.129922E+05 -8.126531E+03  6.452615E+03
       330  24 -1.688762E+06 -3.039134E+05 -1.044588E+04 -7.217101E+05 -1.343112E+04  1.188728E+04
       330  25 -1.714388E+06 -3.128620E+05 -8.329907E+03 -7.286425E+05  7.527105E+03  4.778721E+03
       330  26 -1.806599E+06 -3.358327E+05 -2.665102E+04 -7.433072E+05  2.021728E+03  1.025801E+04
       330  27 -1.884089E+06 -3.744063E+05 -4.731261E+04 -7.754704E+05 -3.444557E+03  1.563259E+04
       331   1 -1.436885E+06 -2.133565E+05  3.413053E+04 -6.534731E+05  2.701243E+04 -1.118361E+04
       331   2 -1.360404E+06 -1.743087E+05  3.917043E+04 -6.183969E+05  3.992362E+04 -1.309291E+04
       331   3 -1.272427E+06 -1.565539E+05  3.461489E+04 -5.995253E+05  5.233448E+04 -1.366040E+04
       331   4 -1.689358E+06 -3.036736E+05 -1.389068E+04 -7.220272E+05  1.681196E+04 -1.500971E+04
       331   5 -1.695515E+06 -2.970922E+05 -2.536248E+04 -7.123287E+05  3.179091E+04 -1.614509E+04
       331   6 -1.690598E+06 -3.122186E+05 -4.807638E+04 -7.188386E+05  4.626796E+04 -1.593891E+04
       331   7 -1.941762E+06 -3.939846E+05 -6.191347E+04 -7.905548E+05  6.616032E+03 -1.883417E+04
       331   8 -2.030509E+06 -4.198652E+05 -8.989994E+04 -8.062131E+05  2.366290E+04 -1.919548E+04
       331   9 -2.108591E+06 -4.678673E+05 -1.307766E+05 -8.380776E+05  4.020577E+04 -1.821572E+04
       331  10 -1.436886E+06 -2.133568E+05  3.412892E+04 -6.534729E+05  2.257497E-10  2.970525E-10
       331  11 -1.360405E+06 -1.743093E+05  3.916711E+04 -6.183965E+05 -1.217895E-09 -3.295947E-11
       331  12 -1.272430E+06 -1.565549E+05  3.460939E+04 -5.995247E+05 -4.819317E-10 -2.159927E-10
       331  13 -1.689359E+06 -3.036739E+05 -1.389163E+04 -7.220270E+05 -7.190815E-11  5.710536E-10
       331  14 -1.695516E+06 -2.970928E+05 -2.536487E+04 -7.123283E+05 -5.208483E-10  2.749303E-10
       331  15 -1.690600E+06 -3.122194E+05 -4.808089E+04 -7.188380E+05 -7.906842E-10 -1.954374E-10
       331  16 -1.941762E+06 -3.939850E+05 -6.191422E+04 -7.905547E+05 -4.310297E-10  9.004050E-10
       331  17 -2.030510E+06 -4.198657E+05 -8.990168E+04 -8.062128E+05 -4.909911E-11  5.640960E-10
       331  18 -2.108593E+06 -4.678680E+05 -1.307803E+05 -8.380770E+05  3.301172E-10 -2.322114E-11
       331  19 -1.436885E+06 -2.133565E+05  3.413053E+04 -6.534731E+05 -2.701243E+04  1.118361E+04
       331  20 -1.360404E+06 -1.743087E+05  3.917043E+04 -6.183969E+05 -3.992362E+04  1.309291E+04
       331  21 -1.272427E+06 -1.565539E+05  3.461489E+04 -5.995253E+05 -5.233448E+04  1.366040E+04
       331  22 -1.689358E+06 -3.036736E+05 -1.389068E+04 -7.220272E+05 -1.681196E+04  1.500971E+04
       331  23 -1.695515E+06 -2.970922E+05 -2.536248E+04 -7.123287E+05 -3.179091E+04  1.614509E+04
       331  24 -1.690598E+06 -3.122186E+05 -4.807638E+04 -7.188386E+05 -4.626796E+04  1.593891E+04
       331  25 -1.941762E+06 -3.939846E+05 -6.191347E+04 -7.905548E+05 -6.616032E+03  1.883417E+04
       331  26 -2.030509E+06 -4.198652E+05 -8.989994E+04 -8.062131E+05 -2.366290E+04  1.919548E+04
       331  27 -2.108591E+06 -4.678673E+05 -1.307766E+05 -8.380776E+05 -4.020577E+04  1.821572E+04
       332   1 -1.209310E+06 -1.449840E+05  3.102843E+04 -6.047826E+05  6.372363E+04 -1.337494E+04
       332   2 -1.171314E+06 -8.682838E+04  8.833441E+02 -4.939658E+05  9.813164E+04  2.966731E+03
       332   3 -1.172838E+06 -1.736690E+05 -9.153334E+04 -3.657288E+05  1.259769E+05  3.680182E+04
       332   4 -1.698344E+06 -3.075250E+05 -6.336864E+04 -7.238669E+05  5.479746E+04 -1.672558E+04
       332   5 -1.690190E+06 -3.331087E+05 -1.195522E+05 -6.947850E+05  1.162280E+05  9.747424E+03
       332   6 -1.726989E+06 -5.091551E+05 -2.595009E+05 -6.482805E+05  1.710865E+05  5.370874E+04
       332   7 -2.187134E+06 -4.700559E+05 -1.577765E+05 -8.428691E+05  4.587881E+04 -2.007399E+04
       332   8 -2.208771E+06 -5.793049E+05 -2.400001E+05 -8.954276E+05  1.343077E+05  1.651778E+04
       332   9 -2.280770E+06 -8.444236E+05 -4.274778E+05 -9.305425E+05  2.161506E+05  7.057514E+04
       332  10 -1.209314E+06 -1.449853E+05  3.102045E+04 -6.047819E+05 -3.432474E-10 -5.230441E-10
       332  11 -1.171324E+06 -8.683098E+04  8.651969E+02 -4.939661E+05 -2.023497E-11 -7.380251E-10
       332  12 -1.172856E+06 -1.736748E+05 -9.156577E+04 -3.657326E+05 -8.871595E-10 -2.675918E-10
       332  13 -1.698348E+06 -3.075261E+05 -6.337482E+04 -7.238662E+05  1.671115E-09 -3.969675E-10
       332  14 -1.690204E+06 -3.331124E+05 -1.195778E+05 -6.947860E+05  4.755037E-10 -2.762959E-10
       332  15 -1.727022E+06 -5.091661E+05 -2.595615E+05 -6.482879E+05 -3.724179E-11 -2.516760E-10
       332  16 -2.187136E+06 -4.700569E+05 -1.577813E+05 -8.428683E+05  5.498893E-10 -9.840386E-11
       332  17 -2.208790E+06 -5.793101E+05 -2.400347E+05 -8.954294E+05  8.185640E-10 -1.542363E-10
       332  18 -2.280822E+06 -8.444415E+05 -4.275754E+05 -9.305549E+05  2.011437E-10  1.669987E-10
       332  19 -1.209310E+06 -1.449840E+05  3.102843E+04 -6.047826E+05 -6.372363E+04  1.337494E+04
       332  20 -1.171314E+06 -8.682838E+04  8.833441E+02 -4.939658E+05 -9.813164E+04 -2.966731E+03
       332  21 -1.172838E+06 -1.736690E+05 -9.153334E+04 -3.657288E+05 -1.259769E+05 -3.680182E+04
       332  22 -1.698344E+06 -3.075250E+05 -6.336864E+04 -7.238669E+05 -5.479746E+04  1.672558E+04
       332  23 -1.690190E+06 -3.331087E+05 -1.195522E+05 -6.947850E+05 -1.162280E+05 -9.747424E+03
       332  24 -1.726989E+06 -5.091551E+05 -2.595009E+05 -6.482805E+05 -1.710865E+05 -5.370874E+04
       332  25 -2.187134E+06 -4.700559E+05 -1.577765E+05 -8.428691E+05 -4.587881E+04  2.007399E+04
       332  26 -2.208771E+06 -5.793049E+05 -2.400001E+05 -8.954276E+05 -1.343077E+05 -1.651778E+04
       332  27 -2.280770E+06 -8.444236E+05 -4.274778E+05 -9.305425E+05 -2.161506E+05 -7.057514E+04
       333   1  3.262068E+05  5.705603E+04  1.066954E+05  5.324064E+04  1.574155E+05  7.491441E+03
       333   2  3.540864E+05 -1.466597E+05 -1.145278E+04  9.304331E+03  1.080910E+05  2.247451E+04
       333   3  4.434300E+05 -1.311701E+05 -4.264257E+04 -6.382385E+04  5.877694E+04  2.206932E+04
       333   4  9.310675E+05  2.071857E+05  2.542214E+05 -3.315297E+04  1.744652E+05  7.488777E+03
       333   5  8.994266E+05 -1.265069E+04  1.139374E+05 -1.844540E+04  1.136288E+05  2.247352E+04
       333   6  9.311760E+05 -1.140324E+04  6.853916E+04 -3.292567E+04  5.280870E+04  2.206672E+04
       333   7  1.536278E+06  3.573168E+05  4.017259E+05 -1.196310E+05  1.915315E+05  7.481382E+03
       333   8  1.445043E+06  1.213405E+05  2.393085E+05 -4.621975E+04  1.191714E+05  2.247204E+04
       333   9  1.419145E+06  1.083507E+05  1.797060E+05 -2.003065E+03  4.683580E+04  2.206352E+04
       333  10  3.261802E+05  5.704932E+04  1.066488E+05  5.323969E+04  4.983339E-10 -1.151698E-09
       333  11  3.540738E+05 -1.466634E+05 -1.147567E+04  9.302375E+03 -1.292515E-10  3.112136E-10
       333  12  4.434261E+05 -1.311715E+05 -4.264998E+04 -6.382489E+04 -1.506025E-09 -7.517990E-10
       333  13  9.310348E+05  2.071775E+05  2.541642E+05 -3.315403E+04  3.008562E-10  8.344761E-10
       333  14  8.994126E+05 -1.265469E+04  1.139123E+05 -1.844746E+04 -4.906839E-10 -4.824437E-11
       333  15  9.311729E+05 -1.140451E+04  6.853301E+04 -3.292661E+04 -1.882800E-10 -8.914534E-10
       333  16  1.536239E+06  3.573070E+05  4.016570E+05 -1.196321E+05 -2.890953E-10  7.551974E-10
       333  17  1.445028E+06  1.213362E+05  2.392810E+05 -4.622191E+04 -3.019325E-10  1.805589E-10
       333  18  1.419142E+06  1.083496E+05  1.797010E+05 -2.003896E+03  2.239422E-09  1.432675E-09
       333  19  3.262068E+05  5.705603E+04  1.066954E+05  5.324064E+04 -1.574155E+05 -7.491441E+03
       333  20  3.540864E+05 -1.466597E+05 -1.145278E+04  9.304331E+03 -1.080910E+05 -2.247451E+04
       333  21  4.434300E+05 -1.311701E+05 -4.264257E+04 -6.382385E+04 -5.877694E+04 -2.206932E+04
       333  22  9.310675E+05  2.071857E+05  2.542214E+05 -3.315297E+04 -1.744652E+05 -7.488777E+03
       333  23  8.994266E+05 -1.265069E+04  1.139374E+05 -1.844540E+04 -1.136288E+05 -2.247352E+04
       333  24  9.311760E+05 -1.140324E+04  6.853916E+04 -3.292567E+04 -5.280870E+04 -2.206672E+04
       333  25  1.536278E+06  3.573168E+05  4.017259E+05 -1.196310E+05 -1.915315E+05 -7.481382E+03
       333  26  1.445043E+06  1.213405E+05  2.393085E+05 -4.621975E+04 -1.191714E+05 -2.247204E+04
       333  27  1.419145E+06  1.083507E+05  1.797060E+05 -2.003065E+03 -4.683580E+04 -2.206352E+04
       334   1  4.848041E+05 -9.170039E+04 -4.422685E+04 -2.807566E+04  4.394853E+04  1.861220E+04
       334   2  5.391855E+05 -9.355169E+04 -5.674825E+04 -1.730451E+04  2.973643E+04  1.657534E+04
       334   3  5.995799E+05 -7.920914E+04 -5.594757E+04 -3.560763E+04  1.552215E+04  1.381220E+04
       334   4  9.184377E+05  1.481663E+04  5.509233E+04 -3.296720E+04  4.272885E+04  1.861019E+04
       334   5  9.153995E+05 -1.178529E+03  2.920695E+04 -1.842674E+04  2.796648E+04  1.657375E+04
       334   6  9.184617E+05 -8.904842E+02  1.701829E+04 -3.295908E+04  1.320323E+04  1.381106E+04
       334   7  1.352245E+06  1.213207E+05  1.543992E+05 -3.786220E+04  4.150832E+04  1.860821E+04
       334   8  1.291745E+06  9.118482E+04  1.151529E+05 -1.954966E+04  2.619547E+04  1.657217E+04
       334   9  1.237438E+06  7.742114E+04  8.997752E+04 -3.030916E+04  1.088313E+04  1.380991E+04
       334  10  4.848019E+05 -9.170128E+04 -4.423113E+04 -2.807632E+04 -4.357643E-10 -6.103102E-10
       334  11  5.391845E+05 -9.355222E+04 -5.675043E+04 -1.730490E+04  7.153527E-10  1.720350E-10
       334  12  5.995796E+05 -7.920941E+04 -5.594838E+04 -3.560780E+04 -2.098517E-10 -3.332902E-10
       334  13  9.184356E+05  1.481577E+04  5.508825E+04 -3.296784E+04 -2.187131E-10  1.011491E-09
       334  14  9.153986E+05 -1.179034E+03  2.920497E+04 -1.842711E+04  3.451913E-10  4.860179E-10
       334  15  9.184615E+05 -8.907358E+02  1.701761E+04 -3.295922E+04 -1.286611E-09 -4.901413E-10
       334  16  1.352243E+06  1.213198E+05  1.543953E+05 -3.786283E+04  5.344288E-10  8.775601E-10
       334  17  1.291744E+06  9.118434E+04  1.151511E+05 -1.955001E+04 -1.066276E-09  1.838529E-10
       334  18  1.237438E+06  7.742091E+04  8.997694E+04 -3.030928E+04  3.015518E-11 -1.490276E-10
       334  19  4.848041E+05 -9.170039E+04 -4.422685E+04 -2.807566E+04 -4.394853E+04 -1.861220E+04
       334  20  5.391855E+05 -9.355169E+04 -5.674825E+04 -1.730451E+04 -2.973643E+04 -1.657534E+04
       334  21  5.995799E+05 -7.920914E+04 -5.594757E+04 -3.560763E+04 -1.552215E+04 -1.381220E+04
       334  22  9.184377E+05  1.481663E+04  5.509233E+04 -3.296720E+04 -4.272885E+04 -1.861019E+04
       334  23  9.153995E+05 -1.178529E+03  2.920695E+04 -1.842674E+04 -2.796648E+04 -1.657375E+04
       334  24  9.184617E+05 -8.904842E+02  1.701829E+04 -3.295908E+04 -1.320323E+04 -1.381106E+04
       334  25  1.352245E+06  1.213207E+05  1.543992E+05 -3.786220E+04 -4.150832E+04 -1.860821E+04
       334  26  1.291745E+06  9.118482E+04  1.151529E+05 -1.954966E+04 -2.619547E+04 -1.657217E+04
       334  27  1.237438E+06  7.742114E+04  8.997752E+04 -3.030916E+04 -1.088313E+04 -1.380991E+04
       335   1  6.516399E+05 -6.421927E+04 -4.738372E+04 -3.289809E+04  1.263367E+04  1.205762E+04
       335   2  7.080133E+05 -5.142844E+04 -4.031062E+04 -1.864082E+04  8.982794E+03  9.239129E+03
       335   3  7.651992E+05 -3.744842E+04 -3.055702E+04 -3.316982E+04  5.330765E+03  6.392528E+03
       335   4  9.172935E+05  9.690440E+02  1.313295E+04 -3.289769E+04  1.054895E+04  1.205677E+04
       335   5  9.168911E+05 -1.506219E+02  7.387310E+03 -1.850479E+04  6.875624E+03  9.238576E+03
       335   6  9.173023E+05 -7.721186E+01  4.337069E+03 -3.289755E+04  3.201471E+03  6.392286E+03
       335   7  1.183013E+06  6.615248E+04  7.364504E+04 -3.289730E+04  8.463346E+03  1.205592E+04
       335   8  1.125809E+06  5.112417E+04  5.508240E+04 -1.836872E+04  4.767752E+03  9.238023E+03
       335   9  1.069427E+06  3.729239E+04  3.922965E+04 -3.262522E+04  1.071660E+03  6.392043E+03
       335  10  6.516396E+05 -6.421947E+04 -4.738429E+04 -3.289822E+04 -1.112385E-09 -1.986816E-10
       335  11  7.080132E+05 -5.142855E+04 -4.031093E+04 -1.864089E+04 -1.611970E-09 -3.097145E-10
       335  12  7.651991E+05 -3.744847E+04 -3.055715E+04 -3.316984E+04  2.955330E-10 -1.118060E-10
       335  13  9.172934E+05  9.688580E+02  1.313247E+04 -3.289780E+04  7.297602E-10 -2.172523E-10
       335  14  9.168911E+05 -1.507263E+02  7.387060E+03 -1.850484E+04  2.128982E-10  2.100479E-10
       335  15  9.173023E+05 -7.725851E+01  4.336973E+03 -3.289757E+04  4.075823E-10 -2.575555E-10
       335  16  1.183012E+06  6.615230E+04  7.364464E+04 -3.289738E+04 -7.911965E-11 -2.386777E-11
       335  17  1.125809E+06  5.112408E+04  5.508220E+04 -1.836875E+04 -4.308960E-10  6.930292E-11
       335  18  1.069427E+06  3.729234E+04  3.922957E+04 -3.262522E+04 -6.946863E-10  4.089957E-12
       335  19  6.516399E+05 -6.421927E+04 -4.738372E+04 -3.289809E+04 -1.263367E+04 -1.205762E+04
       335  20  7.080133E+05 -5.142844E+04 -4.031062E+04 -1.864082E+04 -8.982794E+03 -9.239129E+03
       335  21  7.651992E+05 -3.744842E+04 -3.055702E+04 -3.316982E+04 -5.330765E+03 -6.392528E+03
       335  22  9.172935E+05  9.690440E+02  1.313295E+04 -3.289769E+04 -1.054895E+04 -1.205677E+04
       335  23  9.168911E+05 -1.506219E+02  7.387310E+03 -1.850479E+04 -6.875624E+03 -9.238576E+03
       335  24  9.173023E+05 -7.721186E+01  4.337069E+03 -3.289755E+04 -3.201471E+03 -6.392286E+03
       335  25  1.183013E+06  6.615248E+04  7.364504E+04 -3.289730E+04 -8.463346E+03 -1.205592E+04
       335  26  1.125809E+06  5.112417E+04  5.508240E+04 -1.836872E+04 -4.767752E+03 -9.238023E+03
       335  27  1.069427E+06  3.729239E+04  3.922965E+04 -3.262522E+04 -1.071660E+03 -6.392043E+03
       336   1  8.178862E+05 -2.429432E+04 -1.913771E+04 -3.294692E+04  4.623318E+03  4.732277E+03
       336   2  8.743286E+05 -1.052131E+04 -7.668830E+03 -1.859039E+04  3.588375E+03  1.891296E+03
       336   3  9.309375E+05  3.337919E+03  4.495957E+03 -3.289223E+04  2.553139E+03 -9.498365E+02
       336   4  9.171609E+05  4.203311E+01  3.364873E+03 -3.286930E+04  2.507794E+03  4.732153E+03
       336   5  9.170805E+05 -2.720550E+01  2.092401E+03 -1.854018E+04  1.472486E+03  1.891229E+03
       336   6  9.171626E+05 -1.022026E+01  1.515871E+03 -3.286931E+04  4.369761E+02 -9.498355E+02
       336   7  1.016445E+06  2.437771E+04  2.586684E+04 -3.279167E+04  3.919356E+02  4.732029E+03
       336   8  9.598340E+05  1.046677E+04  1.185353E+04 -1.848996E+04 -6.435485E+02  1.891161E+03
       336   9  9.033880E+05 -3.358370E+03 -1.464210E+03 -3.284639E+04 -1.679141E+03 -9.498347E+02
       336  10  8.178862E+05 -2.429435E+04 -1.913779E+04 -3.294693E+04  8.575254E-10 -3.424385E-10
       336  11  8.743286E+05 -1.052131E+04 -7.668861E+03 -1.859039E+04  1.275092E-09  2.794361E-11
       336  12  9.309375E+05  3.337916E+03  4.495943E+03 -3.289223E+04  2.532844E-10  1.007966E-10
       336  13  9.171609E+05  4.200736E+01  3.364820E+03 -3.286931E+04  5.302859E-10 -2.161504E-10
       336  14  9.170805E+05 -2.720992E+01  2.092390E+03 -1.854018E+04  1.699072E-09  1.708111E-10
       336  15  9.171626E+05 -1.022128E+01  1.515869E+03 -3.286931E+04 -2.750789E-10 -5.212181E-12
       336  16  1.016445E+06  2.437768E+04  2.586680E+04 -3.279167E+04 -5.765555E-11 -8.383983E-11
       336  17  9.598340E+05  1.046677E+04  1.185352E+04 -1.848996E+04  4.051903E-10  2.654634E-10
       336  18  9.033880E+05 -3.358371E+03 -1.464217E+03 -3.284639E+04  3.881133E-10  2.603570E-11
       336  19  8.178862E+05 -2.429432E+04 -1.913771E+04 -3.294692E+04 -4.623318E+03 -4.732277E+03
       336  20  8.743286E+05 -1.052131E+04 -7.668830E+03 -1.859039E+04 -3.588375E+03 -1.891296E+03
       336  21  9.309375E+05  3.337919E+03  4.495957E+03 -3.289223E+04 -2.553139E+03  9.498365E+02
       336  22  9.171609E+05  4.203311E+01  3.364873E+03 -3.286930E+04 -2.507794E+03 -4.732153E+03
       336  23  9.170805E+05 -2.720550E+01  2.092401E+03 -1.854018E+04 -1.472486E+03 -1.891229E+03
       336  24  9.171626E+05 -1.022026E+01  1.515871E+03 -3.286931E+04 -4.369761E+02  9.498355E+02
       336  25  1.016445E+06  2.437771E+04  2.586684E+04 -3.279167E+04 -3.919356E+02 -4.732029E+03
       336  26  9.598340E+05  1.046677E+04  1.185353E+04 -1.848996E+04  6.435485E+02 -1.891161E+03
       336  27  9.033880E+05 -3.358370E+03 -1.464210E+03 -3.284639E+04  1.679141E+03  9.498347E+02
       337   1  9.836819E+05  1.635388E+04  1.676468E+04 -3.288146E+04  2.288814E+03 -2.603592E+03
       337   2  1.040231E+06  3.020019E+04  2.963751E+04 -1.850219E+04  1.536631E+03 -5.447189E+03
       337   3  1.096911E+06  4.409637E+04  4.301489E+04 -3.282250E+04  7.849180E+02 -8.293342E+03
       337   4  9.171537E+05 -8.282748E+00  1.411420E+03 -3.287857E+04  1.715355E+02 -2.603629E+03
       337   5  9.170883E+05 -2.415886E+01  1.524007E+03 -1.852860E+04 -5.825242E+02 -5.447413E+03
       337   6  9.171498E+05  1.037232E+01  2.142651E+03 -3.287857E+04 -1.336046E+03 -8.293741E+03
       337   7  8.506297E+05 -1.637075E+04 -1.394211E+04 -3.287569E+04 -1.945518E+03 -2.603666E+03
       337   8  7.939591E+05 -3.024956E+04 -2.659047E+04 -1.855502E+04 -2.701263E+03 -5.447636E+03
       337   9  7.374188E+05 -4.407785E+04 -3.873166E+04 -3.293463E+04 -3.456402E+03 -8.294139E+03
       337  10  9.836819E+05  1.635387E+04  1.676465E+04 -3.288145E+04 -1.321981E-09  3.049052E-10
       337  11  1.040231E+06  3.020016E+04  2.963745E+04 -1.850218E+04 -1.970784E-10  5.499629E-10
       337  12  1.096911E+06  4.409629E+04  4.301476E+04 -3.282249E+04  2.535600E-10 -7.377133E-10
       337  13  9.171537E+05 -8.290038E+00  1.411408E+03 -3.287857E+04  1.209583E-09  3.441605E-10
       337  14  9.170882E+05 -2.419083E+01  1.523951E+03 -1.852861E+04 -1.861180E-10  7.536044E-10
       337  15  9.171498E+05  1.029795E+01  2.142519E+03 -3.287858E+04  2.193065E-10 -5.065482E-10
       337  16  8.506297E+05 -1.637076E+04 -1.394213E+04 -3.287570E+04  6.731816E-10  1.973388E-10
       337  17  7.939591E+05 -3.024959E+04 -2.659054E+04 -1.855503E+04 -1.008128E-09  1.757083E-10
       337  18  7.374188E+05 -4.407793E+04 -3.873182E+04 -3.293465E+04 -4.891340E-10 -2.905955E-10
       337  19  9.836819E+05  1.635388E+04  1.676468E+04 -3.288146E+04 -2.288814E+03  2.603592E+03
       337  20  1.040231E+06  3.020019E+04  2.963751E+04 -1.850219E+04 -1.536631E+03  5.447189E+03
       337  21  1.096911E+06  4.409637E+04  4.301489E+04 -3.282250E+04 -7.849180E+02  8.293342E+03
       337  22  9.171537E+05 -8.282748E+00  1.411420E+03 -3.287857E+04 -1.715355E+02  2.603629E+03
       337  23  9.170883E+05 -2.415886E+01  1.524007E+03 -1.852860E+04  5.825242E+02  5.447413E+03
       337  24  9.171498E+05  1.037232E+01  2.142651E+03 -3.287857E+04  1.336046E+03  8.293741E+03
       337  25  8.506297E+05 -1.637075E+04 -1.394211E+04 -3.287569E+04  1.945518E+03  2.603666E+03
       337  26  7.939591E+05 -3.024956E+04 -2.659047E+04 -1.855502E+04  2.701263E+03  5.447636E+03
       337  27  7.374188E+05 -4.407785E+04 -3.873166E+04 -3.293463E+04  3.456402E+03  8.294139E+03
       338   1  1.149993E+06  5.709806E+04  5.597085E+04 -3.274787E+04  3.685304E+02 -9.958663E+03
       338   2  1.206771E+06  7.101493E+04  7.055716E+04 -1.834019E+04 -1.842372E+03 -1.281474E+04
       338   3  1.264080E+06  8.562494E+04  8.676807E+04 -3.284797E+04 -4.052189E+03 -1.564088E+04
       338   4  9.172329E+05 -5.957231E+01  2.672357E+03 -3.292659E+04 -1.769821E+03 -9.959259E+03
       338   5  9.169654E+05 -1.084431E+02  4.399511E+03 -1.846853E+04 -3.957578E+03 -1.281576E+04
       338   6  9.172226E+05  5.325045E+02  7.736197E+03 -3.292675E+04 -6.144050E+03 -1.564232E+04
       338   7  6.845232E+05 -5.722096E+04 -5.062968E+04 -3.310524E+04 -3.907379E+03 -9.959854E+03
       338   8  6.272376E+05 -7.123764E+04 -6.176360E+04 -1.859681E+04 -6.071806E+03 -1.281679E+04
       338   9  5.704769E+05 -8.456825E+04 -7.130349E+04 -3.300551E+04 -8.234755E+03 -1.564375E+04
       338  10  1.149993E+06  5.709795E+04  5.597067E+04 -3.274787E+04 -2.190581E-09 -7.207264E-11
       338  11  1.206771E+06  7.101476E+04  7.055684E+04 -1.834020E+04 -1.246647E-09  3.054092E-10
       338  12  1.264080E+06  8.562468E+04  8.676757E+04 -3.284802E+04  1.087086E-09 -3.751582E-10
       338  13  9.172328E+05 -5.967970E+01  2.672164E+03 -3.292660E+04 -5.386725E-10 -1.209208E-10
       338  14  9.169653E+05 -1.086237E+02  4.399173E+03 -1.846857E+04 -1.526183E-10  6.360899E-10
       338  15  9.172225E+05  5.322316E+02  7.735666E+03 -3.292683E+04 -5.043231E-10 -6.033454E-10
       338  16  6.845232E+05 -5.722107E+04 -5.062989E+04 -3.310527E+04  1.442648E-09 -1.895841E-10
       338  17  6.272375E+05 -7.123782E+04 -6.176398E+04 -1.859688E+04 -6.777356E-10  5.485688E-10
       338  18  5.704768E+05 -8.456853E+04 -7.130407E+04 -3.300561E+04 -1.636045E-09 -1.207992E-10
       338  19  1.149993E+06  5.709806E+04  5.597085E+04 -3.274787E+04 -3.685304E+02  9.958663E+03
       338  20  1.206771E+06  7.101493E+04  7.055716E+04 -1.834019E+04  1.842372E+03  1.281474E+04
       338  21  1.264080E+06  8.562494E+04  8.676807E+04 -3.284797E+04  4.052189E+03  1.564088E+04
       338  22  9.172329E+05 -5.957231E+01  2.672357E+03 -3.292659E+04  1.769821E+03  9.959259E+03
       338  23  9.169654E+05 -1.084431E+02  4.399511E+03 -1.846853E+04  3.957578E+03  1.281576E+04
       338  24  9.172226E+05  5.325045E+02  7.736197E+03 -3.292675E+04  6.144050E+03  1.564232E+04
       338  25  6.845232E+05 -5.722096E+04 -5.062968E+04 -3.310524E+04  3.907379E+03  9.959854E+03
       338  26  6.272376E+05 -7.123764E+04 -6.176360E+04 -1.859681E+04  6.071806E+03  1.281679E+04
       338  27  5.704769E+05 -8.456825E+04 -7.130349E+04 -3.300551E+04  8.234755E+03  1.564375E+04
       339   1  1.318343E+06  9.773953E+04  1.015513E+05 -3.134940E+04 -5.346511E+03 -1.741552E+04
       339   2  1.374282E+06  1.117179E+05  1.217563E+05 -1.886749E+04 -1.461954E+04 -2.017936E+04
       339   3  1.433997E+06  1.353241E+05  1.504306E+05 -3.565779E+04 -2.389243E+04 -2.212018E+04
       339   4  9.179120E+05 -5.568367E+02  1.000450E+04 -3.300405E+04 -7.705744E+03 -1.741743E+04
       339   5  9.160671E+05 -7.324327E+02  1.712188E+04 -1.837079E+04 -1.635973E+04 -2.018160E+04
       339   6  9.178903E+05  8.616792E+03  3.228370E+04 -3.301084E+04 -2.501272E+04 -2.212253E+04
       339   7  5.176290E+05 -9.886431E+04 -8.155276E+04 -3.465764E+04 -1.006347E+04 -1.741932E+04
       339   8  4.580462E+05 -1.131973E+05 -8.752625E+04 -1.787448E+04 -1.809865E+04 -2.018384E+04
       339   9  4.020295E+05 -1.181090E+05 -8.588063E+04 -3.036615E+04 -2.613209E+04 -2.212489E+04
       339  10  1.318343E+06  9.773919E+04  1.015507E+05 -3.134948E+04 -8.603138E-10 -9.581395E-10
       339  11  1.374282E+06  1.117174E+05  1.217551E+05 -1.886773E+04  9.348960E-10 -5.737727E-10
       339  12  1.433997E+06  1.353234E+05  1.504286E+05 -3.565822E+04  2.831314E-10 -1.335990E-09
       339  13  9.179118E+05 -5.571785E+02  1.000382E+04 -3.300416E+04 -1.068524E-09 -1.031994E-09
       339  14  9.160667E+05 -7.329420E+02  1.712061E+04 -1.837105E+04  7.284019E-11 -6.598116E-10
       339  15  9.178895E+05  8.616099E+03  3.228161E+04 -3.301129E+04  4.633740E-10 -1.214687E-09
       339  16  5.176288E+05 -9.886466E+04 -8.155352E+04 -3.465778E+04  4.681624E-10 -3.558802E-10
       339  17  4.580457E+05 -1.131978E+05 -8.752763E+04 -1.787478E+04  5.349193E-10  1.534772E-09
       339  18  4.020286E+05 -1.181097E+05 -8.588283E+04 -3.036662E+04 -6.689120E-10 -4.312664E-10
       339  19  1.318343E+06  9.773953E+04  1.015513E+05 -3.134940E+04  5.346511E+03  1.741552E+04
       339  20  1.374282E+06  1.117179E+05  1.217563E+05 -1.886749E+04  1.461954E+04  2.017936E+04
       339  21  1.433997E+06  1.353241E+05  1.504306E+05 -3.565779E+04  2.389243E+04  2.212018E+04
       339  22  9.179120E+05 -5.568367E+02  1.000450E+04 -3.300405E+04  7.705744E+03  1.741743E+04
       339  23  9.160671E+05 -7.324327E+02  1.712188E+04 -1.837079E+04  1.635973E+04  2.018160E+04
       339  24  9.178903E+05  8.616792E+03  3.228370E+04 -3.301084E+04  2.501272E+04  2.212253E+04
       339  25  5.176290E+05 -9.886431E+04 -8.155276E+04 -3.465764E+04  1.006347E+04  1.741932E+04
       339  26  4.580462E+05 -1.131973E+05 -8.752625E+04 -1.787448E+04  1.809865E+04  2.018384E+04
       339  27  4.020295E+05 -1.181090E+05 -8.588063E+04 -3.036615E+04  2.613209E+04  2.212489E+04
       340   1  1.496150E+06  1.332998E+05  1.701735E+05 -1.458612E+04 -2.440638E+04 -2.581871E+04
       340   2  1.535557E+06  1.469663E+05  2.112155E+05 -3.429667E+04 -7.307219E+04 -2.590406E+04
       340   3  1.614493E+06  2.923574E+05  3.168793E+05 -8.335931E+04 -1.217698E+05 -8.534295E+03
       340   4  9.253619E+05 -6.748368E+03  4.016056E+04 -3.297618E+04 -3.091783E+04 -2.582607E+04
       340   5  9.066720E+05 -7.485842E+03  6.673044E+04 -1.838798E+04 -6.654312E+04 -2.589964E+04
       340   6  9.252867E+05  1.213085E+05  1.489186E+05 -3.314908E+04 -1.021945E+05 -8.515589E+03
       340   7  3.548758E+05 -1.468178E+05 -8.987323E+04 -5.134928E+04 -3.742335E+04 -2.583305E+04
       340   8  2.781530E+05 -1.619645E+05 -7.778043E+04 -2.495601E+03 -6.002058E+04 -2.589488E+04
       340   9  2.365185E+05 -4.976552E+04 -1.907382E+04  1.700526E+04 -8.264078E+04 -8.493718E+03
       340  10  1.496149E+06  1.332989E+05  1.701711E+05 -1.458663E+04 -7.602584E-10 -2.294490E-09
       340  11  1.535551E+06  1.469641E+05  2.112042E+05 -3.429820E+04 -1.442972E-09 -3.894393E-09
       340  12  1.614478E+06  2.923533E+05  3.168514E+05 -8.336015E+04 -1.021235E-09 -1.169979E-09
       340  13  9.253607E+05 -6.749340E+03  4.015751E+04 -3.297682E+04 -9.482250E-10 -5.483766E-09
       340  14  9.066671E+05 -7.487749E+03  6.672087E+04 -1.838937E+04  8.797454E-10  2.146260E-09
       340  15  9.252755E+05  1.213056E+05  1.488989E+05 -3.314978E+04 -1.855864E-09  1.384226E-10
       340  16  3.548741E+05 -1.468189E+05 -8.987712E+04 -5.135006E+04  2.756446E-10 -1.673051E-09
       340  17  2.781489E+05 -1.619662E+05 -7.778846E+04 -2.496853E+03  1.325579E-09  1.736111E-09
       340  18  2.365111E+05 -4.976743E+04 -1.908679E+04  1.700469E+04  1.242431E-09 -1.521481E-09
       340  19  1.496150E+06  1.332998E+05  1.701735E+05 -1.458612E+04  2.440638E+04  2.581871E+04
       340  20  1.535557E+06  1.469663E+05  2.112155E+05 -3.429667E+04  7.307219E+04  2.590406E+04
       340  21  1.614493E+06  2.923574E+05  3.168793E+05 -8.335931E+04  1.217698E+05  8.534295E+03
       340  22  9.253619E+05 -6.748368E+03  4.016056E+04 -3.297618E+04  3.091783E+04  2.582607E+04
       340  23  9.066720E+05 -7.485842E+03  6.673044E+04 -1.838798E+04  6.654312E+04  2.589964E+04
       340  24  9.252867E+05  1.213085E+05  1.489186E+05 -3.314908E+04  1.021945E+05  8.515589E+03
       340  25  3.548758E+05 -1.468178E+05 -8.987323E+04 -5.134928E+04  3.742335E+04  2.583305E+04
       340  26  2.781530E+05 -1.619645E+05 -7.778043E+04 -2.495601E+03  6.002058E+04  2.589488E+04
       340  27  2.365185E+05 -4.976552E+04 -1.907382E+04  1.700526E+04  8.264078E+04  8.493718E+03
       341   1  9.362947E+05  3.628654E+06  9.412602E+05 -5.772347E+05  3.555532E+04  1.513455E+05
       341   2  6.057036E+05  2.688904E+06  6.240806E+05 -3.210413E+05  9.902206E+04  5.400045E+04
       341   3  3.856786E+05  1.790289E+06  3.976440E+05 -5.262034E+05  6.925636E+04 -4.345346E+04
       341   4  8.890099E+04  2.181735E+05  1.079851E+05 -5.336851E+05  3.578800E+04  6.908218E+04
       341   5 -4.825553E+03  2.045514E+05  5.210899E+04 -3.030926E+05  9.909263E+04  4.157579E+04
       341   6  2.301019E+02  2.194013E+05  3.886432E+04 -5.339320E+05  6.900656E+04  1.381463E+04
       341   7 -7.593414E+05 -3.181729E+06 -7.261125E+05 -4.903632E+05  3.600999E+04 -1.273308E+04
       341   8 -6.157849E+05 -2.274107E+06 -5.202712E+05 -2.852099E+05  9.916267E+04  2.920005E+04
       341   9 -3.853874E+05 -1.349196E+06 -3.200643E+05 -5.416375E+05  6.875497E+04  7.093935E+04
       341  10  9.362873E+05  3.628629E+06  9.412150E+05 -5.772390E+05  2.938406E-10  6.497230E-10
       341  11  6.056923E+05  2.688898E+06  6.240567E+05 -3.210457E+05 -1.312207E-09  2.349211E-09
       341  12  3.856730E+05  1.790286E+06  3.976314E+05 -5.262010E+05  1.149251E-09 -1.455052E-10
       341  13  8.889833E+04  2.181680E+05  1.079737E+05 -5.336871E+05 -3.174665E-10 -1.887377E-09
       341  14 -4.836565E+03  2.045469E+05  5.208728E+04 -3.030959E+05 -5.140342E-09 -3.039654E-09
       341  15  2.249356E+02  2.193998E+05  3.885501E+04 -5.339328E+05 -4.635108E-10 -1.463752E-09
       341  16 -7.593428E+05 -3.181730E+06 -7.261152E+05 -4.903628E+05 -2.635138E-10 -6.863254E-10
       341  17 -6.157957E+05 -2.274111E+06 -5.202913E+05 -2.852122E+05  1.691085E-09 -3.569148E-09
       341  18 -3.853938E+05 -1.349203E+06 -3.200827E+05 -5.416415E+05 -1.402135E-09  3.729407E-09
       341  19  9.362947E+05  3.628654E+06  9.412602E+05 -5.772347E+05 -3.555532E+04 -1.513455E+05
       341  20  6.057036E+05  2.688904E+06  6.240806E+05 -3.210413E+05 -9.902206E+04 -5.400045E+04
       341  21  3.856786E+05  1.790289E+06  3.976440E+05 -5.262034E+05 -6.925636E+04  4.345346E+04
       341  22  8.890099E+04  2.181735E+05  1.079851E+05 -5.336851E+05 -3.578800E+04 -6.908218E+04
       341  23 -4.825553E+03  2.045514E+05  5.210899E+04 -3.030926E+05 -9.909263E+04 -4.157579E+04
       341  24  2.301019E+02  2.194013E+05  3.886432E+04 -5.339320E+05 -6.900656E+04 -1.381463E+04
       341  25 -7.593414E+05 -3.181729E+06 -7.261125E+05 -4.903632E+05 -3.600999E+04  1.273308E+04
       341  26 -6.157849E+05 -2.274107E+06 -5.202712E+05 -2.852099E+05 -9.916267E+04 -2.920005E+04
       341  27 -3.853874E+05 -1.349196E+06 -3.200643E+05 -5.416375E+05 -6.875497E+04 -7.093935E+04
       342   1  1.850610E+05  9.266964E+05  1.992503E+05 -5.409664E+05  3.111967E+04 -2.267534E+04
       342   2 -4.891271E+04  8.174563E+03 -1.137867E+04 -3.011915E+05 -8.805072E+03 -4.031788E+04
       342   3 -2.599901E+05 -9.059480E+05 -2.059186E+05 -5.258382E+05 -4.824398E+04 -5.792027E+04
       342   4  1.004117E+04  2.143627E+05  3.629818E+04 -5.345171E+05  3.097630E+04  7.285626E+03
       342   5  1.294032E+03  2.124745E+05  3.533411E+04 -3.023034E+05 -8.940713E+03 -1.073586E+04
       342   6  1.555870E+04  2.142613E+05  5.075873E+04 -5.344919E+05 -4.837448E+04 -2.874242E+04
       342   7 -1.650134E+05 -4.974994E+05 -1.266838E+05 -5.280744E+05  3.083346E+04  3.721254E+04
       342   8  5.149835E+04  4.168150E+05  8.204746E+04 -3.034157E+05 -9.076435E+03  1.885580E+04
       342   9  2.910208E+05  1.335636E+06  3.073568E+05 -5.431596E+05 -4.850567E+04  4.877294E+02
       342  10  1.850599E+05  9.266956E+05  1.992475E+05 -5.409659E+05  1.885834E-10 -1.892408E-10
       342  11 -4.891323E+04  8.172797E+03 -1.138188E+04 -3.011918E+05  1.578219E-09  2.514234E-09
       342  12 -2.599935E+05 -9.059523E+05 -2.059293E+05 -5.258404E+05 -1.228014E-09 -9.934809E-10
       342  13  1.004013E+04  2.143624E+05  3.629627E+04 -5.345172E+05 -1.610759E-12 -4.312628E-09
       342  14  1.293915E+03  2.124744E+05  3.533375E+04 -3.023035E+05  3.042103E-09 -4.435691E-09
       342  15  1.555596E+04  2.142597E+05  5.075277E+04 -5.344931E+05  3.115799E-09 -1.467115E-09
       342  16 -1.650148E+05 -4.975012E+05 -1.266882E+05 -5.280753E+05 -5.568222E-10  1.877466E-10
       342  17  5.149817E+04  4.168146E+05  8.204663E+04 -3.034155E+05 -2.358095E-09 -4.717169E-09
       342  18  2.910182E+05  1.335635E+06  3.073523E+05 -5.431596E+05 -7.485023E-10  5.212336E-09
       342  19  1.850610E+05  9.266964E+05  1.992503E+05 -5.409664E+05 -3.111967E+04  2.267534E+04
       342  20 -4.891271E+04  8.174563E+03 -1.137867E+04 -3.011915E+05  8.805072E+03  4.031788E+04
       342  21 -2.599901E+05 -9.059480E+05 -2.059186E+05 -5.258382E+05  4.824398E+04  5.792027E+04
       342  22  1.004117E+04  2.143627E+05  3.629818E+04 -5.345171E+05 -3.097630E+04 -7.285626E+03
       342  23  1.294032E+03  2.124745E+05  3.533411E+04 -3.023034E+05  8.940713E+03  1.073586E+04
       342  24  1.555870E+04  2.142613E+05  5.075873E+04 -5.344919E+05  4.837448E+04  2.874242E+04
       342  25 -1.650134E+05 -4.974994E+05 -1.266838E+05 -5.280744E+05 -3.083346E+04 -3.721254E+04
       342  26  5.149835E+04  4.168150E+05  8.204746E+04 -3.034157E+05  9.076435E+03 -1.885580E+04
       342  27  2.910208E+05  1.335636E+06  3.073568E+05 -5.431596E+05  4.850567E+04 -4.877294E+02
       343   1 -4.908098E+05 -1.752180E+06 -3.921399E+05 -5.521721E+05 -8.723968E+04 -9.766945E+04
       343   2 -7.218213E+05 -2.689019E+06 -5.737554E+05 -2.747513E+05 -1.159979E+05 -7.011951E+04
       343   3 -7.842551E+05 -3.584559E+06 -7.309249E+05 -4.586723E+05 -4.118019E+04 -4.238164E+04
       343   4 -4.833238E+03  2.247225E+05  6.002391E+04 -5.339104E+05 -8.748179E+04 -3.811013E+04
       343   5 -1.024094E+04  1.971906E+05  9.261637E+04 -3.031409E+05 -1.159063E+05 -8.754874E+04
       343   6  1.659239E+05  2.232889E+05  2.030022E+05 -5.335176E+05 -4.097322E+04 -1.367624E+05
       343   7  4.808752E+05  2.205261E+06  5.119454E+05 -5.155845E+05 -8.771994E+04  2.163778E+04
       343   8  7.007574E+05  3.091125E+06  7.584349E+05 -3.316565E+05 -1.158134E+05 -1.050579E+05
       343   9  1.115051E+06  4.044420E+06  1.135902E+06 -6.088131E+05 -4.074429E+04 -2.317213E+05
       343  10 -4.908206E+05 -1.752192E+06 -3.921723E+05 -5.521790E+05  3.953484E-10 -4.160169E-10
       343  11 -7.218370E+05 -2.689028E+06 -5.737900E+05 -2.747579E+05  1.205463E-09  1.884919E-09
       343  12 -7.842574E+05 -3.584562E+06 -7.309315E+05 -4.586737E+05  9.147482E-11  3.889098E-10
       343  13 -4.841851E+03  2.247188E+05  6.000679E+04 -5.339131E+05 -2.051100E-09 -3.593096E-09
       343  14 -1.025743E+04  1.971788E+05  9.257670E+04 -3.031491E+05  1.713766E-09 -2.642628E-09
       343  15  1.659171E+05  2.232684E+05  2.029639E+05 -5.335221E+05 -1.980437E-10 -4.460296E-10
       343  16  4.808668E+05  2.205259E+06  5.119300E+05 -5.155830E+05  1.673335E-09  5.288414E-10
       343  17  7.007400E+05  3.091109E+06  7.583891E+05 -3.316663E+05  1.000982E-09 -3.477976E-09
       343  18  1.115035E+06  4.044362E+06  1.135798E+06 -6.088207E+05 -4.531593E-10  7.773625E-10
       343  19 -4.908098E+05 -1.752180E+06 -3.921399E+05 -5.521721E+05  8.723968E+04  9.766945E+04
       343  20 -7.218213E+05 -2.689019E+06 -5.737554E+05 -2.747513E+05  1.159979E+05  7.011951E+04
       343  21 -7.842551E+05 -3.584559E+06 -7.309249E+05 -4.586723E+05  4.118019E+04  4.238164E+04
       343  22 -4.833238E+03  2.247225E+05  6.002391E+04 -5.339104E+05  8.748179E+04  3.811013E+04
       343  23 -1.024094E+04  1.971906E+05  9.261637E+04 -3.031409E+05  1.159063E+05  8.754874E+04
       343  24  1.659239E+05  2.232889E+05  2.030022E+05 -5.335176E+05  4.097322E+04  1.367624E+05
       343  25  4.808752E+05  2.205261E+06  5.119454E+05 -5.155845E+05  8.771994E+04 -2.163778E+04
       343  26  7.007574E+05  3.091125E+06  7.584349E+05 -3.316565E+05  1.158134E+05  1.050579E+05
       343  27  1.115051E+06  4.044420E+06  1.135902E+06 -6.088131E+05  4.074429E+04  2.317213E+05
       344   1 -1.703644E+06 -7.043518E+05 -3.834349E+05 -6.882145E+05 -1.790018E+05 -5.464644E+04
       344   2 -1.628873E+06 -5.004828E+05 -2.300866E+05 -6.548658E+05 -1.119543E+05 -8.984012E+02
       344   3 -1.588779E+06 -4.147704E+05 -1.619393E+05 -6.133356E+05 -3.721181E+04  3.246493E+04
       344   4 -1.010722E+06 -3.523131E+05 -1.864170E+05 -4.044506E+05 -1.246346E+05 -3.422432E+04
       344   5 -9.862352E+05 -2.240127E+05 -8.590955E+04 -4.357243E+05 -8.909550E+04  7.686679E+03
       344   6 -9.901267E+05 -2.075616E+05 -4.553854E+04 -4.588349E+05 -4.587674E+04  2.920381E+04
       344   7 -3.172930E+05 -1.050475E+02  1.057271E+04 -1.203541E+05 -7.020052E+04 -1.375669E+04
       344   8 -3.431646E+05  5.253850E+04  5.824564E+04 -2.163563E+05 -6.621107E+04  1.628515E+04
       344   9 -3.911035E+05 -3.303042E+02  7.084654E+04 -3.041996E+05 -5.455066E+04  2.593972E+04
       344  10 -1.703679E+06 -7.043636E+05 -3.835009E+05 -6.882224E+05 -1.696966E-09 -6.282545E-10
       344  11 -1.628886E+06 -5.004862E+05 -2.301102E+05 -6.548659E+05 -1.666224E-09  1.185563E-09
       344  12 -1.588780E+06 -4.147719E+05 -1.619439E+05 -6.133347E+05  1.843615E-10  1.408962E-09
       344  13 -1.010739E+06 -3.523185E+05 -1.864485E+05 -4.044540E+05  3.322973E-10  1.514033E-09
       344  14 -9.862438E+05 -2.240149E+05 -8.592460E+04 -4.357237E+05  8.213838E-12  6.287853E-10
       344  15 -9.901292E+05 -2.075631E+05 -4.554410E+04 -4.588338E+05 -1.968629E-09 -1.753268E-10
       344  16 -3.172983E+05 -1.065748E+02  1.056309E+04 -1.203549E+05  1.471445E-09  2.465105E-10
       344  17 -3.431693E+05  5.253703E+04  5.823690E+04 -2.163554E+05  9.122264E-10 -8.882024E-10
       344  18 -3.911068E+05 -3.318248E+02  7.083969E+04 -3.041985E+05 -1.437736E-09  5.548841E-10
       344  19 -1.703644E+06 -7.043518E+05 -3.834349E+05 -6.882145E+05  1.790018E+05  5.464644E+04
       344  20 -1.628873E+06 -5.004828E+05 -2.300866E+05 -6.548658E+05  1.119543E+05  8.984012E+02
       344  21 -1.588779E+06 -4.147704E+05 -1.619393E+05 -6.133356E+05  3.721181E+04 -3.246493E+04
       344  22 -1.010722E+06 -3.523131E+05 -1.864170E+05 -4.044506E+05  1.246346E+05  3.422432E+04
       344  23 -9.862352E+05 -2.240127E+05 -8.590955E+04 -4.357243E+05  8.909550E+04 -7.686679E+03
       344  24 -9.901267E+05 -2.075616E+05 -4.553854E+04 -4.588349E+05  4.587674E+04 -2.920381E+04
       344  25 -3.172930E+05 -1.050475E+02  1.057271E+04 -1.203541E+05  7.020052E+04  1.375669E+04
       344  26 -3.431646E+05  5.253850E+04  5.824564E+04 -2.163563E+05  6.621107E+04 -1.628515E+04
       344  27 -3.911035E+05 -3.303042E+02  7.084654E+04 -3.041996E+05  5.455066E+04 -2.593972E+04
       345   1 -1.516241E+06 -4.073519E+05 -1.391609E+05 -6.054952E+05 -3.406873E+04  2.974009E+04
       345   2 -1.438586E+06 -3.619209E+05 -1.043194E+05 -5.736391E+05 -2.089934E+04  2.987632E+04
       345   3 -1.349195E+06 -3.367859E+05 -7.946685E+04 -5.582211E+05 -7.142963E+03  2.844970E+04
       345   4 -9.844813E+05 -2.109941E+05 -3.455081E+04 -4.553146E+05 -3.939936E+04  2.773298E+04
       345   5 -9.901350E+05 -1.980033E+05 -1.823414E+04 -4.482456E+05 -2.864070E+04  2.696492E+04
       345   6 -9.835787E+05 -2.048272E+05 -9.986828E+03 -4.576173E+05 -1.729685E+04  2.463395E+04
       345   7 -4.524324E+05 -1.461114E+04  7.004518E+04 -3.050152E+05 -4.473484E+04  2.572399E+04
       345   8 -5.414744E+05 -3.406701E+04  6.784277E+04 -3.227678E+05 -3.638806E+04  2.405124E+04
       345   9 -6.178192E+05 -7.285551E+04  5.948900E+04 -3.569575E+05 -2.745724E+04  2.081580E+04
       345  10 -1.516243E+06 -4.073531E+05 -1.391648E+05 -6.054944E+05 -2.451854E-10  6.984385E-10
       345  11 -1.438586E+06 -3.619220E+05 -1.043219E+05 -5.736386E+05 -1.714174E-09  6.063050E-10
       345  12 -1.349195E+06 -3.367868E+05 -7.946847E+04 -5.582210E+05 -1.016773E-09  4.252826E-10
       345  13 -9.844832E+05 -2.109953E+05 -3.455517E+04 -4.553137E+05 -8.018919E-10  1.905425E-09
       345  14 -9.901361E+05 -1.980043E+05 -1.823705E+04 -4.482450E+05 -5.490541E-10  1.092338E-09
       345  15 -9.835792E+05 -2.048279E+05 -9.988530E+03 -4.576169E+05 -9.754501E-10  6.065290E-10
       345  16 -4.524347E+05 -1.461238E+04  7.004018E+04 -3.050142E+05 -9.206306E-10  9.547717E-10
       345  17 -5.414760E+05 -3.406799E+04  6.783919E+04 -3.227670E+05 -1.276496E-10  1.342213E-09
       345  18 -6.178202E+05 -7.285618E+04  5.948677E+04 -3.569571E+05  5.222791E-10  1.065442E-09
       345  19 -1.516241E+06 -4.073519E+05 -1.391609E+05 -6.054952E+05  3.406873E+04 -2.974009E+04
       345  20 -1.438586E+06 -3.619209E+05 -1.043194E+05 -5.736391E+05  2.089934E+04 -2.987632E+04
       345  21 -1.349195E+06 -3.367859E+05 -7.946685E+04 -5.582211E+05  7.142963E+03 -2.844970E+04
       345  22 -9.844813E+05 -2.109941E+05 -3.455081E+04 -4.553146E+05  3.939936E+04 -2.773298E+04
       345  23 -9.901350E+05 -1.980033E+05 -1.823414E+04 -4.482456E+05  2.864070E+04 -2.696492E+04
       345  24 -9.835787E+05 -2.048272E+05 -9.986828E+03 -4.576173E+05  1.729685E+04 -2.463395E+04
       345  25 -4.524324E+05 -1.461114E+04  7.004518E+04 -3.050152E+05  4.473484E+04 -2.572399E+04
       345  26 -5.414744E+05 -3.406701E+04  6.784277E+04 -3.227678E+05  3.638806E+04 -2.405124E+04
       345  27 -6.178192E+05 -7.285551E+04  5.948900E+04 -3.569575E+05  2.745724E+04 -2.081580E+04
       346   1 -1.292046E+06 -3.169724E+05 -6.586615E+04 -5.430078E+05 -4.556260E+03  2.504825E+04
       346   2 -1.214863E+06 -2.785021E+05 -4.654695E+04 -5.108679E+05  1.220284E+02  1.943215E+04
       346   3 -1.122846E+06 -2.555140E+05 -2.896616E+04 -4.961429E+05  4.845296E+03  1.369309E+04
       346   4 -9.831416E+05 -2.050017E+05 -7.511839E+03 -4.573998E+05 -1.446366E+04  2.132606E+04
       346   5 -9.905558E+05 -1.972016E+05 -4.134790E+03 -4.487172E+05 -9.975039E+03  1.563982E+04
       346   6 -9.831051E+05 -2.048461E+05 -2.345220E+03 -4.574517E+05 -5.441786E+03  9.830555E+03
       346   7 -6.741369E+05 -9.302232E+04  5.083899E+04 -3.717522E+05 -2.437634E+04  1.760189E+04
       346   8 -7.661965E+05 -1.158969E+05  3.827545E+04 -3.865458E+05 -2.007597E+04  1.184606E+04
       346   9 -8.433453E+05 -1.541768E+05  2.427500E+04 -4.187527E+05 -1.573126E+04  5.967132E+03
       346  10 -1.292047E+06 -3.169731E+05 -6.586737E+04 -5.430077E+05  2.442321E-10  1.660954E-10
       346  11 -1.214864E+06 -2.785025E+05 -4.654766E+04 -5.108679E+05  3.619404E-10 -9.248790E-10
       346  12 -1.122846E+06 -2.555142E+05 -2.896656E+04 -4.961430E+05  1.051389E-09 -1.323905E-09
       346  13 -9.831420E+05 -2.050022E+05 -7.513086E+03 -4.573995E+05  1.284063E-10  1.136568E-10
       346  14 -9.905560E+05 -1.972019E+05 -4.135437E+03 -4.487171E+05  3.913861E-10  3.918698E-10
       346  15 -9.831052E+05 -2.048462E+05 -2.345457E+03 -4.574517E+05  1.680508E-10 -2.836873E-10
       346  16 -6.741376E+05 -9.302281E+04  5.083729E+04 -3.717518E+05 -3.693615E-10  4.801446E-10
       346  17 -7.661969E+05 -1.158972E+05  3.827443E+04 -3.865456E+05 -3.862855E-10  9.431065E-10
       346  18 -8.433456E+05 -1.541769E+05  2.427447E+04 -4.187526E+05 -5.710650E-10  7.754415E-10
       346  19 -1.292046E+06 -3.169724E+05 -6.586615E+04 -5.430078E+05  4.556260E+03 -2.504825E+04
       346  20 -1.214863E+06 -2.785021E+05 -4.654695E+04 -5.108679E+05 -1.220284E+02 -1.943215E+04
       346  21 -1.122846E+06 -2.555140E+05 -2.896616E+04 -4.961429E+05 -4.845296E+03 -1.369309E+04
       346  22 -9.831416E+05 -2.050017E+05 -7.511839E+03 -4.573998E+05  1.446366E+04 -2.132606E+04
       346  23 -9.905558E+05 -1.972016E+05 -4.134790E+03 -4.487172E+05  9.975039E+03 -1.563982E+04
       346  24 -9.831051E+05 -2.048461E+05 -2.345220E+03 -4.574517E+05  5.441786E+03 -9.830555E+03
       346  25 -6.741369E+05 -9.302232E+04  5.083899E+04 -3.717522E+05  2.437634E+04 -1.760189E+04
       346  26 -7.661965E+05 -1.158969E+05  3.827545E+04 -3.865458E+05  2.007597E+04 -1.184606E+04
       346  27 -8.433453E+05 -1.541768E+05  2.427500E+04 -4.187527E+05  1.573126E+04 -5.967132E+03
       347   1 -1.066508E+06 -2.350428E+05 -1.734262E+04 -4.805543E+05  6.626878E+03  9.947422E+03
       347   2 -9.894270E+05 -1.967582E+05 -9.398778E+02 -4.483219E+05  9.713061E+03  3.532389E+03
       347   3 -8.971981E+05 -1.737124E+05  1.501919E+04 -4.335123E+05  1.280230E+04 -2.890629E+03
       347   4 -9.830495E+05 -2.048565E+05 -1.815798E+03 -4.574317E+05 -3.644106E+03  6.091266E+03
       347   5 -9.906214E+05 -1.972483E+05 -1.166533E+03 -4.487144E+05 -5.710632E+02 -3.287369E+02
       347   6 -9.830520E+05 -2.048778E+05 -9.513516E+02 -4.574234E+05  2.504941E+03 -6.756734E+03
       347   7 -8.995831E+05 -1.746691E+05  1.371142E+04 -4.343059E+05 -1.391666E+04  2.234525E+03
       347   8 -9.918156E+05 -1.977382E+05 -1.392736E+03 -4.491067E+05 -1.085522E+04 -4.189871E+03
       347   9 -1.068898E+06 -2.360424E+05 -1.692173E+04 -4.813313E+05 -7.790898E+03 -1.062227E+04
       347  10 -1.066508E+06 -2.350429E+05 -1.734288E+04 -4.805543E+05  1.494745E-09 -8.303972E-10
       347  11 -9.894271E+05 -1.967583E+05 -9.400789E+02 -4.483220E+05 -6.600777E-09 -3.518781E-09
       347  12 -8.971983E+05 -1.737124E+05  1.501887E+04 -4.335123E+05 -7.564042E-09 -2.156236E-09
       347  13 -9.830496E+05 -2.048565E+05 -1.815892E+03 -4.574316E+05 -2.749131E-09 -1.316574E-09
       347  14 -9.906214E+05 -1.972483E+05 -1.166534E+03 -4.487144E+05 -6.813373E-09 -3.592621E-09
       347  15 -9.830520E+05 -2.048778E+05 -9.514491E+02 -4.574234E+05 -2.645672E-09 -1.162364E-09
       347  16 -8.995833E+05 -1.746692E+05  1.371105E+04 -4.343058E+05 -7.174037E-09 -2.209582E-09
       347  17 -9.918157E+05 -1.977383E+05 -1.392990E+03 -4.491068E+05 -5.569289E-09 -2.733196E-09
       347  18 -1.068898E+06 -2.360426E+05 -1.692206E+04 -4.813314E+05  1.615386E-09 -9.260991E-10
       347  19 -1.066508E+06 -2.350428E+05 -1.734262E+04 -4.805543E+05 -6.626878E+03 -9.947422E+03
       347  20 -9.894270E+05 -1.967582E+05 -9.398778E+02 -4.483219E+05 -9.713061E+03 -3.532389E+03
       347  21 -8.971981E+05 -1.737124E+05  1.501919E+04 -4.335123E+05 -1.280230E+04  2.890629E+03
       347  22 -9.830495E+05 -2.048565E+05 -1.815798E+03 -4.574317E+05  3.644106E+03 -6.091266E+03
       347  23 -9.906214E+05 -1.972483E+05 -1.166533E+03 -4.487144E+05  5.710632E+02  3.287369E+02
       347  24 -9.830520E+05 -2.048778E+05 -9.513516E+02 -4.574234E+05 -2.504941E+03  6.756734E+03
       347  25 -8.995831E+05 -1.746691E+05  1.371142E+04 -4.343059E+05  1.391666E+04 -2.234525E+03
       347  26 -9.918156E+05 -1.977382E+05 -1.392736E+03 -4.491067E+05  1.085522E+04  4.189871E+03
       347  27 -1.068898E+06 -2.360424E+05 -1.692173E+04 -4.813313E+05  7.790898E+03  1.062227E+04
       348   1 -8.409502E+05 -1.532060E+05  2.608665E+04 -4.179049E+05  1.441437E+04 -6.701503E+03
       348   2 -7.639326E+05 -1.149428E+05  4.150238E+04 -3.856935E+05  1.752405E+04 -1.310998E+04
       348   3 -6.717767E+05 -9.190111E+04  5.646019E+04 -3.708882E+05  2.062932E+04 -1.950274E+04
       348   4 -9.830589E+05 -2.048782E+05 -9.719681E+02 -4.574199E+05  4.118910E+03 -1.056722E+04
       348   5 -9.906289E+05 -1.972684E+05 -1.283687E+03 -4.487167E+05  7.251552E+03 -1.696819E+04
       348   6 -9.830723E+05 -2.048853E+05 -2.071606E+03 -4.574227E+05  1.037970E+04 -2.335351E+04
       348   7 -1.125145E+06 -2.565481E+05 -2.803062E+04 -4.969261E+05 -6.173931E+03 -1.443196E+04
       348   8 -1.217271E+06 -2.795892E+05 -4.407138E+04 -5.117185E+05 -3.016929E+03 -2.082491E+04
       348   9 -1.294269E+06 -3.178617E+05 -6.060760E+04 -5.439176E+05  1.354974E+02 -2.720225E+04
       348  10 -8.409504E+05 -1.532061E+05  2.608618E+04 -4.179048E+05 -4.769191E-09 -1.199551E-09
       348  11 -7.639330E+05 -1.149431E+05  4.150148E+04 -3.856934E+05  8.079218E-09  3.482975E-09
       348  12 -6.717773E+05 -9.190163E+04  5.645868E+04 -3.708879E+05  2.183263E-08  9.654050E-09
       348  13 -9.830589E+05 -2.048784E+05 -9.722097E+02 -4.574199E+05 -4.854829E-10 -8.726011E-10
       348  14 -9.906291E+05 -1.972687E+05 -1.284326E+03 -4.487167E+05  2.029851E-09 -5.670283E-10
       348  15 -9.830726E+05 -2.048859E+05 -2.072832E+03 -4.574225E+05  3.928261E-09  1.635151E-09
       348  16 -1.125145E+06 -2.565483E+05 -2.803108E+04 -4.969262E+05  4.182337E-09 -6.440516E-11
       348  17 -1.217271E+06 -2.795896E+05 -4.407221E+04 -5.117185E+05 -7.123432E-09 -3.611778E-09
       348  18 -1.294269E+06 -3.178625E+05 -6.060899E+04 -5.439176E+05 -1.489821E-08 -5.313477E-09
       348  19 -8.409502E+05 -1.532060E+05  2.608665E+04 -4.179049E+05 -1.441437E+04  6.701503E+03
       348  20 -7.639326E+05 -1.149428E+05  4.150238E+04 -3.856935E+05 -1.752405E+04  1.310998E+04
       348  21 -6.717767E+05 -9.190111E+04  5.646019E+04 -3.708882E+05 -2.062932E+04  1.950274E+04
       348  22 -9.830589E+05 -2.048782E+05 -9.719681E+02 -4.574199E+05 -4.118910E+03  1.056722E+04
       348  23 -9.906289E+05 -1.972684E+05 -1.283687E+03 -4.487167E+05 -7.251552E+03  1.696819E+04
       348  24 -9.830723E+05 -2.048853E+05 -2.071606E+03 -4.574227E+05 -1.037970E+04  2.335351E+04
       348  25 -1.125145E+06 -2.565481E+05 -2.803062E+04 -4.969261E+05  6.173931E+03  1.443196E+04
       348  26 -1.217271E+06 -2.795892E+05 -4.407138E+04 -5.117185E+05  3.016929E+03  2.082491E+04
       348  27 -1.294269E+06 -3.178617E+05 -6.060760E+04 -5.439176E+05 -1.354974E+02  2.720225E+04
       349   1 -6.156560E+05 -7.144107E+04  6.690710E+04 -3.553498E+05  2.249214E+04 -2.320744E+04
       349   2 -5.387150E+05 -3.325190E+04  8.057480E+04 -3.232017E+05  2.709472E+04 -2.894812E+04
       349   3 -4.469307E+05 -1.045712E+04  9.260282E+04 -3.084147E+05  3.163965E+04 -3.452718E+04
       349   4 -9.831478E+05 -2.048746E+05 -2.696996E+03 -4.574389E+05  1.222574E+04 -2.706553E+04
       349   5 -9.905710E+05 -1.972568E+05 -4.792847E+03 -4.487235E+05  1.707551E+04 -3.271557E+04
       349   6 -9.832068E+05 -2.050841E+05 -8.725294E+03 -4.573732E+05  2.186729E+04 -3.820401E+04
       349   7 -1.350498E+06 -3.382957E+05 -7.230614E+04 -5.594717E+05  1.965848E+03 -3.092118E+04
       349   8 -1.442211E+06 -3.612422E+05 -9.016776E+04 -5.741598E+05  7.064166E+03 -3.648007E+04
       349   9 -1.519177E+06 -3.996830E+05 -1.100633E+05 -6.062108E+05  1.210406E+04 -4.187743E+04
       349  10 -6.156567E+05 -7.144178E+04  6.690514E+04 -3.553494E+05 -1.483694E-08 -5.557526E-09
       349  11 -5.387160E+05 -3.325299E+04  8.057185E+04 -3.232011E+05 -7.271964E-09 -3.366272E-09
       349  12 -4.469321E+05 -1.045867E+04  9.259870E+04 -3.084138E+05  3.345321E-09  3.290220E-10
       349  13 -9.831482E+05 -2.048754E+05 -2.698652E+03 -4.574386E+05  3.490735E-09  1.798855E-09
       349  14 -9.905716E+05 -1.972580E+05 -4.795405E+03 -4.487231E+05 -1.030366E-09  4.945885E-10
       349  15 -9.832077E+05 -2.050858E+05 -8.728933E+03 -4.573726E+05 -1.055611E-09 -8.109397E-10
       349  16 -1.350498E+06 -3.382967E+05 -7.230794E+04 -5.594717E+05  2.245289E-08  8.271306E-09
       349  17 -1.442212E+06 -3.612436E+05 -9.017035E+04 -5.741596E+05  7.363446E-09  3.514506E-09
       349  18 -1.519178E+06 -3.996849E+05 -1.100669E+05 -6.062104E+05 -4.460576E-09 -7.851304E-10
       349  19 -6.156560E+05 -7.144107E+04  6.690710E+04 -3.553498E+05 -2.249214E+04  2.320744E+04
       349  20 -5.387150E+05 -3.325190E+04  8.057480E+04 -3.232017E+05 -2.709472E+04  2.894812E+04
       349  21 -4.469307E+05 -1.045712E+04  9.260282E+04 -3.084147E+05 -3.163965E+04  3.452718E+04
       349  22 -9.831478E+05 -2.048746E+05 -2.696996E+03 -4.574389E+05 -1.222574E+04  2.706553E+04
       349  23 -9.905710E+05 -1.972568E+05 -4.792847E+03 -4.487235E+05 -1.707551E+04  3.271557E+04
       349  24 -9.832068E+05 -2.050841E+05 -8.725294E+03 -4.573732E+05 -2.186729E+04  3.820401E+04
       349  25 -1.350498E+06 -3.382957E+05 -7.230614E+04 -5.594717E+05 -1.965848E+03  3.092118E+04
       349  26 -1.442211E+06 -3.612422E+05 -9.016776E+04 -5.741598E+05 -7.064166E+03  3.648007E+04
       349  27 -1.519177E+06 -3.996830E+05 -1.100633E+05 -6.062108E+05 -1.210406E+04  4.187743E+04
       350   1 -3.907990E+05  9.611281E+03  1.008249E+05 -2.937640E+05  3.500670E+04 -3.760549E+04
       350   2 -3.149390E+05  4.835670E+04  1.080219E+05 -2.593695E+05  4.463466E+04 -4.026369E+04
       350   3 -2.267715E+05  6.724211E+04  1.083177E+05 -2.411527E+05  5.351032E+04 -4.090995E+04
       350   4 -9.837200E+05 -2.048780E+05 -1.160273E+04 -4.576138E+05  2.491906E+04 -4.140243E+04
       350   5 -9.900928E+05 -1.982300E+05 -2.119597E+04 -4.481818E+05  3.765208E+04 -4.289607E+04
       350   6 -9.847860E+05 -2.120653E+05 -4.016077E+04 -4.549331E+05  4.963125E+04 -4.237698E+04
       350   7 -1.576280E+06 -4.193382E+05 -1.240460E+05 -6.213199E+05  1.484165E+04 -4.519558E+04
       350   8 -1.664775E+06 -4.447757E+05 -1.504338E+05 -6.368040E+05  3.067760E+04 -4.552538E+04
       350   9 -1.742204E+06 -4.913185E+05 -1.886652E+05 -6.684702E+05  4.575725E+04 -4.384208E+04
       350  10 -3.908007E+05  9.609434E+03  1.008200E+05 -2.937630E+05 -7.839130E-10 -6.302318E-10
       350  11 -3.149416E+05  4.835443E+04  1.080151E+05 -2.593681E+05 -7.169566E-10  7.497103E-10
       350  12 -2.267750E+05  6.723954E+04  1.083092E+05 -2.411509E+05 -1.747957E-09  4.426423E-10
       350  13 -9.837211E+05 -2.048800E+05 -1.160712E+04 -4.576130E+05 -3.996416E-10  1.821149E-10
       350  14 -9.900948E+05 -1.982323E+05 -2.120209E+04 -4.481805E+05 -1.677151E-10 -8.108037E-10
       350  15 -9.847891E+05 -2.120679E+05 -4.016877E+04 -4.549314E+05  8.852107E-10  6.579512E-10
       350  16 -1.576280E+06 -4.193404E+05 -1.240502E+05 -6.213194E+05  2.566073E-10  1.006742E-09
       350  17 -1.664776E+06 -4.447781E+05 -1.504394E+05 -6.368028E+05 -5.659852E-10  3.126326E-09
       350  18 -1.742207E+06 -4.913211E+05 -1.886728E+05 -6.684686E+05  2.411264E-09 -3.923293E-10
       350  19 -3.907990E+05  9.611281E+03  1.008249E+05 -2.937640E+05 -3.500670E+04  3.760549E+04
       350  20 -3.149390E+05  4.835670E+04  1.080219E+05 -2.593695E+05 -4.463466E+04  4.026369E+04
       350  21 -2.267715E+05  6.724211E+04  1.083177E+05 -2.411527E+05 -5.351032E+04  4.090995E+04
       350  22 -9.837200E+05 -2.048780E+05 -1.160273E+04 -4.576138E+05 -2.491906E+04  4.140243E+04
       350  23 -9.900928E+05 -1.982300E+05 -2.119597E+04 -4.481818E+05 -3.765208E+04  4.289607E+04
       350  24 -9.847860E+05 -2.120653E+05 -4.016077E+04 -4.549331E+05 -4.963125E+04  4.237698E+04
       350  25 -1.576280E+06 -4.193382E+05 -1.240460E+05 -6.213199E+05 -1.484165E+04  4.519558E+04
       350  26 -1.664775E+06 -4.447757E+05 -1.504338E+05 -6.368040E+05 -3.067760E+04  4.552538E+04
       350  27 -1.742204E+06 -4.913185E+05 -1.886652E+05 -6.684702E+05 -4.575725E+04  4.384208E+04
       351   1 -1.647932E+05  8.051106E+04  1.074912E+05 -2.427077E+05  6.507189E+04 -4.030096E+04
       351   2 -1.223036E+05  1.357396E+05  9.170825E+04 -1.462548E+05  7.377683E+04 -2.804127E+04
       351   3 -1.073347E+05  7.186017E+04  3.828050E+04 -3.721534E+04  7.260210E+04  1.043434E+04
       351   4 -9.913748E+05 -2.080532E+05 -5.293200E+04 -4.589925E+05  5.689840E+04 -4.338441E+04
       351   5 -9.855511E+05 -2.285028E+05 -9.986186E+04 -4.336601E+05  1.061901E+05 -1.584663E+04
       351   6 -1.015373E+06 -3.762266E+05 -2.166798E+05 -3.957327E+05  1.455900E+05  3.792116E+04
       351   7 -1.817248E+06 -4.965712E+05 -2.133849E+05 -6.750162E+05  4.873660E+04 -4.646392E+04
       351   8 -1.848014E+06 -5.926085E+05 -2.914686E+05 -7.206684E+05  1.385543E+05 -3.676602E+03
       351   9 -1.922537E+06 -8.240500E+05 -4.716841E+05 -7.537022E+05  2.184593E+05  6.533167E+04
       351  10 -1.647982E+05  8.050818E+04  1.074802E+05 -2.427055E+05 -1.033218E-10  1.361485E-10
       351  11 -1.223096E+05  1.357373E+05  9.169654E+04 -1.462531E+05 -1.470746E-09 -7.304709E-10
       351  12 -1.073404E+05  7.185864E+04  3.827039E+04 -3.721595E+04 -3.348092E-09 -9.215759E-10
       351  13 -9.913788E+05 -2.080561E+05 -5.294162E+04 -4.589905E+05  1.580874E-09 -1.710933E-09
       351  14 -9.855632E+05 -2.285061E+05 -9.988355E+04 -4.336587E+05  7.599228E-10  3.019560E-09
       351  15 -1.015396E+06 -3.762339E+05 -2.167224E+05 -3.957372E+05 -1.015144E-09  1.978879E-09
       351  16 -1.817251E+06 -4.965742E+05 -2.133935E+05 -6.750144E+05 -8.356718E-10 -1.519109E-09
       351  17 -1.848035E+06 -5.926137E+05 -2.915048E+05 -7.206680E+05  1.632843E-10  8.726973E-10
       351  18 -1.922590E+06 -8.240675E+05 -4.717821E+05 -7.537137E+05  1.193669E-09  1.756834E-09
       351  19 -1.647932E+05  8.051106E+04  1.074912E+05 -2.427077E+05 -6.507189E+04  4.030096E+04
       351  20 -1.223036E+05  1.357396E+05  9.170825E+04 -1.462548E+05 -7.377683E+04  2.804127E+04
       351  21 -1.073347E+05  7.186017E+04  3.828050E+04 -3.721534E+04 -7.260210E+04 -1.043434E+04
       351  22 -9.913748E+05 -2.080532E+05 -5.293200E+04 -4.589925E+05 -5.689840E+04  4.338441E+04
       351  23 -9.855511E+05 -2.285028E+05 -9.986186E+04 -4.336601E+05 -1.061901E+05  1.584663E+04
       351  24 -1.015373E+06 -3.762266E+05 -2.166798E+05 -3.957327E+05 -1.455900E+05 -3.792116E+04
       351  25 -1.817248E+06 -4.965712E+05 -2.133849E+05 -6.750162E+05 -4.873660E+04  4.646392E+04
       351  26 -1.848014E+06 -5.926085E+05 -2.914686E+05 -7.206684E+05 -1.385543E+05  3.676602E+03
       351  27 -1.922537E+06 -8.240500E+05 -4.716841E+05 -7.537022E+05 -2.184593E+05 -6.533167E+04
       352   1 -1.000451E+04  1.151290E+04 -2.198746E+04 -3.450847E+04 -9.750125E+04 -7.489250E+03
       352   2 -2.981502E+04  1.444772E+05  5.257043E+04 -5.753462E+03 -6.863390E+04 -2.297252E+04
       352   3 -8.910626E+04  1.342244E+05  7.257339E+04  4.250800E+04 -3.979593E+04 -2.344763E+04
       352   4 -6.044872E+05 -1.362116E+05 -1.670605E+05  2.180511E+04 -1.145609E+05 -7.528370E+03
       352   5 -5.837334E+05  8.254674E+03 -7.487593E+04  1.191592E+04 -7.456270E+04 -2.298760E+04
       352   6 -6.044360E+05  7.495545E+03 -4.501699E+04  2.153547E+04 -3.459123E+04 -2.343629E+04
       352   7 -1.198640E+06 -2.839501E+05 -3.121564E+05  7.806449E+04 -1.316042E+05 -7.570608E+03
       352   8 -1.137367E+06 -1.279880E+05 -2.023423E+05  2.956927E+04 -8.048623E+04 -2.300302E+04
       352   9 -1.119518E+06 -1.192502E+05 -1.626244E+05  5.803608E+02 -2.939082E+04 -2.342529E+04
       352  10 -1.001473E+04  1.151029E+04 -2.200543E+04 -3.450906E+04  2.482702E-10  4.072284E-10
       352  11 -2.982022E+04  1.444753E+05  5.256059E+04 -5.754732E+03  1.495759E-09 -1.599747E-09
       352  12 -8.910811E+04  1.342234E+05  7.256938E+04  4.250725E+04  2.008545E-09 -4.179498E-09
       352  13 -6.045013E+05 -1.362152E+05 -1.670853E+05  2.180441E+04 -1.276696E-09  2.298858E-09
       352  14 -5.837395E+05  8.252612E+03 -7.488738E+04  1.191454E+04 -1.591411E-09 -8.479436E-10
       352  15 -6.044374E+05  7.494634E+03 -4.502028E+04  2.153482E+04 -2.032121E-09 -3.312815E-10
       352  16 -1.198659E+06 -2.839548E+05 -3.121891E+05  7.806369E+04  3.253999E-12  9.941006E-10
       352  17 -1.137374E+06 -1.279903E+05 -2.023555E+05  2.956778E+04 -1.179960E-09 -4.985074E-09
       352  18 -1.119519E+06 -1.192510E+05 -1.626271E+05  5.798059E+02 -1.850770E-09 -5.868652E-09
       352  19 -1.000451E+04  1.151290E+04 -2.198746E+04 -3.450847E+04  9.750125E+04  7.489250E+03
       352  20 -2.981502E+04  1.444772E+05  5.257043E+04 -5.753462E+03  6.863390E+04  2.297252E+04
       352  21 -8.910626E+04  1.342244E+05  7.257339E+04  4.250800E+04  3.979593E+04  2.344763E+04
       352  22 -6.044872E+05 -1.362116E+05 -1.670605E+05  2.180511E+04  1.145609E+05  7.528370E+03
       352  23 -5.837334E+05  8.254674E+03 -7.487593E+04  1.191592E+04  7.456270E+04  2.298760E+04
       352  24 -6.044360E+05  7.495545E+03 -4.501699E+04  2.153547E+04  3.459123E+04  2.343629E+04
       352  25 -1.198640E+06 -2.839501E+05 -3.121564E+05  7.806449E+04  1.316042E+05  7.570608E+03
       352  26 -1.137367E+06 -1.279880E+05 -2.023423E+05  2.956927E+04  8.048623E+04  2.300302E+04
       352  27 -1.119518E+06 -1.192502E+05 -1.626244E+05  5.803608E+02  2.939082E+04  2.342529E+04
       353   1 -1.179526E+05  1.078404E+05  7.346359E+04  1.926622E+04 -2.859172E+04 -2.055806E+04
       353   2 -1.559632E+05  1.084747E+05  8.102735E+04  1.164240E+04 -1.943486E+04 -1.937691E+04
       353   3 -1.978178E+05  9.859392E+04  7.999604E+04  2.426115E+04 -1.028131E+04 -1.746216E+04
       353   4 -5.960989E+05 -9.739533E+03 -3.619079E+04  2.179262E+04 -2.798704E+04 -2.055792E+04
       353   5 -5.941206E+05  7.668843E+02 -1.919390E+04  1.165822E+04 -1.829125E+04 -1.937505E+04
       353   6 -5.960841E+05  6.601213E+02 -1.117128E+04  2.176741E+04 -8.598174E+03 -1.745842E+04
       353   7 -1.074033E+06 -1.273353E+05 -1.458602E+05  2.431693E+04 -2.738281E+04 -2.055777E+04
       353   8 -1.032100E+06 -1.069543E+05 -1.194277E+05  1.167391E+04 -1.714843E+04 -1.937319E+04
       353   9 -9.942033E+05 -9.728470E+04 -1.023490E+05  1.927518E+04 -6.916113E+03 -1.745469E+04
       353  10 -1.179535E+05  1.078397E+05  7.346126E+04  1.926574E+04 -3.704518E-09 -5.998529E-09
       353  11 -1.559637E+05  1.084742E+05  8.102593E+04  1.164210E+04 -1.813947E-09  2.745589E-09
       353  12 -1.978180E+05  9.859356E+04  7.999527E+04  2.426101E+04 -2.276969E-09  3.230178E-09
       353  13 -5.960999E+05 -9.740198E+03 -3.619305E+04  2.179215E+04 -1.054472E-09 -4.256028E-09
       353  14 -5.941210E+05  7.663914E+02 -1.919523E+04  1.165793E+04 -1.734625E-09  9.730573E-11
       353  15 -5.960843E+05  6.597743E+02 -1.117199E+04  2.176729E+04 -8.545697E-10 -2.190806E-09
       353  16 -1.074034E+06 -1.273360E+05 -1.458624E+05  2.431648E+04  3.236860E-09 -1.316286E-09
       353  17 -1.032100E+06 -1.069548E+05 -1.194290E+05  1.167365E+04  6.778211E-10 -6.932568E-13
       353  18 -9.942035E+05 -9.728504E+04 -1.023497E+05  1.927508E+04  1.852055E-09  6.313930E-10
       353  19 -1.179526E+05  1.078404E+05  7.346359E+04  1.926622E+04  2.859172E+04  2.055806E+04
       353  20 -1.559632E+05  1.084747E+05  8.102735E+04  1.164240E+04  1.943486E+04  1.937691E+04
       353  21 -1.978178E+05  9.859392E+04  7.999604E+04  2.426115E+04  1.028131E+04  1.746216E+04
       353  22 -5.960989E+05 -9.739533E+03 -3.619079E+04  2.179262E+04  2.798704E+04  2.055792E+04
       353  23 -5.941206E+05  7.668843E+02 -1.919390E+04  1.165822E+04  1.829125E+04  1.937505E+04
       353  24 -5.960841E+05  6.601213E+02 -1.117128E+04  2.176741E+04  8.598174E+03  1.745842E+04
       353  25 -1.074033E+06 -1.273353E+05 -1.458602E+05  2.431693E+04  2.738281E+04  2.055777E+04
       353  26 -1.032100E+06 -1.069543E+05 -1.194277E+05  1.167391E+04  1.714843E+04  1.937319E+04
       353  27 -9.942033E+05 -9.728470E+04 -1.023490E+05  1.927518E+04  6.916113E+03  1.745469E+04
       354   1 -2.346328E+05  8.808577E+04  7.375246E+04  2.254478E+04 -8.327788E+03 -1.619798E+04
       354   2 -2.747681E+05  7.887341E+04  6.836867E+04  1.234027E+04 -5.943992E+03 -1.420166E+04
       354   3 -3.154719E+05  6.899586E+04  6.124524E+04  2.264356E+04 -3.561456E+03 -1.216288E+04
       354   4 -5.953295E+05 -5.640669E+02 -8.628134E+03  2.183488E+04 -6.860989E+03 -1.619459E+04
       354   5 -5.950377E+05  1.394816E+02 -4.866618E+03  1.157959E+04 -4.446920E+03 -1.419786E+04
       354   6 -5.953215E+05  1.723263E+02 -2.866511E+03  2.183277E+04 -2.033956E+03 -1.215865E+04
       354   7 -9.559056E+05 -8.922294E+04 -9.101723E+04  2.112531E+04 -5.395035E+03 -1.619121E+04
       354   8 -9.152121E+05 -7.860157E+04 -7.810862E+04  1.081924E+04 -2.950612E+03 -1.419406E+04
       354   9 -8.750985E+05 -6.865666E+04 -6.698340E+04  2.102229E+04 -5.071400E+02 -1.215442E+04
       354  10 -2.346330E+05  8.808547E+04  7.375183E+04  2.254467E+04 -2.266641E-09  5.053455E-09
       354  11 -2.747682E+05  7.887318E+04  6.836822E+04  1.234020E+04  3.126328E-09  5.149891E-09
       354  12 -3.154720E+05  6.899570E+04  6.124494E+04  2.264353E+04  8.951532E-09  9.327977E-10
       354  13 -5.953297E+05 -5.643611E+02 -8.628716E+03  2.183479E+04 -6.665643E-10 -2.310801E-09
       354  14 -5.950377E+05  1.392599E+02 -4.867034E+03  1.157954E+04 -7.716993E-10  5.255400E-09
       354  15 -5.953216E+05  1.721665E+02 -2.866797E+03  2.183275E+04 -1.179794E-09  8.978265E-09
       354  16 -9.559057E+05 -8.922323E+04 -9.101777E+04  2.112524E+04  2.662765E-09  3.354043E-09
       354  17 -9.152121E+05 -7.860179E+04 -7.810901E+04  1.081921E+04 -5.229171E-09  5.427917E-09
       354  18 -8.750985E+05 -6.865682E+04 -6.698368E+04  2.102228E+04 -7.290460E-09  4.177897E-09
       354  19 -2.346328E+05  8.808577E+04  7.375246E+04  2.254478E+04  8.327788E+03  1.619798E+04
       354  20 -2.747681E+05  7.887341E+04  6.836867E+04  1.234027E+04  5.943992E+03  1.420166E+04
       354  21 -3.154719E+05  6.899586E+04  6.124524E+04  2.264356E+04  3.561456E+03  1.216288E+04
       354  22 -5.953295E+05 -5.640669E+02 -8.628134E+03  2.183488E+04  6.860989E+03  1.619459E+04
       354  23 -5.950377E+05  1.394816E+02 -4.866618E+03  1.157959E+04  4.446920E+03  1.419786E+04
       354  24 -5.953215E+05  1.723263E+02 -2.866511E+03  2.183277E+04  2.033956E+03  1.215865E+04
       354  25 -9.559056E+05 -8.922294E+04 -9.101723E+04  2.112531E+04  5.395035E+03  1.619121E+04
       354  26 -9.152121E+05 -7.860157E+04 -7.810862E+04  1.081924E+04  2.950612E+03  1.419406E+04
       354  27 -8.750985E+05 -6.865666E+04 -6.698340E+04  2.102229E+04  5.071400E+02  1.215442E+04
       355   1 -3.533468E+05  5.953786E+04  5.295593E+04  2.247765E+04 -3.099223E+03 -1.096769E+04
       355   2 -3.940045E+05  4.953444E+04  4.455918E+04  1.203606E+04 -2.400817E+03 -8.917960E+03
       355   3 -4.348751E+05  3.959976E+04  3.569300E+04  2.227742E+04 -1.703119E+03 -6.861892E+03
       355   4 -5.952367E+05  9.309752E+01 -2.240658E+03  2.187234E+04 -1.578430E+03 -1.096330E+04
       355   5 -5.951265E+05  8.774570E+01 -1.433124E+03  1.153057E+04 -8.756078E+02 -8.913344E+03
       355   6 -5.952321E+05  1.502800E+02 -1.098320E+03  2.187215E+04 -1.734495E+02 -6.857046E+03
       355   7 -8.370723E+05 -5.935572E+04 -5.744106E+04  2.126723E+04 -5.822346E+01 -1.095891E+04
       355   8 -7.962109E+05 -4.936176E+04 -4.742807E+04  1.102521E+04  6.491108E+02 -8.908731E+03
       355   9 -7.555652E+05 -3.930099E+04 -3.789133E+04  2.146696E+04  1.355828E+03 -6.852201E+03
       355  10 -3.533469E+05  5.953772E+04  5.295568E+04  2.247762E+04 -2.800087E-09 -1.615782E-10
       355  11 -3.940046E+05  4.953435E+04  4.455902E+04  1.203604E+04 -3.711126E-09  8.716674E-09
       355  12 -4.348752E+05  3.959971E+04  3.569291E+04  2.227742E+04 -2.303221E-10  6.532750E-09
       355  13 -5.952368E+05  9.296782E+01 -2.240889E+03  2.187233E+04 -1.067550E-09  2.932155E-09
       355  14 -5.951265E+05  8.766021E+01 -1.433275E+03  1.153056E+04 -2.359313E-09  7.216524E-09
       355  15 -5.952321E+05  1.502295E+02 -1.098409E+03  2.187215E+04 -6.623878E-10  7.896285E-10
       355  16 -8.370724E+05 -5.935585E+04 -5.744128E+04  2.126723E+04  3.132774E-09  3.201801E-09
       355  17 -7.962109E+05 -4.936184E+04 -4.742822E+04  1.102521E+04  1.384638E-09 -6.492910E-10
       355  18 -7.555652E+05 -3.930104E+04 -3.789142E+04  2.146696E+04 -9.833933E-10 -2.583135E-09
       355  19 -3.533468E+05  5.953786E+04  5.295593E+04  2.247765E+04  3.099223E+03  1.096769E+04
       355  20 -3.940045E+05  4.953444E+04  4.455918E+04  1.203606E+04  2.400817E+03  8.917960E+03
       355  21 -4.348751E+05  3.959976E+04  3.569300E+04  2.227742E+04  1.703119E+03  6.861892E+03
       355  22 -5.952367E+05  9.309752E+01 -2.240658E+03  2.187234E+04  1.578430E+03  1.096330E+04
       355  23 -5.951265E+05  8.774570E+01 -1.433124E+03  1.153057E+04  8.756078E+02  8.913344E+03
       355  24 -5.952321E+05  1.502800E+02 -1.098320E+03  2.187215E+04  1.734495E+02  6.857046E+03
       355  25 -8.370723E+05 -5.935572E+04 -5.744106E+04  2.126723E+04  5.822346E+01  1.095891E+04
       355  26 -7.962109E+05 -4.936176E+04 -4.742807E+04  1.102521E+04 -6.491108E+02  8.908731E+03
       355  27 -7.555652E+05 -3.930099E+04 -3.789133E+04  2.146696E+04 -1.355828E+03  6.852201E+03
       356   1 -4.730825E+05  3.015793E+04  2.674965E+04  2.219080E+04 -1.513245E+03 -5.663100E+03
       356   2 -5.139188E+05  2.006065E+04  1.732395E+04  1.168521E+04 -9.043579E+02 -3.600781E+03
       356   3 -5.549800E+05  1.004675E+04  7.484485E+03  2.196128E+04 -2.957620E+02 -1.537387E+03
       356   4 -5.952317E+05  1.495090E+02 -1.065325E+03  2.189404E+04  1.832199E+01 -5.658151E+03
       356   5 -5.951179E+05  9.624704E+01 -1.245795E+03  1.150316E+04  6.278972E+02 -3.595746E+03
       356   6 -5.952301E+05  1.265100E+02 -1.840300E+03  2.189411E+04  1.237221E+03 -1.532260E+03
       356   7 -7.173671E+05 -2.985995E+04 -2.888126E+04  2.159733E+04  1.549591E+03 -5.653202E+03
       356   8 -6.763108E+05 -1.986861E+04 -1.981596E+04  1.132113E+04  2.159953E+03 -3.590711E+03
       356   9 -6.354786E+05 -9.793843E+03 -1.116519E+04  2.182694E+04  2.770105E+03 -1.527133E+03
       356  10 -4.730825E+05  3.015790E+04  2.674959E+04  2.219079E+04  1.190780E-08  2.887147E-09
       356  11 -5.139188E+05  2.006063E+04  1.732392E+04  1.168521E+04  2.306512E-09  1.849921E-09
       356  12 -5.549800E+05  1.004675E+04  7.484481E+03  2.196128E+04 -8.585830E-09 -2.619207E-09
       356  13 -5.952317E+05  1.494746E+02 -1.065385E+03  2.189404E+04  1.169459E-10  9.322944E-09
       356  14 -5.951179E+05  9.623306E+01 -1.245820E+03  1.150316E+04 -1.613407E-09  3.559377E-09
       356  15 -5.952301E+05  1.265070E+02 -1.840308E+03  2.189411E+04 -8.543519E-10 -3.207931E-09
       356  16 -7.173671E+05 -2.985998E+04 -2.888133E+04  2.159734E+04 -1.148232E-08  3.843553E-09
       356  17 -6.763108E+05 -1.986863E+04 -1.981600E+04  1.132114E+04 -4.248599E-09 -1.447339E-09
       356  18 -6.354786E+05 -9.793847E+03 -1.116520E+04  2.182694E+04  9.509458E-09 -4.318085E-09
       356  19 -4.730825E+05  3.015793E+04  2.674965E+04  2.219080E+04  1.513245E+03  5.663100E+03
       356  20 -5.139188E+05  2.006065E+04  1.732395E+04  1.168521E+04  9.043579E+02  3.600781E+03
       356  21 -5.549800E+05  1.004675E+04  7.484485E+03  2.196128E+04  2.957620E+02  1.537387E+03
       356  22 -5.952317E+05  1.495090E+02 -1.065325E+03  2.189404E+04 -1.832199E+01  5.658151E+03
       356  23 -5.951179E+05  9.624704E+01 -1.245795E+03  1.150316E+04 -6.278972E+02  3.595746E+03
       356  24 -5.952301E+05  1.265100E+02 -1.840300E+03  2.189411E+04 -1.237221E+03  1.532260E+03
       356  25 -7.173671E+05 -2.985995E+04 -2.888126E+04  2.159733E+04 -1.549591E+03  5.653202E+03
       356  26 -6.763108E+05 -1.986861E+04 -1.981596E+04  1.132113E+04 -2.159953E+03  3.590711E+03
       356  27 -6.354786E+05 -9.793843E+03 -1.116519E+04  2.182694E+04 -2.770105E+03  1.527133E+03
       357   1 -5.933547E+05  6.427165E+02 -1.998430E+03  2.176515E+04  6.848526E+01 -3.328371E+02
       357   2 -6.340565E+05 -9.443254E+03 -1.281212E+04  1.134860E+04  2.007622E+03  1.733888E+03
       357   3 -6.753053E+05 -2.002620E+04 -2.505234E+04  2.172777E+04  3.946816E+03  3.780601E+03
       357   4 -5.953007E+05  1.892761E+02 -2.323703E+03  2.189654E+04  1.607630E+03 -3.276745E+02
       357   5 -5.950287E+05  1.539559E+02 -3.884844E+03  1.149967E+04  3.531962E+03  1.738957E+03
       357   6 -5.953024E+05 -3.755961E+02 -6.862016E+03  2.189843E+04  5.456478E+03  3.785583E+03
       357   7 -5.972467E+05 -2.641633E+02 -2.648967E+03  2.202793E+04  3.146771E+03 -3.225113E+02
       357   8 -5.559994E+05  9.751061E+03  5.042340E+03  1.165074E+04  5.056398E+03  1.744026E+03
       357   9 -5.152936E+05  1.927456E+04  1.132790E+04  2.206911E+04  6.966333E+03  3.790564E+03
       357  10 -5.933547E+05  6.427164E+02 -1.998431E+03  2.176515E+04 -5.337471E-09  3.103714E-09
       357  11 -6.340565E+05 -9.443258E+03 -1.281213E+04  1.134860E+04 -1.828226E-09  4.504595E-09
       357  12 -6.753053E+05 -2.002622E+04 -2.505239E+04  2.172776E+04 -1.360597E-09  1.942366E-09
       357  13 -5.953007E+05  1.892753E+02 -2.323708E+03  2.189654E+04  5.384413E-10 -1.108579E-09
       357  14 -5.950287E+05  1.539493E+02 -3.884873E+03  1.149966E+04 -1.165463E-09  2.895661E-09
       357  15 -5.953024E+05 -3.756195E+02 -6.862099E+03  2.189841E+04 -8.124696E-10  3.195032E-09
       357  16 -5.972467E+05 -2.641660E+02 -2.648986E+03  2.202793E+04  6.961834E-09  1.950590E-09
       357  17 -5.559994E+05  9.751051E+03  5.042286E+03  1.165074E+04  2.190714E-09 -8.607357E-09
       357  18 -5.152936E+05  1.927453E+04  1.132778E+04  2.206909E+04  2.249043E-09 -1.181669E-09
       357  19 -5.933547E+05  6.427165E+02 -1.998430E+03  2.176515E+04 -6.848526E+01  3.328371E+02
       357  20 -6.340565E+05 -9.443254E+03 -1.281212E+04  1.134860E+04 -2.007622E+03 -1.733888E+03
       357  21 -6.753053E+05 -2.002620E+04 -2.505234E+04  2.172777E+04 -3.946816E+03 -3.780601E+03
       357  22 -5.953007E+05  1.892761E+02 -2.323703E+03  2.189654E+04 -1.607630E+03  3.276745E+02
       357  23 -5.950287E+05  1.539559E+02 -3.884844E+03  1.149967E+04 -3.531962E+03 -1.738957E+03
       357  24 -5.953024E+05 -3.755961E+02 -6.862016E+03  2.189843E+04 -5.456478E+03 -3.785583E+03
       357  25 -5.972467E+05 -2.641633E+02 -2.648967E+03  2.202793E+04 -3.146771E+03  3.225113E+02
       357  26 -5.559994E+05  9.751061E+03  5.042340E+03  1.165074E+04 -5.056398E+03 -1.744026E+03
       357  27 -5.152936E+05  1.927456E+04  1.132790E+04  2.206911E+04 -6.966333E+03 -3.790564E+03
       358   1 -7.141574E+05 -2.851567E+04 -3.603761E+04  2.023990E+04  5.205520E+03  5.029690E+03
       358   2 -7.533644E+05 -3.845115E+04 -5.163832E+04  1.179717E+04  1.319237E+04  7.046954E+03
       358   3 -7.958728E+05 -5.681956E+04 -7.458632E+04  2.408609E+04  2.118027E+04  8.661700E+03
       358   4 -5.959050E+05  5.958693E+02 -8.878073E+03  2.187541E+04  6.836183E+03  5.035014E+03
       358   5 -5.942836E+05  6.669442E+02 -1.523104E+04  1.152286E+04  1.452557E+04  7.051114E+03
       358   6 -5.959129E+05 -7.641874E+03 -2.872305E+04  2.190179E+04  2.221652E+04  8.664699E+03
       358   7 -4.776396E+05  2.970644E+04  1.828055E+04  2.351122E+04  8.467154E+03  5.040345E+03
       358   8 -4.351794E+05  3.978328E+04  2.117459E+04  1.124847E+04  1.585910E+04  7.055272E+03
       358   9 -3.959158E+05  4.153304E+04  1.713759E+04  1.971675E+04  2.325310E+04  8.667690E+03
       358  10 -7.141574E+05 -2.851570E+04 -3.603771E+04  2.023988E+04 -4.440875E-09  6.834983E-09
       358  11 -7.533646E+05 -3.845125E+04 -5.163874E+04  1.179710E+04 -7.612595E-10  3.573660E-09
       358  12 -7.958733E+05 -5.681976E+04 -7.458731E+04  2.408594E+04  5.034865E-09  2.102352E-09
       358  13 -5.959050E+05  5.958295E+02 -8.878208E+03  2.187538E+04 -5.665859E-10  3.521125E-09
       358  14 -5.942839E+05  6.668341E+02 -1.523153E+04  1.152278E+04  1.012572E-09  4.628542E-09
       358  15 -5.959134E+05 -7.642088E+03 -2.872412E+04  2.190163E+04 -1.076252E-10 -1.517257E-09
       358  16 -4.776397E+05  2.970639E+04  1.828037E+04  2.351118E+04  5.447279E-09  1.146778E-09
       358  17 -4.351796E+05  3.978316E+04  2.117403E+04  1.124838E+04 -2.023576E-09 -3.384185E-09
       358  18 -3.959164E+05  4.153282E+04  1.713643E+04  1.971658E+04 -3.962671E-09 -9.253540E-09
       358  19 -7.141574E+05 -2.851567E+04 -3.603761E+04  2.023990E+04 -5.205520E+03 -5.029690E+03
       358  20 -7.533644E+05 -3.845115E+04 -5.163832E+04  1.179717E+04 -1.319237E+04 -7.046954E+03
       358  21 -7.958728E+05 -5.681956E+04 -7.458632E+04  2.408609E+04 -2.118027E+04 -8.661700E+03
       358  22 -5.959050E+05  5.958693E+02 -8.878073E+03  2.187541E+04 -6.836183E+03 -5.035014E+03
       358  23 -5.942836E+05  6.669442E+02 -1.523104E+04  1.152286E+04 -1.452557E+04 -7.051114E+03
       358  24 -5.959129E+05 -7.641874E+03 -2.872305E+04  2.190179E+04 -2.221652E+04 -8.664699E+03
       358  25 -4.776396E+05  2.970644E+04  1.828055E+04  2.351122E+04 -8.467154E+03 -5.040345E+03
       358  26 -4.351794E+05  3.978328E+04  2.117459E+04  1.124847E+04 -1.585910E+04 -7.055272E+03
       358  27 -3.959158E+05  4.153304E+04  1.713759E+04  1.971675E+04 -2.325310E+04 -8.667690E+03
       359   1 -8.405697E+05 -5.260595E+04 -9.011383E+04  5.219087E+03  2.388040E+04  1.080456E+04
       359   2 -8.643328E+05 -6.179969E+04 -1.235058E+05  2.569255E+04  6.174035E+04  1.157997E+04
       359   3 -9.222331E+05 -1.873094E+05 -2.106718E+05  6.665789E+04  9.962219E+04  4.067998E+03
       359   4 -6.025332E+05  6.037928E+03 -3.572741E+04  2.173688E+04  2.745700E+04  1.081603E+04
       359   5 -5.860252E+05  6.622864E+03 -5.941030E+04  1.165793E+04  5.916781E+04  1.157045E+04
       359   6 -6.025718E+05 -1.080143E+05 -1.325777E+05  2.207281E+04  9.090331E+04  4.035408E+03
       359   7 -3.644435E+05  6.467887E+04  1.865548E+04  3.826103E+04  3.103496E+04  1.082769E+04
       359   8 -3.076454E+05  7.504077E+04  4.680194E+03 -2.383084E+03  5.659413E+04  1.156105E+04
       359   9 -2.828128E+05 -2.871913E+04 -5.448957E+04 -2.253537E+04  8.217994E+04  4.004082E+03
       359  10 -8.405703E+05 -5.260623E+04 -9.011512E+04  5.218880E+03 -2.679944E-09  2.979508E-09
       359  11 -8.643369E+05 -6.180086E+04 -1.235132E+05  2.569198E+04  1.712247E-09 -2.002939E-09
       359  12 -9.222438E+05 -1.873121E+05 -2.106905E+05  6.665756E+04  3.498869E-09 -1.381992E-09
       359  13 -6.025340E+05  6.037600E+03 -3.572905E+04  2.173664E+04 -4.129979E-10  7.291793E-09
       359  14 -5.860290E+05  6.621780E+03 -5.941713E+04  1.165738E+04  1.586262E-10 -4.930570E-09
       359  15 -6.025807E+05 -1.080166E+05 -1.325932E+05  2.207251E+04 -5.922925E-10  5.795965E-09
       359  16 -3.644446E+05  6.467848E+04  1.865345E+04  3.826076E+04  4.182318E-09  1.376326E-09
       359  17 -3.076488E+05  7.503977E+04  4.673921E+03 -2.383611E+03 -1.424500E-09  5.246790E-09
       359  18 -2.828200E+05 -2.872096E+04 -5.450230E+04 -2.253563E+04 -1.827638E-09 -1.112415E-09
       359  19 -8.405697E+05 -5.260595E+04 -9.011383E+04  5.219087E+03 -2.388040E+04 -1.080456E+04
       359  20 -8.643328E+05 -6.179969E+04 -1.235058E+05  2.569255E+04 -6.174035E+04 -1.157997E+04
       359  21 -9.222331E+05 -1.873094E+05 -2.106718E+05  6.665789E+04 -9.962219E+04 -4.067998E+03
       359  22 -6.025332E+05  6.037928E+03 -3.572741E+04  2.173688E+04 -2.745700E+04 -1.081603E+04
       359  23 -5.860252E+05  6.622864E+03 -5.941030E+04  1.165793E+04 -5.916781E+04 -1.157045E+04
       359  24 -6.025718E+05 -1.080143E+05 -1.325777E+05  2.207281E+04 -9.090331E+04 -4.035408E+03
       359  25 -3.644435E+05  6.467887E+04  1.865548E+04  3.826103E+04 -3.103496E+04 -1.082769E+04
       359  26 -3.076454E+05  7.504077E+04  4.680194E+03 -2.383084E+03 -5.659413E+04 -1.156105E+04
       359  27 -2.828128E+05 -2.871913E+04 -5.448957E+04 -2.253537E+04 -8.217994E+04 -4.004082E+03
       360   1  5.427819E+05  2.726536E+06  5.773536E+05 -2.887094E+05  1.531486E+04  1.797214E+05
       360   2  2.600627E+05  2.337733E+06  3.577733E+05 -1.477084E+05  4.390786E+04  9.462084E+04
       360   3  1.751168E+05  2.009071E+06  2.427978E+05 -1.866242E+05  3.290559E+04  9.481561E+03
       360   4  1.790435E+05  1.263682E+06  2.200335E+05 -2.109614E+05  1.541664E+04  1.435532E+05
       360   5 -1.061083E+04  1.236326E+06  1.043503E+05 -1.212205E+05  4.393335E+04  8.812503E+04
       360   6 -7.426071E+03  1.263999E+06  7.287075E+04 -2.113844E+05  3.283756E+04  3.260725E+04
       360   7 -1.848300E+05 -1.972143E+05 -1.374346E+05 -1.333949E+05  1.550954E+04  1.074694E+05
       360   8 -2.813665E+05  1.360385E+05 -1.491525E+05 -9.477904E+04  4.395832E+04  8.164051E+04
       360   9 -1.900046E+05  5.194425E+05 -9.709013E+04 -2.361143E+05  3.276763E+04  5.570548E+04
       360  10  5.427730E+05  2.726501E+06  5.772927E+05 -2.887116E+05  6.821332E-10  2.695299E-10
       360  11  2.600582E+05  2.337723E+06  3.577529E+05 -1.477117E+05  1.157669E-09 -5.533111E-09
       360  12  1.751156E+05  2.009071E+06  2.427956E+05 -1.866245E+05 -5.377050E-10  4.944588E-11
       360  13  1.790377E+05  1.263660E+06  2.199944E+05 -2.109632E+05  2.265089E-09 -4.739363E-10
       360  14 -1.061499E+04  1.236317E+06  1.043321E+05 -1.212236E+05  7.016323E-11  3.088024E-10
       360  15 -7.427515E+03  1.263998E+06  7.286672E+04 -2.113853E+05 -7.794801E-10 -4.589249E-09
       360  16 -1.848334E+05 -1.972268E+05 -1.374568E+05 -1.333963E+05  6.780531E-10  7.519537E-10
       360  17 -2.813704E+05  1.360308E+05 -1.491687E+05 -9.478193E+04  2.414859E-09 -6.363809E-10
       360  18 -1.900066E+05  5.194389E+05 -9.709798E+04 -2.361158E+05 -1.306448E-09 -1.751205E-09
       360  19  5.427819E+05  2.726536E+06  5.773536E+05 -2.887094E+05 -1.531486E+04 -1.797214E+05
       360  20  2.600627E+05  2.337733E+06  3.577733E+05 -1.477084E+05 -4.390786E+04 -9.462084E+04
       360  21  1.751168E+05  2.009071E+06  2.427978E+05 -1.866242E+05 -3.290559E+04 -9.481561E+03
       360  22  1.790435E+05  1.263682E+06  2.200335E+05 -2.109614E+05 -1.541664E+04 -1.435532E+05
       360  23 -1.061083E+04  1.236326E+06  1.043503E+05 -1.212205E+05 -4.393335E+04 -8.812503E+04
       360  24 -7.426071E+03  1.263999E+06  7.287075E+04 -2.113844E+05 -3.283756E+04 -3.260725E+04
       360  25 -1.848300E+05 -1.972143E+05 -1.374346E+05 -1.333949E+05 -1.550954E+04 -1.074694E+05
       360  26 -2.813665E+05  1.360385E+05 -1.491525E+05 -9.477904E+04 -4.395832E+04 -8.164051E+04
       360  27 -1.900046E+05  5.194425E+05 -9.709013E+04 -2.361143E+05 -3.276763E+04 -5.570548E+04
       361   1  1.138964E+05  1.665078E+06  1.599276E+05 -2.197319E+05  1.773630E+04  9.593386E+03
       361   2  1.169193E+04  1.302725E+06  7.038690E+04 -1.208447E+05  2.432547E+03 -1.991460E+04
       361   3 -5.667275E+04  9.515044E+05  8.184283E+03 -2.025952E+05 -1.299370E+04 -4.940796E+04
       361   4  1.302806E+04  1.254287E+06  6.599695E+04 -2.114161E+05  1.770089E+04  2.101672E+04
       361   5 -1.540476E+03  1.248791E+06  5.807087E+04 -1.210918E+05  2.396513E+03 -8.394567E+03
       361   6  1.772407E+04  1.254292E+06  7.742643E+04 -2.114013E+05 -1.303002E+04 -3.780770E+04
       361   7 -8.785170E+04  8.436512E+05 -2.794426E+04 -2.031056E+05  1.766578E+04  3.243258E+04
       361   8 -1.477301E+04  1.194859E+06  4.575515E+04 -1.213388E+05  2.360469E+03  3.124480E+03
       361   9  9.211487E+04  1.557165E+06  1.466631E+05 -2.202116E+05 -1.306666E+04 -2.620184E+04
       361  10  1.138961E+05  1.665078E+06  1.599269E+05 -2.197320E+05 -1.935886E-09  4.273700E-09
       361  11  1.169181E+04  1.302725E+06  7.038614E+04 -1.208446E+05  1.115904E-09 -4.644864E-09
       361  12 -5.667358E+04  9.515018E+05  8.179384E+03 -2.025958E+05 -1.389014E-09  3.192445E-09
       361  13  1.302761E+04  1.254286E+06  6.599553E+04 -2.114164E+05 -2.010411E-09 -2.579340E-10
       361  14 -1.540501E+03  1.248791E+06  5.807073E+04 -1.210917E+05  2.560657E-09  6.914211E-11
       361  15  1.772350E+04  1.254290E+06  7.742343E+04 -2.114017E+05  2.626130E-09 -5.029295E-09
       361  16 -8.785232E+04  8.436500E+05 -2.794682E+04 -2.031061E+05 -1.431915E-09 -2.768677E-09
       361  17 -1.477302E+04  1.194859E+06  4.575512E+04 -1.213388E+05 -1.513584E-09 -3.824877E-09
       361  18  9.211450E+04  1.557164E+06  1.466615E+05 -2.202119E+05  6.597075E-11 -4.712466E-09
       361  19  1.138964E+05  1.665078E+06  1.599276E+05 -2.197319E+05 -1.773630E+04 -9.593386E+03
       361  20  1.169193E+04  1.302725E+06  7.038690E+04 -1.208447E+05 -2.432547E+03  1.991460E+04
       361  21 -5.667275E+04  9.515044E+05  8.184283E+03 -2.025952E+05  1.299370E+04  4.940796E+04
       361  22  1.302806E+04  1.254287E+06  6.599695E+04 -2.114161E+05 -1.770089E+04 -2.101672E+04
       361  23 -1.540476E+03  1.248791E+06  5.807087E+04 -1.210918E+05 -2.396513E+03  8.394567E+03
       361  24  1.772407E+04  1.254292E+06  7.742643E+04 -2.114013E+05  1.303002E+04  3.780770E+04
       361  25 -8.785170E+04  8.436512E+05 -2.794426E+04 -2.031056E+05 -1.766578E+04 -3.243258E+04
       361  26 -1.477301E+04  1.194859E+06  4.575515E+04 -1.213388E+05 -2.360469E+03 -3.124480E+03
       361  27  9.211487E+04  1.557165E+06  1.466631E+05 -2.202116E+05  1.306666E+04  2.620184E+04
       362   1 -1.670321E+05  6.314898E+05 -5.583760E+04 -2.453863E+05 -2.779435E+04 -7.405073E+04
       362   2 -2.584224E+05  2.391413E+05 -9.223309E+04 -8.662785E+04 -3.936661E+04 -1.191258E+05
       362   3 -9.652684E+04 -8.436880E+04 -3.606756E+04 -1.076615E+05 -1.397745E+04 -1.640831E+05
       362   4 -1.102496E+04  1.268098E+06  8.951439E+04 -2.113967E+05 -2.786636E+04 -5.163349E+04
       362   5 -1.420865E+04  1.231264E+06  1.364156E+05 -1.212255E+05 -3.934227E+04 -1.243248E+05
       362   6  2.404417E+05  1.267765E+06  2.949057E+05 -2.107938E+05 -1.387310E+04 -1.969263E+05
       362   7  1.449589E+05  1.905085E+06  2.348425E+05 -1.773717E+05 -2.793589E+04 -2.919347E+04
       362   8  2.299406E+05  2.224298E+06  3.649996E+05 -1.558781E+05 -3.931737E+04 -1.295319E+05
       362   9  5.773148E+05  2.621588E+06  6.257549E+05 -3.141499E+05 -1.375799E+04 -2.298404E+05
       362  10 -1.670344E+05  6.314837E+05 -5.584935E+04 -2.453879E+05 -5.403891E-10  2.330121E-09
       362  11 -2.584278E+05  2.391256E+05 -9.226266E+04 -8.663162E+04 -1.377653E-09 -5.600057E-09
       362  12 -9.653427E+04 -8.439777E+04 -3.611853E+04 -1.076634E+05 -7.242327E-10 -4.826343E-10
       362  13 -1.102651E+04  1.268095E+06  8.950792E+04 -2.113979E+05 -2.165307E-09  2.138262E-10
       362  14 -1.421445E+04  1.231247E+06  1.363837E+05 -1.212294E+05 -2.181297E-10 -3.556555E-10
       362  15  2.404311E+05  1.267724E+06  2.948326E+05 -2.107960E+05 -1.046698E-09 -2.649934E-09
       362  16  1.449578E+05  1.905084E+06  2.348394E+05 -1.773724E+05  1.668874E-10 -7.573184E-10
       362  17  2.299344E+05  2.224280E+06  3.649652E+05 -1.558822E+05 -1.006818E-09 -2.087387E-09
       362  18  5.773005E+05  2.621532E+06  6.256557E+05 -3.141524E+05 -1.584303E-09 -9.920730E-10
       362  19 -1.670321E+05  6.314898E+05 -5.583760E+04 -2.453863E+05  2.779435E+04  7.405073E+04
       362  20 -2.584224E+05  2.391413E+05 -9.223309E+04 -8.662785E+04  3.936661E+04  1.191258E+05
       362  21 -9.652684E+04 -8.436880E+04 -3.606756E+04 -1.076615E+05  1.397745E+04  1.640831E+05
       362  22 -1.102496E+04  1.268098E+06  8.951439E+04 -2.113967E+05  2.786636E+04  5.163349E+04
       362  23 -1.420865E+04  1.231264E+06  1.364156E+05 -1.212255E+05  3.934227E+04  1.243248E+05
       362  24  2.404417E+05  1.267765E+06  2.949057E+05 -2.107938E+05  1.387310E+04  1.969263E+05
       362  25  1.449589E+05  1.905085E+06  2.348425E+05 -1.773717E+05  2.793589E+04  2.919347E+04
       362  26  2.299406E+05  2.224298E+06  3.649996E+05 -1.558781E+05  3.931737E+04  1.295319E+05
       362  27  5.773148E+05  2.621588E+06  6.257549E+05 -3.141499E+05  1.375799E+04  2.298404E+05
       363   1  4.324934E+05  1.438745E+05  7.972385E+04  1.298830E+05 -2.218913E+04 -1.624230E+04
       363   2  4.063603E+05  1.797753E+05  9.777779E+04  1.071813E+05 -1.231285E+04 -2.900703E+04
       363   3  3.472063E+05  1.805189E+05  9.903887E+04  1.136409E+05 -7.854289E+03 -2.740303E+04
       363   4 -1.099910E+05 -4.236798E+04 -6.256721E+04  4.850034E+02 -3.723340E+04 -2.191541E+04
       363   5 -8.911749E+04 -1.954823E+02 -2.668983E+04 -2.299283E+04 -1.735149E+04 -3.090959E+04
       363   6 -1.032660E+05  4.814545E+03 -1.554731E+04 -1.730391E+04 -2.888752E+03 -2.552958E+04
       363   7 -6.521844E+05 -2.286020E+05 -2.048796E+05 -1.288148E+05 -5.226295E+04 -2.758410E+04
       363   8 -5.843518E+05 -1.801525E+05 -1.511756E+05 -1.530736E+05 -2.238568E+04 -3.281059E+04
       363   9 -5.535388E+05 -1.708715E+05 -1.301497E+05 -1.481609E+05  2.072846E+03 -2.365774E+04
       363  10  4.324928E+05  1.438740E+05  7.972243E+04  1.298827E+05 -8.245895E-10  1.689787E-09
       363  11  4.063599E+05  1.797744E+05  9.777592E+04  1.071810E+05 -2.074084E-09 -5.228185E-11
       363  12  3.472061E+05  1.805181E+05  9.903735E+04  1.136408E+05  6.277599E-10 -3.611151E-09
       363  13 -1.099926E+05 -4.236887E+04 -6.257071E+04  4.843461E+02  1.230245E-09  2.624425E-09
       363  14 -8.911807E+04 -1.965891E+02 -2.669219E+04 -2.299326E+04 -9.798164E-10  5.597242E-11
       363  15 -1.032661E+05  4.813843E+03 -1.554855E+04 -1.730397E+04 -1.723321E-10 -2.397965E-09
       363  16 -6.521875E+05 -2.286035E+05 -2.048862E+05 -1.288160E+05  3.636738E-10 -1.797821E-09
       363  17 -5.843526E+05 -1.801538E+05 -1.511786E+05 -1.530742E+05  9.267506E-11 -3.349532E-09
       363  18 -5.535390E+05 -1.708721E+05 -1.301508E+05 -1.481608E+05 -1.189708E-09  6.461994E-10
       363  19  4.324934E+05  1.438745E+05  7.972385E+04  1.298830E+05  2.218913E+04  1.624230E+04
       363  20  4.063603E+05  1.797753E+05  9.777779E+04  1.071813E+05  1.231285E+04  2.900703E+04
       363  21  3.472063E+05  1.805189E+05  9.903887E+04  1.136409E+05  7.854289E+03  2.740303E+04
       363  22 -1.099910E+05 -4.236798E+04 -6.256721E+04  4.850034E+02  3.723340E+04  2.191541E+04
       363  23 -8.911749E+04 -1.954823E+02 -2.668983E+04 -2.299283E+04  1.735149E+04  3.090959E+04
       363  24 -1.032660E+05  4.814545E+03 -1.554731E+04 -1.730391E+04  2.888752E+03  2.552958E+04
       363  25 -6.521844E+05 -2.286020E+05 -2.048796E+05 -1.288148E+05  5.226295E+04  2.758410E+04
       363  26 -5.843518E+05 -1.801525E+05 -1.511756E+05 -1.530736E+05  2.238568E+04  3.281059E+04
       363  27 -5.535388E+05 -1.708715E+05 -1.301497E+05 -1.481609E+05 -2.072846E+03  2.365774E+04
       364   1  3.187814E+05  1.558332E+05  9.362328E+04  1.004672E+05 -2.399333E+03 -2.207885E+04
       364   2  2.898779E+05  1.394124E+05  9.030711E+04  8.182477E+04 -1.237671E+02 -1.997402E+04
       364   3  2.447844E+05  1.334623E+05  8.393241E+04  8.054000E+04  1.871058E+03 -1.712991E+04
       364   4 -1.013725E+05 -6.148656E+02 -1.247163E+04 -1.389092E+04 -1.892636E+03 -2.188861E+04
       364   5 -9.295739E+04 -3.947371E+03 -6.251897E+03 -2.326782E+04  8.962617E+02 -1.958953E+04
       364   6 -1.008366E+05  3.087991E+03 -3.499214E+03 -1.528658E+04  3.404510E+03 -1.655088E+04
       364   7 -5.213556E+05 -1.570525E+05 -1.185811E+05 -1.281798E+05 -1.386310E+03 -2.169851E+04
       364   8 -4.756502E+05 -1.472978E+05 -1.028228E+05 -1.283020E+05  1.915606E+03 -1.920530E+04
       364   9 -4.463408E+05 -1.272781E+05 -9.094043E+04 -1.110648E+05  4.937030E+03 -1.597221E+04
       364  10  3.187813E+05  1.558326E+05  9.362235E+04  1.004672E+05  8.615624E-10 -3.547167E-09
       364  11  2.898778E+05  1.394120E+05  9.030636E+04  8.182477E+04 -4.950719E-09 -2.879554E-09
       364  12  2.447843E+05  1.334620E+05  8.393186E+04  8.054003E+04 -5.934568E-09 -5.571321E-09
       364  13 -1.013726E+05 -6.153810E+02 -1.247254E+04 -1.389095E+04 -7.317627E-10  1.696125E-09
       364  14 -9.295749E+04 -3.947783E+03 -6.252619E+03 -2.326780E+04 -1.084548E-09 -5.953852E-09
       364  15 -1.008367E+05  3.087694E+03 -3.499751E+03 -1.528653E+04 -9.120809E-10 -2.467416E-09
       364  16 -5.213558E+05 -1.570530E+05 -1.185820E+05 -1.281799E+05 -2.777541E-09 -2.231033E-09
       364  17 -4.756503E+05 -1.472982E+05 -1.028235E+05 -1.283020E+05 -6.065234E-11 -2.877987E-09
       364  18 -4.463409E+05 -1.272784E+05 -9.094095E+04 -1.110647E+05  4.998405E-09  2.260355E-09
       364  19  3.187814E+05  1.558332E+05  9.362328E+04  1.004672E+05  2.399333E+03  2.207885E+04
       364  20  2.898779E+05  1.394124E+05  9.030711E+04  8.182477E+04  1.237671E+02  1.997402E+04
       364  21  2.447844E+05  1.334623E+05  8.393241E+04  8.054000E+04 -1.871058E+03  1.712991E+04
       364  22 -1.013725E+05 -6.148656E+02 -1.247163E+04 -1.389092E+04  1.892636E+03  2.188861E+04
       364  23 -9.295739E+04 -3.947371E+03 -6.251897E+03 -2.326782E+04 -8.962617E+02  1.958953E+04
       364  24 -1.008366E+05  3.087991E+03 -3.499214E+03 -1.528658E+04 -3.404510E+03  1.655088E+04
       364  25 -5.213556E+05 -1.570525E+05 -1.185811E+05 -1.281798E+05  1.386310E+03  2.169851E+04
       364  26 -4.756502E+05 -1.472978E+05 -1.028228E+05 -1.283020E+05 -1.915606E+03  1.920530E+04
       364  27 -4.463408E+05 -1.272781E+05 -9.094043E+04 -1.110648E+05 -4.937030E+03  1.597221E+04
       365   1  2.094034E+05  1.190486E+05  7.543879E+04  7.040700E+04  2.134471E+03 -1.564272E+04
       365   2  1.800810E+05  9.843007E+04  6.756768E+04  5.206606E+04  2.108370E+03 -1.349080E+04
       365   3  1.360943E+05  9.199630E+04  5.910974E+04  5.021594E+04  2.066494E+03 -1.130009E+04
       365   4 -1.006492E+05  2.681051E+03 -2.684026E+03 -1.500280E+04  3.439678E+03 -1.514973E+04
       365   5 -9.328892E+04 -4.258870E+03 -1.425456E+03 -2.330371E+04  3.440363E+03 -1.298734E+04
       365   6 -1.006002E+05  2.981029E+03 -7.752201E+02 -1.511360E+04  3.425314E+03 -1.078613E+04
       365   7 -4.106066E+05 -1.136795E+05 -8.081415E+04 -1.003737E+05  4.744168E+03 -1.465701E+04
       365   8 -3.665857E+05 -1.069428E+05 -7.042455E+04 -9.864343E+04  4.771715E+03 -1.248413E+04
       365   9 -3.372409E+05 -8.603081E+04 -6.066493E+04 -8.042084E+04  4.783571E+03 -1.027239E+04
       365  10  2.094034E+05  1.190483E+05  7.543832E+04  7.040702E+04 -2.290744E-09 -3.706629E-09
       365  11  1.800809E+05  9.842987E+04  6.756733E+04  5.206608E+04 -2.840339E-09  3.935165E-09
       365  12  1.360942E+05  9.199616E+04  5.910950E+04  5.021596E+04 -2.228266E-10 -1.428839E-10
       365  13 -1.006493E+05  2.680802E+03 -2.684480E+03 -1.500276E+04 -2.090925E-10  9.760025E-12
       365  14 -9.328898E+04 -4.259055E+03 -1.425795E+03 -2.330368E+04  2.291956E-09 -8.236459E-09
       365  15 -1.006003E+05  2.980901E+03 -7.754608E+02 -1.511357E+04 -4.226440E-10  3.713112E-09
       365  16 -4.106067E+05 -1.136798E+05 -8.081459E+04 -1.003736E+05  7.890222E-10  5.641469E-09
       365  17 -3.665858E+05 -1.069429E+05 -7.042488E+04 -9.864338E+04  2.419089E-09  9.366042E-09
       365  18 -3.372410E+05 -8.603093E+04 -6.066517E+04 -8.042080E+04 -1.044241E-09  3.645133E-09
       365  19  2.094034E+05  1.190486E+05  7.543879E+04  7.040700E+04 -2.134471E+03  1.564272E+04
       365  20  1.800810E+05  9.843007E+04  6.756768E+04  5.206606E+04 -2.108370E+03  1.349080E+04
       365  21  1.360943E+05  9.199630E+04  5.910974E+04  5.021594E+04 -2.066494E+03  1.130009E+04
       365  22 -1.006492E+05  2.681051E+03 -2.684026E+03 -1.500280E+04 -3.439678E+03  1.514973E+04
       365  23 -9.328892E+04 -4.258870E+03 -1.425456E+03 -2.330371E+04 -3.440363E+03  1.298734E+04
       365  24 -1.006002E+05  2.981029E+03 -7.752201E+02 -1.511360E+04 -3.425314E+03  1.078613E+04
       365  25 -4.106066E+05 -1.136795E+05 -8.081415E+04 -1.003737E+05 -4.744168E+03  1.465701E+04
       365  26 -3.665857E+05 -1.069428E+05 -7.042455E+04 -9.864343E+04 -4.771715E+03  1.248413E+04
       365  27 -3.372409E+05 -8.603081E+04 -6.066493E+04 -8.042084E+04 -4.783571E+03  1.027239E+04
       366   1  1.000818E+05  7.834839E+04  4.994019E+04  4.028276E+04  1.760324E+03 -1.012223E+04
       366   2  7.068559E+04  5.736249E+04  4.110688E+04  2.193753E+04  1.171002E+03 -8.132804E+03
       366   3  2.674495E+04  5.088339E+04  3.216375E+04  2.003695E+04  5.801409E+02 -6.140964E+03
       366   4 -1.005825E+05  2.956495E+03 -5.782027E+02 -1.508558E+04  3.107917E+03 -9.612340E+03
       366   5 -9.330521E+04 -4.279676E+03 -2.901798E+02 -2.331343E+04  2.520263E+03 -7.622083E+03
       366   6 -1.005744E+05  2.990568E+03 -1.133932E+02 -1.509706E+04  1.931077E+03 -5.629401E+03
       366   7 -3.012074E+05 -7.243265E+04 -5.109978E+04 -7.043770E+04  4.455033E+03 -9.102633E+03
       366   8 -2.572693E+05 -6.591989E+04 -4.168928E+04 -6.855348E+04  3.869131E+03 -7.111510E+03
       366   9 -2.278774E+05 -4.490096E+04 -3.239168E+04 -5.022440E+04  3.281704E+03 -5.117956E+03
       366  10  1.000817E+05  7.834828E+04  4.993999E+04  4.028278E+04  3.656653E-11  4.517075E-09
       366  11  7.068557E+04  5.736242E+04  4.110675E+04  2.193754E+04  2.373582E-09  1.981995E-09
       366  12  2.674494E+04  5.088335E+04  3.216367E+04  2.003696E+04  4.848854E-09  4.515127E-09
       366  13 -1.005826E+05  2.956393E+03 -5.783945E+02 -1.508556E+04  8.580321E-10  1.599186E-09
       366  14 -9.330523E+04 -4.279740E+03 -2.903009E+02 -2.331342E+04  2.891094E-09  7.552491E-09
       366  15 -1.005744E+05  2.990533E+03 -1.134598E+02 -1.509705E+04  6.948844E-10 -7.298296E-09
       366  16 -3.012074E+05 -7.243274E+04 -5.109997E+04 -7.043767E+04 -1.514484E-09  7.930621E-09
       366  17 -2.572694E+05 -6.591994E+04 -4.168941E+04 -6.855346E+04 -3.452852E-09 -2.850331E-09
       366  18 -2.278774E+05 -4.490099E+04 -3.239175E+04 -5.022439E+04 -3.863020E-09 -5.641660E-09
       366  19  1.000818E+05  7.834839E+04  4.994019E+04  4.028276E+04 -1.760324E+03  1.012223E+04
       366  20  7.068559E+04  5.736249E+04  4.110688E+04  2.193753E+04 -1.171002E+03  8.132804E+03
       366  21  2.674495E+04  5.088339E+04  3.216375E+04  2.003695E+04 -5.801409E+02  6.140964E+03
       366  22 -1.005825E+05  2.956495E+03 -5.782027E+02 -1.508558E+04 -3.107917E+03  9.612340E+03
       366  23 -9.330521E+04 -4.279676E+03 -2.901798E+02 -2.331343E+04 -2.520263E+03  7.622083E+03
       366  24 -1.005744E+05  2.990568E+03 -1.133932E+02 -1.509706E+04 -1.931077E+03  5.629401E+03
       366  25 -3.012074E+05 -7.243265E+04 -5.109978E+04 -7.043770E+04 -4.455033E+03  9.102633E+03
       366  26 -2.572693E+05 -6.591989E+04 -4.168928E+04 -6.855348E+04 -3.869131E+03  7.111510E+03
       366  27 -2.278774E+05 -4.490096E+04 -3.239168E+04 -5.022440E+04 -3.281704E+03  5.117956E+03
       367   1 -9.344225E+03  3.727075E+04  2.284949E+04  1.010154E+04  1.659436E+02 -5.007266E+03
       367   2 -3.875943E+04  1.623099E+04  1.385323E+04 -8.259313E+03 -6.088499E+02 -3.083817E+03
       367   3 -8.271216E+04  9.748070E+03  4.889244E+03 -1.017055E+04 -1.383500E+03 -1.161266E+03
       367   4 -1.005718E+05  2.991053E+03 -4.819908E+01 -1.509081E+04  1.516841E+03 -4.495628E+03
       367   5 -9.330124E+04 -4.280352E+03  8.242221E+01 -2.331802E+04  7.414177E+02 -2.572349E+03
       367   6 -1.005688E+05  3.005471E+03  2.460646E+02 -1.509586E+04 -3.386662E+01 -6.499647E+02
       367   7 -1.917916E+05 -3.128822E+04 -2.294664E+04 -4.027990E+04  2.867527E+03 -3.984071E+03
       367   8 -1.478403E+05 -2.479154E+04 -1.368865E+04 -3.837556E+04  2.091558E+03 -2.060929E+03
       367   9 -1.184251E+05 -3.737107E+03 -4.397134E+03 -2.002103E+04  1.315725E+03 -1.386792E+02
       367  10 -9.344232E+03  3.727073E+04  2.284944E+04  1.010154E+04  1.566983E-09 -2.994408E-09
       367  11 -3.875943E+04  1.623098E+04  1.385322E+04 -8.259315E+03  1.408072E-09  2.704674E-10
       367  12 -8.271216E+04  9.748068E+03  4.889238E+03 -1.017056E+04  1.641792E-09 -6.071821E-09
       367  13 -1.005718E+05  2.991031E+03 -4.824138E+01 -1.509080E+04  1.674423E-09 -6.917525E-09
       367  14 -9.330124E+04 -4.280359E+03  8.240874E+01 -2.331802E+04  8.669614E-10 -2.111905E-09
       367  15 -1.005688E+05  3.005470E+03  2.460638E+02 -1.509586E+04  4.075176E-10  3.537202E-09
       367  16 -1.917916E+05 -3.128824E+04 -2.294668E+04 -4.027989E+04  3.948226E-09 -7.729440E-09
       367  17 -1.478403E+05 -2.479154E+04 -1.368867E+04 -3.837556E+04  2.527781E-09 -3.758673E-09
       367  18 -1.184251E+05 -3.737108E+03 -4.397138E+03 -2.002103E+04  9.239803E-10 -5.504680E-09
       367  19 -9.344225E+03  3.727075E+04  2.284949E+04  1.010154E+04 -1.659436E+02  5.007266E+03
       367  20 -3.875943E+04  1.623099E+04  1.385323E+04 -8.259313E+03  6.088499E+02  3.083817E+03
       367  21 -8.271216E+04  9.748070E+03  4.889244E+03 -1.017055E+04  1.383500E+03  1.161266E+03
       367  22 -1.005718E+05  2.991053E+03 -4.819908E+01 -1.509081E+04 -1.516841E+03  4.495628E+03
       367  23 -9.330124E+04 -4.280352E+03  8.242221E+01 -2.331802E+04 -7.414177E+02  2.572349E+03
       367  24 -1.005688E+05  3.005471E+03  2.460646E+02 -1.509586E+04  3.386662E+01  6.499647E+02
       367  25 -1.917916E+05 -3.128822E+04 -2.294664E+04 -4.027990E+04 -2.867527E+03  3.984071E+03
       367  26 -1.478403E+05 -2.479154E+04 -1.368865E+04 -3.837556E+04 -2.091558E+03  2.060929E+03
       367  27 -1.184251E+05 -3.737107E+03 -4.397134E+03 -2.002103E+04 -1.315725E+03  1.386792E+02
       368   1 -1.188141E+05 -3.867370E+03 -4.389395E+03 -2.008518E+04 -1.868089E+03 -5.093572E+01
       368   2 -1.482481E+05 -2.494201E+04 -1.320007E+04 -3.847230E+04 -2.920475E+03  1.764500E+03
       368   3 -1.921269E+05 -3.131544E+04 -2.173231E+04 -4.043477E+04 -3.963903E+03  3.556993E+03
       368   4 -1.005541E+05  2.992254E+03  3.494062E+02 -1.508410E+04 -5.114849E+02  4.630048E+02
       368   5 -9.332431E+04 -4.297188E+03  6.670531E+02 -2.332007E+04 -1.579954E+03  2.272273E+03
       368   6 -1.005373E+05  3.117546E+03  1.275952E+03 -1.513209E+04 -2.639490E+03  4.058601E+03
       368   7 -8.229392E+04  9.851873E+03  5.088168E+03 -1.008291E+04  8.451573E+02  9.769597E+02
       368   8 -3.839759E+04  1.634785E+04  1.453394E+04 -8.166638E+03 -2.393027E+02  2.780095E+03
       368   9 -8.939166E+03  3.755125E+04  2.428366E+04  1.017407E+04 -1.314858E+03  4.560292E+03
       368  10 -1.188141E+05 -3.867370E+03 -4.389402E+03 -2.008518E+04  2.002308E-09 -1.622861E-09
       368  11 -1.482481E+05 -2.494202E+04 -1.320009E+04 -3.847229E+04 -1.441915E-09  2.008877E-10
       368  12 -1.921269E+05 -3.131546E+04 -2.173237E+04 -4.043476E+04 -3.346906E-09  1.493670E-10
       368  13 -1.005541E+05  2.992254E+03  3.494053E+02 -1.508410E+04  2.860946E-10 -2.887106E-09
       368  14 -9.332431E+04 -4.297194E+03  6.670387E+02 -2.332007E+04 -9.454426E-10  5.129742E-10
       368  15 -1.005373E+05  3.117527E+03  1.275908E+03 -1.513208E+04 -1.979438E-10 -1.931153E-09
       368  16 -8.229392E+04  9.851872E+03  5.088164E+03 -1.008291E+04 -1.002497E-09 -2.203317E-09
       368  17 -3.839759E+04  1.634784E+04  1.453393E+04 -8.166638E+03  1.226542E-09  3.185899E-09
       368  18 -8.939173E+03  3.755122E+04  2.428362E+04  1.017408E+04 -6.185655E-10  7.627860E-10
       368  19 -1.188141E+05 -3.867370E+03 -4.389395E+03 -2.008518E+04  1.868089E+03  5.093572E+01
       368  20 -1.482481E+05 -2.494201E+04 -1.320007E+04 -3.847230E+04  2.920475E+03 -1.764500E+03
       368  21 -1.921269E+05 -3.131544E+04 -2.173231E+04 -4.043477E+04  3.963903E+03 -3.556993E+03
       368  22 -1.005541E+05  2.992254E+03  3.494062E+02 -1.508410E+04  5.114849E+02 -4.630048E+02
       368  23 -9.332431E+04 -4.297188E+03  6.670531E+02 -2.332007E+04  1.579954E+03 -2.272273E+03
       368  24 -1.005373E+05  3.117546E+03  1.275952E+03 -1.513209E+04  2.639490E+03 -4.058601E+03
       368  25 -8.229392E+04  9.851873E+03  5.088168E+03 -1.008291E+04 -8.451573E+02 -9.769597E+02
       368  26 -3.839759E+04  1.634785E+04  1.453394E+04 -8.166638E+03  2.393027E+02 -2.780095E+03
       368  27 -8.939166E+03  3.755125E+04  2.428366E+04  1.017407E+04  1.314858E+03 -4.560292E+03
       369   1 -2.283315E+05 -4.490616E+04 -3.069202E+04 -4.999956E+04 -4.784642E+03  4.597757E+03
       369   2 -2.577475E+05 -6.634090E+04 -3.853020E+04 -6.878078E+04 -6.710389E+03  6.014712E+03
       369   3 -3.007913E+05 -7.135173E+04 -4.494187E+04 -7.158010E+04 -8.467341E+03  6.987750E+03
       369   4 -1.004306E+05  2.915635E+03  1.670548E+03 -1.500517E+04 -3.322992E+03  5.151257E+03
       369   5 -9.352356E+04 -4.458017E+03  2.978465E+03 -2.332518E+04 -5.558410E+03  6.450731E+03
       369   6 -1.001845E+05  4.652846E+03  5.958201E+03 -1.566416E+04 -7.625130E+03  7.306322E+03
       369   7  2.748620E+04  5.073848E+04  3.403181E+04  1.999573E+04 -1.861011E+03  5.704881E+03
       369   8  7.072640E+04  5.742659E+04  4.448488E+04  2.214122E+04 -4.406100E+03  6.886876E+03
       369   9  1.004609E+05  8.065998E+04  5.685481E+04  4.026798E+04 -6.782623E+03  7.625007E+03
       369  10 -2.283315E+05 -4.490619E+04 -3.069211E+04 -4.999954E+04  3.711020E-09  3.702302E-11
       369  11 -2.577475E+05 -6.634095E+04 -3.853035E+04 -6.878075E+04 -5.981977E-09  9.222185E-10
       369  12 -3.007914E+05 -7.135180E+04 -4.494210E+04 -7.158005E+04 -9.356828E-09  1.113747E-09
       369  13 -1.004306E+05  2.915604E+03  1.670477E+03 -1.500515E+04 -1.215000E-09  3.925445E-09
       369  14 -9.352361E+04 -4.458070E+03  2.978329E+03 -2.332516E+04  1.938020E-09  1.193424E-09
       369  15 -1.001845E+05  4.652773E+03  5.957992E+03 -1.566412E+04 -2.563217E-10 -3.509721E-09
       369  16  2.748619E+04  5.073844E+04  3.403174E+04  1.999574E+04 -3.159772E-09  8.308680E-09
       369  17  7.072637E+04  5.742653E+04  4.448475E+04  2.214125E+04  5.130083E-09  7.110702E-09
       369  18  1.004608E+05  8.065990E+04  5.685461E+04  4.026802E+04  7.118436E-09  2.373464E-09
       369  19 -2.283315E+05 -4.490616E+04 -3.069202E+04 -4.999956E+04  4.784642E+03 -4.597757E+03
       369  20 -2.577475E+05 -6.634090E+04 -3.853020E+04 -6.878078E+04  6.710389E+03 -6.014712E+03
       369  21 -3.007913E+05 -7.135173E+04 -4.494187E+04 -7.158010E+04  8.467341E+03 -6.987750E+03
       369  22 -1.004306E+05  2.915635E+03  1.670548E+03 -1.500517E+04  3.322992E+03 -5.151257E+03
       369  23 -9.352356E+04 -4.458017E+03  2.978465E+03 -2.332518E+04  5.558410E+03 -6.450731E+03
       369  24 -1.001845E+05  4.652846E+03  5.958201E+03 -1.566416E+04  7.625130E+03 -7.306322E+03
       369  25  2.748620E+04  5.073848E+04  3.403181E+04  1.999573E+04  1.861011E+03 -5.704881E+03
       369  26  7.072640E+04  5.742659E+04  4.448488E+04  2.214122E+04  4.406100E+03 -6.886876E+03
       369  27  1.004609E+05  8.065998E+04  5.685481E+04  4.026798E+04  6.782623E+03 -7.625007E+03
       370   1 -3.387388E+05 -8.479019E+04 -5.233244E+04 -7.687585E+04 -1.296046E+04  7.769347E+03
       370   2 -3.668752E+05 -1.109774E+05 -5.663209E+04 -1.009623E+05 -1.410918E+04  8.179682E+03
       370   3 -4.002712E+05 -9.957880E+04 -5.384546E+04 -1.152098E+05 -1.198989E+04 -5.038652E+01
       370   4 -9.917331E+04  1.959908E+03  7.432095E+03 -1.413840E+04 -9.439535E+03  9.101684E+03
       370   5 -9.552849E+04 -6.166047E+03  1.273783E+04 -2.331828E+04 -1.660651E+04  7.234336E+03
       370   6 -9.595414E+04  2.448061E+04  2.990064E+04 -2.265859E+04 -2.050642E+04 -3.271627E+03
       370   7  1.404497E+05  8.871339E+04  6.719260E+04  4.862092E+04 -5.917101E+03  1.043455E+04
       370   8  1.758900E+05  9.865118E+04  8.210168E+04  5.435680E+04 -1.910504E+04  6.288511E+03
       370   9  2.084500E+05  1.485488E+05  1.136378E+05  6.993427E+04 -2.902748E+04 -6.494884E+03
       370  10 -3.387390E+05 -8.479030E+04 -5.233287E+04 -7.687577E+04  4.654997E-09  2.423968E-09
       370  11 -3.668754E+05 -1.109775E+05 -5.663259E+04 -1.009622E+05  5.075625E-09  2.876122E-10
       370  12 -4.002713E+05 -9.957884E+04 -5.384573E+04 -1.152098E+05 -1.361434E-09 -5.299282E-09
       370  13 -9.917342E+04  1.959795E+03  7.431772E+03 -1.413833E+04 -3.414724E-09 -9.136996E-09
       370  14 -9.552880E+04 -6.166177E+03  1.273721E+04 -2.331818E+04 -1.535561E-09  4.500182E-09
       370  15 -9.595459E+04  2.448049E+04  2.989983E+04 -2.265865E+04  4.350668E-10  1.424042E-09
       370  16  1.404497E+05  8.871326E+04  6.719233E+04  4.862097E+04 -9.278117E-09  4.086615E-09
       370  17  1.758896E+05  9.865104E+04  8.210092E+04  5.435690E+04 -4.638314E-09  4.662843E-10
       370  18  2.084491E+05  1.485485E+05  1.136362E+05  6.993411E+04 -8.806947E-10  1.785614E-09
       370  19 -3.387388E+05 -8.479019E+04 -5.233244E+04 -7.687585E+04  1.296046E+04 -7.769347E+03
       370  20 -3.668752E+05 -1.109774E+05 -5.663209E+04 -1.009623E+05  1.410918E+04 -8.179682E+03
       370  21 -4.002712E+05 -9.957880E+04 -5.384546E+04 -1.152098E+05  1.198989E+04  5.038652E+01
       370  22 -9.917331E+04  1.959908E+03  7.432095E+03 -1.413840E+04  9.439535E+03 -9.101684E+03
       370  23 -9.552849E+04 -6.166047E+03  1.273783E+04 -2.331828E+04  1.660651E+04 -7.234336E+03
       370  24 -9.595414E+04  2.448061E+04  2.990064E+04 -2.265859E+04  2.050642E+04  3.271627E+03
       370  25  1.404497E+05  8.871339E+04  6.719260E+04  4.862092E+04  5.917101E+03 -1.043455E+04
       370  26  1.758900E+05  9.865118E+04  8.210168E+04  5.435680E+04  1.910504E+04 -6.288511E+03
       370  27  2.084500E+05  1.485488E+05  1.136378E+05  6.993427E+04  2.902748E+04  6.494884E+03
       371   1  8.437718E+04  4.396967E+04  2.634344E+04 -6.681861E+03 -4.494809E+04 -5.644061E+03
       371   2  5.584713E+04  1.060558E+05  5.752922E+04  3.149203E+03 -3.331065E+04 -1.714000E+04
       371   3  7.845264E+03  9.649182E+04  6.324200E+04  3.198010E+04 -2.170771E+04 -1.711545E+04
       371   4 -3.688550E+05 -6.861894E+04 -8.426942E+04  2.112874E+04 -5.778336E+04 -5.683657E+03
       371   5 -3.583570E+05  4.207581E+03 -3.777226E+04  1.151942E+04 -3.758657E+04 -1.715439E+04
       371   6 -3.688336E+05  3.870193E+03 -2.270737E+04  2.091140E+04 -1.742322E+04 -1.710194E+04
       371   7 -8.218977E+05 -1.812196E+05 -1.948962E+05  4.891885E+04 -7.060926E+04 -5.724418E+03
       371   8 -7.724022E+05 -9.765231E+04 -1.330850E+05  1.988389E+04 -4.185965E+04 -1.716891E+04
       371   9 -7.453807E+05 -8.876084E+04 -1.086659E+05  9.849365E+03 -1.314130E+04 -1.708858E+04
       371  10  8.437500E+04  4.396909E+04  2.633959E+04 -6.682065E+03 -5.483833E-09  3.590284E-10
       371  11  5.584586E+04  1.060552E+05  5.752658E+04  3.148743E+03 -1.036434E-09  8.894701E-09
       371  12  7.844679E+03  9.649138E+04  6.324057E+04  3.197980E+04  4.392603E-09  9.800959E-10
       371  13 -3.688586E+05 -6.861987E+04 -8.427575E+04  2.112847E+04  2.618983E-10 -7.229926E-09
       371  14 -3.583586E+05  4.206885E+03 -3.777547E+04  1.151890E+04 -1.255397E-09 -8.842659E-09
       371  15 -3.688340E+05  3.869798E+03 -2.270849E+04  2.091116E+04 -5.782703E-10  1.327049E-09
       371  16 -8.219031E+05 -1.812210E+05 -1.949056E+05  4.891853E+04  5.977624E-09  4.384871E-10
       371  17 -7.724042E+05 -9.765310E+04 -1.330888E+05  1.988331E+04 -4.288133E-10  9.340160E-09
       371  18 -7.453809E+05 -8.876120E+04 -1.086668E+05  9.849184E+03 -3.818685E-09 -2.174110E-09
       371  19  8.437718E+04  4.396967E+04  2.634344E+04 -6.681861E+03  4.494809E+04  5.644061E+03
       371  20  5.584713E+04  1.060558E+05  5.752922E+04  3.149203E+03  3.331065E+04  1.714000E+04
       371  21  7.845264E+03  9.649182E+04  6.324200E+04  3.198010E+04  2.170771E+04  1.711545E+04
       371  22 -3.688550E+05 -6.861894E+04 -8.426942E+04  2.112874E+04  5.778336E+04  5.683657E+03
       371  23 -3.583570E+05  4.207581E+03 -3.777226E+04  1.151942E+04  3.758657E+04  1.715439E+04
       371  24 -3.688336E+05  3.870193E+03 -2.270737E+04  2.091140E+04  1.742322E+04  1.710194E+04
       371  25 -8.218977E+05 -1.812196E+05 -1.948962E+05  4.891885E+04  7.060926E+04  5.724418E+03
       371  26 -7.724022E+05 -9.765231E+04 -1.330850E+05  1.988389E+04  4.185965E+04  1.716891E+04
       371  27 -7.453807E+05 -8.876084E+04 -1.086659E+05  9.849365E+03  1.314130E+04  1.708858E+04
       372   1 -2.375788E+04  7.898743E+04  5.989892E+04  2.023907E+04 -1.484497E+04 -1.466483E+04
       372   2 -6.109525E+04  7.478751E+04  5.950086E+04  1.171896E+04 -1.037069E+04 -1.337095E+04
       372   3 -1.004306E+05  6.539056E+04  5.486557E+04  2.262676E+04 -5.899426E+03 -1.151807E+04
       372   4 -3.646298E+05 -4.821434E+03 -1.825548E+04  2.107962E+04 -1.409618E+04 -1.466294E+04
       372   5 -3.635893E+05  4.392566E+02 -9.680622E+03  1.135640E+04 -9.208481E+03 -1.336741E+04
       372   6 -3.646218E+05  4.294304E+02 -5.632077E+03  2.106177E+04 -4.323534E+03 -1.151278E+04
       372   7 -7.053941E+05 -8.863839E+04 -9.641754E+04  2.191962E+04 -1.334779E+04 -1.466105E+04
       372   8 -6.659985E+05 -7.391536E+04 -7.886810E+04  1.099395E+04 -8.046830E+03 -1.336388E+04
       372   9 -6.287483E+05 -6.453655E+04 -6.613430E+04  1.949740E+04 -2.748306E+03 -1.150749E+04
       372  10 -2.375817E+04  7.898714E+04  5.989810E+04  2.023890E+04  7.317963E-09 -4.181424E-09
       372  11 -6.109542E+04  7.478729E+04  5.950032E+04  1.171885E+04  6.910946E-11  4.873692E-10
       372  12 -1.004307E+05  6.539041E+04  5.486526E+04  2.262670E+04 -3.883073E-09  7.379468E-09
       372  13 -3.646301E+05 -4.821718E+03 -1.825626E+04  2.107946E+04 -2.552583E-10  8.979906E-09
       372  14 -3.635894E+05  4.390420E+02 -9.681117E+03  1.135630E+04 -8.817494E-10 -2.194738E-08
       372  15 -3.646219E+05  4.292831E+02 -5.632361E+03  2.106173E+04 -9.085314E-10  4.886184E-09
       372  16 -7.053944E+05 -8.863867E+04 -9.641828E+04  2.191946E+04 -6.035605E-09 -1.037222E-08
       372  17 -6.659986E+05 -7.391557E+04 -7.886856E+04  1.099386E+04 -1.420416E-09 -6.175110E-09
       372  18 -6.287483E+05 -6.453669E+04 -6.613457E+04  1.949738E+04  4.074329E-09 -1.133363E-09
       372  19 -2.375788E+04  7.898743E+04  5.989892E+04  2.023907E+04  1.484497E+04  1.466483E+04
       372  20 -6.109525E+04  7.478751E+04  5.950086E+04  1.171896E+04  1.037069E+04  1.337095E+04
       372  21 -1.004306E+05  6.539056E+04  5.486557E+04  2.262676E+04  5.899426E+03  1.151807E+04
       372  22 -3.646298E+05 -4.821434E+03 -1.825548E+04  2.107962E+04  1.409618E+04  1.466294E+04
       372  23 -3.635893E+05  4.392566E+02 -9.680622E+03  1.135640E+04  9.208481E+03  1.336741E+04
       372  24 -3.646218E+05  4.294304E+02 -5.632077E+03  2.106177E+04  4.323534E+03  1.151278E+04
       372  25 -7.053941E+05 -8.863839E+04 -9.641754E+04  2.191962E+04  1.334779E+04  1.466105E+04
       372  26 -6.659985E+05 -7.391536E+04 -7.886810E+04  1.099395E+04  8.046830E+03  1.336388E+04
       372  27 -6.287483E+05 -6.453655E+04 -6.613430E+04  1.949740E+04  2.748306E+03  1.150749E+04
       373   1 -1.359697E+05  5.589958E+04  4.774280E+04  2.169807E+04 -4.857927E+03 -1.032568E+04
       373   2 -1.743002E+05  4.676607E+04  4.093551E+04  1.188261E+04 -3.669809E+03 -8.415355E+03
       373   3 -2.130089E+05  3.738072E+04  3.325523E+04  2.161173E+04 -2.482412E+03 -6.475609E+03
       373   4 -3.642420E+05 -1.879143E+02 -4.348369E+03  2.109361E+04 -3.450231E+03 -1.032084E+04
       373   5 -3.640485E+05  1.263310E+02 -2.446432E+03  1.132045E+04 -2.240666E+03 -8.410245E+03
       373   6 -3.642377E+05  1.851330E+02 -1.432458E+03  2.109223E+04 -1.031751E+03 -6.470225E+03
       373   7 -5.924661E+05 -5.627902E+04 -5.644293E+04  2.048933E+04 -2.043048E+03 -1.031599E+04
       373   8 -5.537633E+05 -4.651591E+04 -4.583073E+04  1.075842E+04 -8.119570E+02 -8.405136E+03
       373   9 -5.154454E+05 -3.701205E+04 -3.612164E+04  2.057283E+04  4.185605E+02 -6.464843E+03
       373  10 -1.359697E+05  5.589946E+04  4.774255E+04  2.169803E+04  1.125138E-08 -6.462254E-09
       373  11 -1.743002E+05  4.676599E+04  4.093536E+04  1.188259E+04  9.817898E-10 -2.105424E-09
       373  12 -2.130089E+05  3.738067E+04  3.325514E+04  2.161172E+04 -1.010888E-08 -4.188358E-09
       373  13 -3.642421E+05 -1.880319E+02 -4.348591E+03  2.109358E+04 -2.147212E-09 -4.143548E-09
       373  14 -3.640485E+05  1.262537E+02 -2.446574E+03  1.132043E+04 -2.159066E-09 -5.061843E-09
       373  15 -3.642378E+05  1.850878E+02 -1.432539E+03  2.109222E+04 -6.681297E-10 -2.684057E-09
       373  16 -5.924661E+05 -5.627914E+04 -5.644314E+04  2.048932E+04 -1.105723E-08 -8.699127E-09
       373  17 -5.537634E+05 -4.651598E+04 -4.583086E+04  1.075842E+04 -2.329834E-09  9.138966E-10
       373  18 -5.154454E+05 -3.701209E+04 -3.612172E+04  2.057283E+04  1.052808E-08  1.090821E-08
       373  19 -1.359697E+05  5.589958E+04  4.774280E+04  2.169807E+04  4.857927E+03  1.032568E+04
       373  20 -1.743002E+05  4.676607E+04  4.093551E+04  1.188261E+04  3.669809E+03  8.415355E+03
       373  21 -2.130089E+05  3.738072E+04  3.325523E+04  2.161173E+04  2.482412E+03  6.475609E+03
       373  22 -3.642420E+05 -1.879143E+02 -4.348369E+03  2.109361E+04  3.450231E+03  1.032084E+04
       373  23 -3.640485E+05  1.263310E+02 -2.446432E+03  1.132045E+04  2.240666E+03  8.410245E+03
       373  24 -3.642377E+05  1.851330E+02 -1.432458E+03  2.109223E+04  1.031751E+03  6.470225E+03
       373  25 -5.924661E+05 -5.627902E+04 -5.644293E+04  2.048933E+04  2.043048E+03  1.031599E+04
       373  26 -5.537633E+05 -4.651591E+04 -4.583073E+04  1.075842E+04  8.119570E+02  8.405136E+03
       373  27 -5.154454E+05 -3.701205E+04 -3.612164E+04  2.057283E+04 -4.185605E+02  6.464843E+03
       374   1 -2.490219E+05  2.843326E+04  2.510790E+04  2.145853E+04 -2.250969E+03 -5.341352E+03
       374   2 -2.875487E+05  1.891568E+04  1.681045E+04  1.154194E+04 -1.918104E+03 -3.397982E+03
       374   3 -3.262727E+05  9.515458E+03  8.283946E+03  2.122391E+04 -1.585496E+03 -1.452314E+03
       374   4 -3.641945E+05  1.452276E+02 -1.112292E+03  2.110463E+04 -8.072868E+02 -5.335909E+03
       374   5 -3.640942E+05  9.966350E+01 -6.907551E+02  1.130523E+04 -4.728093E+02 -3.392458E+03
       374   6 -3.641928E+05  1.712688E+02 -4.993697E+02  2.110452E+04 -1.385690E+02 -1.446704E+03
       374   7 -4.793548E+05 -2.814372E+04 -2.733334E+04  2.075079E+04  6.361301E+02 -5.330466E+03
       374   8 -4.406343E+05 -1.871676E+04 -1.819234E+04  1.106854E+04  9.723082E+02 -3.386935E+03
       374   9 -4.021116E+05 -9.173020E+03 -9.282774E+03  2.098515E+04  1.308270E+03 -1.441095E+03
       374  10 -2.490219E+05  2.843323E+04  2.510784E+04  2.145852E+04  2.474939E-09 -1.211064E-08
       374  11 -2.875487E+05  1.891566E+04  1.681042E+04  1.154193E+04 -5.131096E-09 -2.429026E-10
       374  12 -3.262727E+05  9.515455E+03  8.283937E+03  2.122391E+04 -9.743982E-09 -5.824283E-10
       374  13 -3.641945E+05  1.451969E+02 -1.112347E+03  2.110463E+04 -2.061516E-13  3.336049E-09
       374  14 -3.640943E+05  9.965109E+01 -6.907772E+02  1.130522E+04 -1.009583E-09 -1.200774E-08
       374  15 -3.641928E+05  1.712666E+02 -4.993737E+02  2.110452E+04  8.044482E-11 -3.904948E-09
       374  16 -4.793548E+05 -2.814375E+04 -2.733339E+04  2.075079E+04 -2.262435E-09  2.404246E-09
       374  17 -4.406343E+05 -1.871677E+04 -1.819236E+04  1.106854E+04  3.554225E-09  9.968855E-09
       374  18 -4.021116E+05 -9.173023E+03 -9.282781E+03  2.098515E+04  1.116614E-08  2.705957E-11
       374  19 -2.490219E+05  2.843326E+04  2.510790E+04  2.145853E+04  2.250969E+03  5.341352E+03
       374  20 -2.875487E+05  1.891568E+04  1.681045E+04  1.154194E+04  1.918104E+03  3.397982E+03
       374  21 -3.262727E+05  9.515458E+03  8.283946E+03  2.122391E+04  1.585496E+03  1.452314E+03
       374  22 -3.641945E+05  1.452276E+02 -1.112292E+03  2.110463E+04  8.072868E+02  5.335909E+03
       374  23 -3.640942E+05  9.966350E+01 -6.907551E+02  1.130523E+04  4.728093E+02  3.392458E+03
       374  24 -3.641928E+05  1.712688E+02 -4.993697E+02  2.110452E+04  1.385690E+02  1.446704E+03
       374  25 -4.793548E+05 -2.814372E+04 -2.733334E+04  2.075079E+04 -6.361301E+02  5.330466E+03
       374  26 -4.406343E+05 -1.871676E+04 -1.819234E+04  1.106854E+04 -9.723082E+02  3.386935E+03
       374  27 -4.021116E+05 -9.173020E+03 -9.282774E+03  2.098515E+04 -1.308270E+03  1.441095E+03
       375   1 -3.623802E+05  5.928964E+02 -1.640706E+02  2.111199E+04 -1.502849E+03 -3.194520E+02
       375   2 -4.009260E+05 -8.955124E+03 -8.923656E+03  1.119037E+04 -1.260535E+03  1.626536E+03
       375   3 -4.396572E+05 -1.837418E+04 -1.785123E+04  2.087597E+04 -1.018125E+03  3.570888E+03
       375   4 -3.641899E+05  1.706414E+02 -4.647832E+02  2.110641E+04 -5.579922E+01 -3.138291E+02
       375   5 -3.640967E+05  9.867453E+01 -5.024778E+02  1.130287E+04  1.852553E+02  1.632114E+03
       375   6 -3.641907E+05  1.558435E+02 -7.073667E+02  2.110646E+04  4.264223E+02  3.576427E+03
       375   7 -3.659995E+05 -2.516126E+02 -7.654880E+02  2.110083E+04  1.391246E+03 -3.082062E+02
       375   8 -3.272661E+05  9.152379E+03  7.918620E+03  1.141537E+04  1.631131E+03  1.637692E+03
       375   9 -2.887189E+05  1.868547E+04  1.643614E+04  2.133698E+04  1.871144E+03  3.581967E+03
       375  10 -3.623802E+05  5.928957E+02 -1.640750E+02  2.111199E+04 -2.932566E-09  1.910776E-09
       375  11 -4.009260E+05 -8.955127E+03 -8.923664E+03  1.119038E+04 -3.544032E-09 -9.009245E-09
       375  12 -4.396572E+05 -1.837419E+04 -1.785126E+04  2.087597E+04 -6.752720E-09 -5.058517E-09
       375  13 -3.641899E+05  1.706413E+02 -4.647834E+02  2.110641E+04  2.562433E-10  1.128410E-08
       375  14 -3.640967E+05  9.867166E+01 -5.024828E+02  1.130287E+04  6.066313E-11 -4.933309E-09
       375  15 -3.641907E+05  1.558297E+02 -7.073911E+02  2.110646E+04  3.079676E-10 -1.159710E-08
       375  16 -3.659995E+05 -2.516133E+02 -7.654918E+02  2.110083E+04  4.540074E-09 -4.161757E-10
       375  17 -3.272662E+05  9.152376E+03  7.918610E+03  1.141537E+04  1.881221E-09 -1.547362E-08
       375  18 -2.887189E+05  1.868546E+04  1.643611E+04  2.133697E+04  8.647292E-09 -1.176896E-08
       375  19 -3.623802E+05  5.928964E+02 -1.640706E+02  2.111199E+04  1.502849E+03  3.194520E+02
       375  20 -4.009260E+05 -8.955124E+03 -8.923656E+03  1.119037E+04  1.260535E+03 -1.626536E+03
       375  21 -4.396572E+05 -1.837418E+04 -1.785123E+04  2.087597E+04  1.018125E+03 -3.570888E+03
       375  22 -3.641899E+05  1.706414E+02 -4.647832E+02  2.110641E+04  5.579922E+01  3.138291E+02
       375  23 -3.640967E+05  9.867453E+01 -5.024778E+02  1.130287E+04 -1.852553E+02 -1.632114E+03
       375  24 -3.641907E+05  1.558435E+02 -7.073667E+02  2.110646E+04 -4.264223E+02 -3.576427E+03
       375  25 -3.659995E+05 -2.516126E+02 -7.654880E+02  2.110083E+04 -1.391246E+03  3.082062E+02
       375  26 -3.272661E+05  9.152379E+03  7.918620E+03  1.141537E+04 -1.631131E+03 -1.637692E+03
       375  27 -2.887189E+05  1.868547E+04  1.643614E+04  2.133698E+04 -1.871144E+03 -3.581967E+03
       376   1 -4.757603E+05 -2.726610E+04 -2.650007E+04  2.072477E+04 -8.862326E+02  4.705637E+03
       376   2 -5.141759E+05 -3.679034E+04 -3.578152E+04  1.087083E+04 -1.500579E+02  6.646698E+03
       376   3 -5.528812E+05 -4.640634E+04 -4.560460E+04  2.058322E+04  5.866262E+02  8.561141E+03
       376   4 -3.642145E+05  1.793847E+02 -8.809256E+02  2.109706E+04  5.648995E+02  4.711141E+03
       376   5 -3.640726E+05  1.123372E+02 -1.456339E+03  1.131445E+04  1.281411E+03  6.651974E+03
       376   6 -3.642179E+05 -4.275825E+01 -2.559399E+03  2.109789E+04  1.998477E+03  8.566197E+03
       376   7 -2.526573E+05  2.762401E+04  2.473740E+04  2.146940E+04  2.016290E+03  4.716646E+03
       376   8 -2.139485E+05  3.701345E+04  3.286737E+04  1.175817E+04  2.713223E+03  6.657251E+03
       376   9 -1.755215E+05  4.631835E+04  4.048349E+04  2.161269E+04  3.410754E+03  8.571255E+03
       376  10 -4.757603E+05 -2.726613E+04 -2.650011E+04  2.072478E+04 -1.130291E-08 -2.307805E-09
       376  11 -5.141759E+05 -3.679039E+04 -3.578160E+04  1.087083E+04 -2.613825E-09 -1.031234E-08
       376  12 -5.528812E+05 -4.640642E+04 -4.560474E+04  2.058322E+04  4.817396E-09 -2.347591E-09
       376  13 -3.642145E+05  1.793608E+02 -8.809679E+02  2.109706E+04  1.098105E-09 -2.294734E-09
       376  14 -3.640727E+05  1.122892E+02 -1.456426E+03  1.131445E+04 -4.752472E-10 -7.381301E-10
       376  15 -3.642179E+05 -4.283811E+01 -2.559545E+03  2.109788E+04 -5.013631E-10  3.392182E-09
       376  16 -2.526573E+05  2.762398E+04  2.473735E+04  2.146939E+04  1.244267E-08  3.666797E-09
       376  17 -2.139486E+05  3.701340E+04  3.286727E+04  1.175815E+04  2.357856E-09 -5.029865E-09
       376  18 -1.755215E+05  4.631827E+04  4.048333E+04  2.161267E+04 -3.187289E-09  4.221355E-09
       376  19 -4.757603E+05 -2.726610E+04 -2.650007E+04  2.072477E+04  8.862326E+02 -4.705637E+03
       376  20 -5.141759E+05 -3.679034E+04 -3.578152E+04  1.087083E+04  1.500579E+02 -6.646698E+03
       376  21 -5.528812E+05 -4.640634E+04 -4.560460E+04  2.058322E+04 -5.866262E+02 -8.561141E+03
       376  22 -3.642145E+05  1.793847E+02 -8.809256E+02  2.109706E+04 -5.648995E+02 -4.711141E+03
       376  23 -3.640726E+05  1.123372E+02 -1.456339E+03  1.131445E+04 -1.281411E+03 -6.651974E+03
       376  24 -3.642179E+05 -4.275825E+01 -2.559399E+03  2.109789E+04 -1.998477E+03 -8.566197E+03
       376  25 -2.526573E+05  2.762401E+04  2.473740E+04  2.146940E+04 -2.016290E+03 -4.716646E+03
       376  26 -2.139485E+05  3.701345E+04  3.286737E+04  1.175817E+04 -2.713223E+03 -6.657251E+03
       376  27 -1.755215E+05  4.631835E+04  4.048349E+04  2.161269E+04 -3.410754E+03 -8.571255E+03
       377   1 -5.890667E+05 -5.493215E+04 -5.477593E+04  1.995413E+04  9.439425E+02  9.748132E+03
       377   2 -6.268011E+05 -6.437203E+04 -6.584304E+04  1.088863E+04  4.183649E+03  1.160935E+04
       377   3 -6.658656E+05 -7.690375E+04 -7.982487E+04  2.129374E+04  7.425646E+03  1.295833E+04
       377   4 -3.644387E+05  3.187076E+02 -3.306936E+03  2.107297E+04  2.509928E+03  9.753620E+03
       377   5 -3.638095E+05  2.907166E+02 -5.673661E+03  1.134330E+04  5.369907E+03  1.161321E+04
       377   6 -3.644452E+05 -2.762206E+03 -1.069029E+04  2.108378E+04  8.232375E+03  1.296066E+04
       377   7 -1.397639E+05  5.556605E+04  4.815875E+04  2.219218E+04  4.076476E+03  9.759113E+03
       377   8 -1.007538E+05  6.494866E+04  5.449118E+04  1.179811E+04  6.556664E+03  1.161707E+04
       377   9 -6.294063E+04  7.137300E+04  5.843831E+04  2.087364E+04  9.039492E+03  1.296299E+04
       377  10 -5.890667E+05 -5.493225E+04 -5.477611E+04  1.995413E+04  5.964732E-09 -4.331984E-09
       377  11 -6.268011E+05 -6.437218E+04 -6.584332E+04  1.088859E+04 -5.350447E-11  4.326036E-09
       377  12 -6.658657E+05 -7.690394E+04 -7.982529E+04  2.129366E+04 -2.073603E-09 -2.304059E-09
       377  13 -3.644387E+05  3.186037E+02 -3.307127E+03  2.107295E+04 -7.889349E-10 -1.089033E-08
       377  14 -3.638096E+05  2.905641E+02 -5.673969E+03  1.134325E+04 -1.073445E-09  7.865353E-09
       377  15 -3.644453E+05 -2.762405E+03 -1.069073E+04  2.108369E+04 -1.176858E-09 -8.192549E-10
       377  16 -1.397639E+05  5.556595E+04  4.815854E+04  2.219215E+04 -5.864061E-09 -9.285033E-09
       377  17 -1.007539E+05  6.494850E+04  5.449085E+04  1.179805E+04 -2.263061E-09 -1.092329E-08
       377  18 -6.294076E+04  7.137280E+04  5.843784E+04  2.087355E+04  3.149496E-09  3.687645E-09
       377  19 -5.890667E+05 -5.493215E+04 -5.477593E+04  1.995413E+04 -9.439425E+02 -9.748132E+03
       377  20 -6.268011E+05 -6.437203E+04 -6.584304E+04  1.088863E+04 -4.183649E+03 -1.160935E+04
       377  21 -6.658656E+05 -7.690375E+04 -7.982487E+04  2.129374E+04 -7.425646E+03 -1.295833E+04
       377  22 -3.644387E+05  3.187076E+02 -3.306936E+03  2.107297E+04 -2.509928E+03 -9.753620E+03
       377  23 -3.638095E+05  2.907166E+02 -5.673661E+03  1.134330E+04 -5.369907E+03 -1.161321E+04
       377  24 -3.644452E+05 -2.762206E+03 -1.069029E+04  2.108378E+04 -8.232375E+03 -1.296066E+04
       377  25 -1.397639E+05  5.556605E+04  4.815875E+04  2.219218E+04 -4.076476E+03 -9.759113E+03
       377  26 -1.007538E+05  6.494866E+04  5.449118E+04  1.179811E+04 -6.556664E+03 -1.161707E+04
       377  27 -6.294063E+04  7.137300E+04  5.843831E+04  2.087364E+04 -9.039492E+03 -1.296299E+04
       378   1 -7.042116E+05 -8.062953E+04 -9.029525E+04  1.415046E+04  6.130433E+03  1.527677E+04
       378   2 -7.356837E+05 -8.976868E+04 -1.084335E+05  1.603945E+04  2.578370E+04  1.549757E+04
       378   3 -7.808345E+05 -1.430511E+05 -1.504286E+05  3.697036E+04  4.546761E+04  5.151561E+03
       378   4 -3.669034E+05  2.324721E+03 -1.329485E+04  2.094383E+04  1.017711E+04  1.528989E+04
       378   5 -3.607567E+05  2.488528E+03 -2.211641E+04  1.148951E+04  2.198214E+04  1.548450E+04
       378   6 -3.669189E+05 -4.011351E+04 -4.933307E+04  2.107746E+04  3.381934E+04  5.114417E+03
       378   7 -2.948956E+04  8.527124E+04  6.369820E+04  2.774084E+04  1.422598E+04  1.530309E+04
       378   8  1.430058E+04  9.473600E+04  6.419138E+04  6.936694E+03  1.817829E+04  1.547148E+04
       378   9  4.715392E+04  6.281247E+04  5.175059E+04  5.173804E+03  2.216332E+04  5.077883E+03
       378  10 -7.042117E+05 -8.062979E+04 -9.029576E+04  1.415038E+04 -5.339933E-09 -1.791922E-09
       378  11 -7.356845E+05 -8.976912E+04 -1.084352E+05  1.603913E+04  2.669147E-09  7.210405E-09
       378  12 -7.808367E+05 -1.430517E+05 -1.504325E+05  3.697018E+04  8.290509E-09  4.430392E-09
       378  13 -3.669036E+05  2.324442E+03 -1.329549E+04  2.094370E+04  5.384097E-10  4.698591E-09
       378  14 -3.607573E+05  2.488141E+03 -2.211777E+04  1.148924E+04 -1.419872E-09  3.965348E-09
       378  15 -3.669202E+05 -4.011385E+04 -4.933527E+04  2.107732E+04 -3.202397E-10  5.288860E-09
       378  16 -2.948984E+04  8.527093E+04  6.369738E+04  2.774066E+04  6.630386E-09  9.901210E-09
       378  17  1.430016E+04  9.473566E+04  6.419031E+04  6.936467E+03 -2.966182E-09  8.907947E-09
       378  18  4.715339E+04  6.281231E+04  5.174962E+04  5.173713E+03 -7.672889E-09  1.898391E-09
       378  19 -7.042116E+05 -8.062953E+04 -9.029525E+04  1.415046E+04 -6.130433E+03 -1.527677E+04
       378  20 -7.356837E+05 -8.976868E+04 -1.084335E+05  1.603945E+04 -2.578370E+04 -1.549757E+04
       378  21 -7.808345E+05 -1.430511E+05 -1.504286E+05  3.697036E+04 -4.546761E+04 -5.151561E+03
       378  22 -3.669034E+05  2.324721E+03 -1.329485E+04  2.094383E+04 -1.017711E+04 -1.528989E+04
       378  23 -3.607567E+05  2.488528E+03 -2.211641E+04  1.148951E+04 -2.198214E+04 -1.548450E+04
       378  24 -3.669189E+05 -4.011351E+04 -4.933307E+04  2.107746E+04 -3.381934E+04 -5.114417E+03
       378  25 -2.948956E+04  8.527124E+04  6.369820E+04  2.774084E+04 -1.422598E+04 -1.530309E+04
       378  26  1.430058E+04  9.473600E+04  6.419138E+04  6.936694E+03 -1.817829E+04 -1.547148E+04
       378  27  4.715392E+04  6.281247E+04  5.175059E+04  5.173804E+03 -2.216332E+04 -5.077883E+03
       379   1 -1.887245E+05 -7.382710E+05 -1.827303E+05  1.818335E+05 -7.598818E+03 -5.322771E+04
       379   2 -1.291096E+05 -5.630865E+05 -1.127497E+05  1.568104E+05 -2.301390E+04 -2.039214E+04
       379   3 -8.426569E+04 -3.955607E+05 -6.782930E+04  1.701613E+05 -2.101751E+04  1.250236E+04
       379   4 -1.707293E+04 -4.559623E+04 -1.780359E+04  1.705961E+05 -7.696790E+03 -1.346013E+04
       379   5 -4.290307E+03 -4.422788E+04 -7.846203E+03  1.514287E+05 -2.303876E+04 -9.424200E+03
       379   6 -1.267225E+03 -4.553823E+04 -2.930003E+03  1.706352E+05 -2.097530E+04 -5.339350E+03
       379   7  1.545453E+05  6.475228E+05  1.470955E+05  1.593463E+05 -7.796152E+03  2.635165E+04
       379   8  1.205125E+05  4.748876E+05  9.704385E+04  1.460426E+05 -2.306380E+04  1.552737E+03
       379   9  8.172439E+04  3.046037E+05  6.196533E+04  1.711094E+05 -2.093314E+04 -2.319086E+04
       379  10 -1.887254E+05 -7.382741E+05 -1.827358E+05  1.818331E+05 -1.795052E-09  5.467919E-08
       379  11 -1.291103E+05 -5.630871E+05 -1.127515E+05  1.568100E+05 -4.623921E-09 -7.907100E-10
       379  12 -8.426621E+04 -3.955610E+05 -6.783042E+04  1.701615E+05 -6.071779E-10 -5.494839E-08
       379  13 -1.707304E+04 -4.559644E+04 -1.780404E+04  1.705960E+05 -2.466488E-11  3.583346E-11
       379  14 -4.290900E+03 -4.422812E+04 -7.847367E+03  1.514286E+05 -1.952339E-09  1.685986E-09
       379  15 -1.267705E+03 -4.553837E+04 -2.930883E+03  1.706351E+05  9.202048E-10  4.890948E-09
       379  16  1.545451E+05  6.475220E+05  1.470941E+05  1.593464E+05 -1.902143E-10 -4.855535E-08
       379  17  1.205119E+05  4.748875E+05  9.704285E+04  1.460426E+05  1.771286E-09  5.699613E-10
       379  18  8.172377E+04  3.046030E+05  6.196350E+04  1.711090E+05  1.127332E-09  5.635973E-08
       379  19 -1.887245E+05 -7.382710E+05 -1.827303E+05  1.818335E+05  7.598818E+03  5.322771E+04
       379  20 -1.291096E+05 -5.630865E+05 -1.127497E+05  1.568104E+05  2.301390E+04  2.039214E+04
       379  21 -8.426569E+04 -3.955607E+05 -6.782930E+04  1.701613E+05  2.101751E+04 -1.250236E+04
       379  22 -1.707293E+04 -4.559623E+04 -1.780359E+04  1.705961E+05  7.696790E+03  1.346013E+04
       379  23 -4.290307E+03 -4.422788E+04 -7.846203E+03  1.514287E+05  2.303876E+04  9.424200E+03
       379  24 -1.267225E+03 -4.553823E+04 -2.930003E+03  1.706352E+05  2.097530E+04  5.339350E+03
       379  25  1.545453E+05  6.475228E+05  1.470955E+05  1.593463E+05  7.796152E+03 -2.635165E+04
       379  26  1.205125E+05  4.748876E+05  9.704385E+04  1.460426E+05  2.306380E+04 -1.552737E+03
       379  27  8.172439E+04  3.046037E+05  6.196533E+04  1.711094E+05  2.093314E+04  2.319086E+04
       380   1 -5.776779E+04 -2.818902E+05 -4.493710E+04  1.712811E+05 -1.435934E+04  1.079910E+04
       380   2 -1.604235E+04 -1.108262E+05 -8.878314E+03  1.515164E+05 -4.628914E+03  9.973439E+03
       380   3  2.605746E+04  6.072831E+04  2.787634E+04  1.711900E+05  5.369534E+03  9.147732E+03
       380   4 -1.575950E+03 -4.481031E+04 -1.110083E+03  1.708649E+05 -1.432273E+04 -5.085723E+03
       380   5 -5.948242E+02 -4.507650E+04  2.594852E+03  1.511487E+05 -4.591652E+03 -6.356901E+03
       380   6  8.396568E+02 -4.480273E+04  7.305697E+03  1.708705E+05  5.407368E+03 -7.627902E+03
       380   7  5.461281E+04  1.923246E+05  4.271553E+04  1.704486E+05 -1.428610E+04 -2.097646E+04
       380   8  1.485262E+04  2.067801E+04  1.406887E+04  1.507809E+05 -4.554372E+03 -2.268892E+04
       380   9 -2.437866E+04 -1.503225E+05 -1.326441E+04  1.705510E+05  5.445223E+03 -2.440075E+04
       380  10 -5.776804E+04 -2.818904E+05 -4.493770E+04  1.712813E+05  2.864103E-09 -3.092823E-08
       380  11 -1.604240E+04 -1.108263E+05 -8.878541E+03  1.515165E+05  5.111329E-09 -5.656576E-09
       380  12  2.605741E+04  6.072821E+04  2.787612E+04  1.711900E+05  3.296036E-09  2.566558E-08
       380  13 -1.576178E+03 -4.481039E+04 -1.110517E+03  1.708649E+05  2.996423E-09 -2.321041E-12
       380  14 -5.948577E+02 -4.507654E+04  2.594736E+03  1.511487E+05  5.168055E-09 -2.162096E-09
       380  15  8.396097E+02 -4.480280E+04  7.305533E+03  1.708705E+05  6.004512E-09  5.184583E-09
       380  16  5.461247E+04  1.923241E+05  4.271432E+04  1.704484E+05  2.938505E-09  3.397792E-08
       380  17  1.485245E+04  2.067745E+04  1.406786E+04  1.507808E+05  3.766262E-09  2.211202E-10
       380  18 -2.437886E+04 -1.503231E+05 -1.326559E+04  1.705511E+05  4.587469E-09 -2.387828E-08
       380  19 -5.776779E+04 -2.818902E+05 -4.493710E+04  1.712811E+05  1.435934E+04 -1.079910E+04
       380  20 -1.604235E+04 -1.108262E+05 -8.878314E+03  1.515164E+05  4.628914E+03 -9.973439E+03
       380  21  2.605746E+04  6.072831E+04  2.787634E+04  1.711900E+05 -5.369534E+03 -9.147732E+03
       380  22 -1.575950E+03 -4.481031E+04 -1.110083E+03  1.708649E+05  1.432273E+04  5.085723E+03
       380  23 -5.948242E+02 -4.507650E+04  2.594852E+03  1.511487E+05  4.591652E+03  6.356901E+03
       380  24  8.396568E+02 -4.480273E+04  7.305697E+03  1.708705E+05 -5.407368E+03  7.627902E+03
       380  25  5.461281E+04  1.923246E+05  4.271553E+04  1.704486E+05  1.428610E+04  2.097646E+04
       380  26  1.485262E+04  2.067801E+04  1.406887E+04  1.507809E+05  4.554372E+03  2.268892E+04
       380  27 -2.437866E+04 -1.503225E+05 -1.326441E+04  1.705510E+05 -5.445223E+03  2.440075E+04
       381   1  5.214077E+04  1.750182E+05  5.170213E+04  1.679262E+05  1.215413E+04  9.444514E+03
       381   2  1.006333E+05  3.409037E+05  9.927009E+04  1.610498E+05  1.615002E+04 -2.441713E+04
       381   3  1.753110E+05  5.180405E+05  1.754808E+05  1.928258E+05  5.846937E+03 -5.832687E+04
       381   4  1.644154E+02 -4.334705E+04  1.023913E+04  1.706815E+05  1.219612E+04 -8.886092E+03
       381   5  7.222807E+03 -4.692919E+04  1.969301E+04  1.514004E+05  1.613857E+04 -1.905503E+04
       381   6  3.636555E+04 -4.338903E+04  4.134702E+04  1.707699E+05  5.779334E+03 -2.926266E+04
       381   7 -5.181453E+04 -2.616656E+05 -3.122473E+04  1.734359E+05  1.223795E+04 -2.721041E+04
       381   8 -8.619671E+04 -4.346190E+05 -5.989193E+04  1.417573E+05  1.612696E+04 -1.369622E+04
       381   9 -1.026003E+05 -6.045268E+05 -9.280555E+04  1.487342E+05  5.709640E+03 -2.245863E+02
       381  10  5.214059E+04  1.750181E+05  5.170169E+04  1.679261E+05  2.152090E-09 -3.786181E-09
       381  11  1.006328E+05  3.409030E+05  9.926848E+04  1.610501E+05 -1.379773E-09 -8.275021E-10
       381  12  1.753100E+05  5.180368E+05  1.754744E+05  1.928260E+05 -1.651737E-09  4.683062E-09
       381  13  1.642345E+02 -4.334717E+04  1.023871E+04  1.706816E+05  9.478131E-10 -1.196846E-11
       381  14  7.222430E+03 -4.692965E+04  1.969183E+04  1.514007E+05  3.610808E-10  9.489370E-12
       381  15  3.636529E+04 -4.338996E+04  4.134535E+04  1.707701E+05 -1.021517E-09  3.406106E-09
       381  16 -5.181489E+04 -2.616664E+05 -3.122640E+04  1.734362E+05  2.938900E-09  7.927435E-09
       381  17 -8.619704E+04 -4.346193E+05 -5.989277E+04  1.417575E+05  1.302532E-09 -3.709546E-09
       381  18 -1.026004E+05 -6.045268E+05 -9.280561E+04  1.487342E+05 -6.199427E-10 -1.384741E-09
       381  19  5.214077E+04  1.750182E+05  5.170213E+04  1.679262E+05 -1.215413E+04 -9.444514E+03
       381  20  1.006333E+05  3.409037E+05  9.927009E+04  1.610498E+05 -1.615002E+04  2.441713E+04
       381  21  1.753110E+05  5.180405E+05  1.754808E+05  1.928258E+05 -5.846937E+03  5.832687E+04
       381  22  1.644154E+02 -4.334705E+04  1.023913E+04  1.706815E+05 -1.219612E+04  8.886092E+03
       381  23  7.222807E+03 -4.692919E+04  1.969301E+04  1.514004E+05 -1.613857E+04  1.905503E+04
       381  24  3.636555E+04 -4.338903E+04  4.134702E+04  1.707699E+05 -5.779334E+03  2.926266E+04
       381  25 -5.181453E+04 -2.616656E+05 -3.122473E+04  1.734359E+05 -1.223795E+04  2.721041E+04
       381  26 -8.619671E+04 -4.346190E+05 -5.989193E+04  1.417573E+05 -1.612696E+04  1.369622E+04
       381  27 -1.026003E+05 -6.045268E+05 -9.280555E+04  1.487342E+05 -5.709640E+03  2.245863E+02
       382   1  7.636124E+05  2.920091E+05  1.869081E+05  2.740295E+05  7.585263E+04  2.408548E+04
       382   2  7.347246E+05  1.805255E+05  1.164129E+05  2.701022E+05  4.934909E+04  4.491853E+03
       382   3  7.321901E+05  1.641977E+05  9.137578E+04  2.554355E+05  1.962783E+04 -6.590825E+03
       382   4  4.736422E+05  1.516997E+05  1.029159E+05  1.631606E+05  6.702880E+04  2.074271E+04
       382   5  4.555092E+05  6.593378E+04  4.387101E+04  1.832059E+05  4.647013E+04  3.400966E+03
       382   6  4.625665E+05  7.416818E+04  2.558881E+04  1.925079E+05  2.269196E+04 -5.430851E+03
       382   7  1.837595E+05  1.141436E+04  1.891706E+04  5.234519E+04  5.820958E+04  1.740277E+04
       382   8  1.763713E+05 -4.864802E+04 -2.867712E+04  9.634684E+04  4.359260E+04  2.310729E+03
       382   9  1.930124E+05 -1.586055E+04 -4.020388E+04  1.296030E+05  2.575464E+04 -4.271283E+03
       382  10  7.636061E+05  2.920070E+05  1.868962E+05  2.740280E+05 -8.641970E-09 -4.344021E-09
       382  11  7.347220E+05  1.805248E+05  1.164083E+05  2.701021E+05  3.081710E-09 -3.194609E-09
       382  12  7.321897E+05  1.641976E+05  9.137498E+04  2.554357E+05  1.448813E-08  6.666965E-09
       382  13  4.736372E+05  1.516981E+05  1.029066E+05  1.631595E+05 -6.459108E-10  2.134066E-09
       382  14  4.555069E+05  6.593319E+04  4.386694E+04  1.832058E+05 -5.092741E-09 -5.526631E-09
       382  15  4.625660E+05  7.416801E+04  2.558779E+04  1.925080E+05 -6.958332E-10  6.426550E-09
       382  16  1.837557E+05  1.141312E+04  1.891012E+04  5.234437E+04  5.189379E-09  6.483005E-09
       382  17  1.763692E+05 -4.864853E+04 -2.868070E+04  9.634676E+04 -9.823389E-09  6.153787E-09
       382  18  1.930117E+05 -1.586075E+04 -4.020516E+04  1.296031E+05 -1.415707E-08 -2.580511E-09
       382  19  7.636124E+05  2.920091E+05  1.869081E+05  2.740295E+05 -7.585263E+04 -2.408548E+04
       382  20  7.347246E+05  1.805255E+05  1.164129E+05  2.701022E+05 -4.934909E+04 -4.491853E+03
       382  21  7.321901E+05  1.641977E+05  9.137578E+04  2.554355E+05 -1.962783E+04  6.590825E+03
       382  22  4.736422E+05  1.516997E+05  1.029159E+05  1.631606E+05 -6.702880E+04 -2.074271E+04
       382  23  4.555092E+05  6.593378E+04  4.387101E+04  1.832059E+05 -4.647013E+04 -3.400966E+03
       382  24  4.625665E+05  7.416818E+04  2.558881E+04  1.925079E+05 -2.269196E+04  5.430851E+03
       382  25  1.837595E+05  1.141436E+04  1.891706E+04  5.234519E+04 -5.820958E+04 -1.740277E+04
       382  26  1.763713E+05 -4.864802E+04 -2.867712E+04  9.634684E+04 -4.359260E+04 -2.310729E+03
       382  27  1.930124E+05 -1.586055E+04 -4.020388E+04  1.296030E+05 -2.575464E+04  4.271283E+03
       383   1  6.945592E+05  1.737114E+05  8.042708E+04  2.540555E+05  1.817670E+04 -5.083788E+03
       383   2  6.736268E+05  1.519627E+05  6.374355E+04  2.423390E+05  1.230253E+04 -6.373654E+03
       383   3  6.461495E+05  1.468494E+05  5.304672E+04  2.401881E+05  6.264872E+03 -7.232204E+03
       383   4  4.592668E+05  8.326406E+04  2.052331E+04  1.870664E+05  1.859237E+04 -4.926788E+03
       383   5  4.621402E+05  7.196764E+04  1.028006E+04  1.834242E+05  1.302092E+04 -6.101831E+03
       383   6  4.584091E+05  7.724807E+04  5.785390E+03  1.893473E+05  7.285730E+03 -6.845601E+03
       383   7  2.240286E+05 -7.178827E+03 -3.938494E+04  1.201006E+05  1.900787E+04 -4.769857E+03
       383   8  2.506977E+05 -8.024101E+03 -4.318688E+04  1.245278E+05  1.373904E+04 -5.830112E+03
       383   9  2.707039E+05  7.649212E+03 -4.147852E+04  1.385206E+05  8.306246E+03 -6.459124E+03
       383  10  6.945589E+05  1.737113E+05  8.042641E+04  2.540556E+05 -7.252302E-09 -8.792519E-09
       383  11  6.736267E+05  1.519627E+05  6.374319E+04  2.423390E+05 -5.959193E-09  9.178862E-09
       383  12  6.461494E+05  1.468493E+05  5.304655E+04  2.401881E+05 -7.438296E-09  2.559439E-09
       383  13  4.592665E+05  8.326394E+04  2.052262E+04  1.870665E+05  8.900774E-10  4.730229E-09
       383  14  4.621400E+05  7.196756E+04  1.027967E+04  1.834243E+05  4.762886E-09 -9.644905E-09
       383  15  4.584091E+05  7.724801E+04  5.785202E+03  1.893474E+05  9.266597E-10  5.084651E-09
       383  16  2.240282E+05 -7.178948E+03 -3.938566E+04  1.201006E+05  9.331722E-09 -1.677701E-09
       383  17  2.506975E+05 -8.024188E+03 -4.318730E+04  1.245279E+05  1.037696E-08 -3.083259E-09
       383  18  2.707038E+05  7.649148E+03 -4.147873E+04  1.385206E+05  9.651083E-09  1.757798E-09
       383  19  6.945592E+05  1.737114E+05  8.042708E+04  2.540555E+05 -1.817670E+04  5.083788E+03
       383  20  6.736268E+05  1.519627E+05  6.374355E+04  2.423390E+05 -1.230253E+04  6.373654E+03
       383  21  6.461495E+05  1.468494E+05  5.304672E+04  2.401881E+05 -6.264872E+03  7.232204E+03
       383  22  4.592668E+05  8.326406E+04  2.052331E+04  1.870664E+05 -1.859237E+04  4.926788E+03
       383  23  4.621402E+05  7.196764E+04  1.028006E+04  1.834242E+05 -1.302092E+04  6.101831E+03
       383  24  4.584091E+05  7.724807E+04  5.785390E+03  1.893473E+05 -7.285730E+03  6.845601E+03
       383  25  2.240286E+05 -7.178827E+03 -3.938494E+04  1.201006E+05 -1.900787E+04  4.769857E+03
       383  26  2.506977E+05 -8.024101E+03 -4.318688E+04  1.245278E+05 -1.373904E+04  5.830112E+03
       383  27  2.707039E+05  7.649212E+03 -4.147852E+04  1.385206E+05 -8.306246E+03  6.459124E+03
       384   1  6.207548E+05  1.391127E+05  4.541827E+04  2.338746E+05  5.276489E+03 -6.677592E+03
       384   2  6.008689E+05  1.244485E+05  3.723204E+04  2.216243E+05  3.581426E+03 -5.860668E+03
       384   3  5.715930E+05  1.200938E+05  3.009388E+04  2.203169E+05  1.878929E+03 -5.024973E+03
       384   4  4.580870E+05  7.791212E+04  4.443130E+03  1.888752E+05  6.159045E+03 -6.343304E+03
       384   5  4.627528E+05  7.253797E+04  2.386347E+03  1.834878E+05  4.477411E+03 -5.521174E+03
       384   6  4.580258E+05  7.747107E+04  1.367374E+03  1.890433E+05  2.788292E+03 -4.680289E+03
       384   7  2.954445E+05  1.671310E+04 -3.653430E+04  1.438863E+05  7.041353E+03 -6.009111E+03
       384   8  3.246550E+05  2.062867E+04 -3.246095E+04  1.453589E+05  5.373180E+03 -5.181762E+03
       384   9  3.444711E+05  3.484924E+04 -2.736017E+04  1.577749E+05  3.697473E+03 -4.335674E+03
       384  10  6.207548E+05  1.391126E+05  4.541813E+04  2.338746E+05 -4.870880E-09 -8.201835E-09
       384  11  6.008689E+05  1.244484E+05  3.723195E+04  2.216243E+05 -4.975761E-09 -7.111744E-09
       384  12  5.715930E+05  1.200937E+05  3.009383E+04  2.203169E+05 -7.367214E-09  4.203188E-09
       384  13  4.580870E+05  7.791207E+04  4.442983E+03  1.888752E+05 -3.094378E-09 -7.499935E-09
       384  14  4.627528E+05  7.253793E+04  2.386252E+03  1.834878E+05 -2.590698E-09 -1.665866E-09
       384  15  4.580258E+05  7.747105E+04  1.367318E+03  1.890433E+05 -1.487524E-09  7.598731E-09
       384  16  2.954444E+05  1.671305E+04 -3.653446E+04  1.438864E+05  3.436767E-09  2.095972E-10
       384  17  3.246550E+05  2.062863E+04 -3.246105E+04  1.453589E+05  1.555188E-09  1.076063E-08
       384  18  3.444711E+05  3.484922E+04 -2.736023E+04  1.577749E+05  1.819547E-09 -3.646996E-10
       384  19  6.207548E+05  1.391127E+05  4.541827E+04  2.338746E+05 -5.276489E+03  6.677592E+03
       384  20  6.008689E+05  1.244485E+05  3.723204E+04  2.216243E+05 -3.581426E+03  5.860668E+03
       384  21  5.715930E+05  1.200938E+05  3.009388E+04  2.203169E+05 -1.878929E+03  5.024973E+03
       384  22  4.580870E+05  7.791212E+04  4.443130E+03  1.888752E+05 -6.159045E+03  6.343304E+03
       384  23  4.627528E+05  7.253797E+04  2.386347E+03  1.834878E+05 -4.477411E+03  5.521174E+03
       384  24  4.580258E+05  7.747107E+04  1.367374E+03  1.890433E+05 -2.788292E+03  4.680289E+03
       384  25  2.954445E+05  1.671310E+04 -3.653430E+04  1.438863E+05 -7.041353E+03  6.009111E+03
       384  26  3.246550E+05  2.062867E+04 -3.246095E+04  1.453589E+05 -5.373180E+03  5.181762E+03
       384  27  3.444711E+05  3.484924E+04 -2.736017E+04  1.577749E+05 -3.697473E+03  4.335674E+03
       385   1  5.473876E+05  1.110908E+05  2.353164E+04  2.136820E+05  1.400337E+03 -4.341213E+03
       385   2  5.277380E+05  9.701900E+04  1.706604E+04  2.014419E+05  5.692525E+02 -3.178480E+03
       385   3  4.984444E+05  9.270499E+04  1.086643E+04  2.001677E+05 -2.617538E+02 -2.016314E+03
       385   4  4.579934E+05  7.750445E+04  1.066905E+03  1.889900E+05  2.301259E+03 -3.999675E+03
       385   5  4.628144E+05  7.261348E+04  6.852468E+02  1.835119E+05  1.469825E+03 -2.837022E+03
       385   6  4.579910E+05  7.748045E+04  5.699132E+02  1.889996E+05  6.384519E+02 -1.674938E+03
       385   7  3.686073E+05  4.391880E+04 -2.139836E+04  1.643014E+05  3.202036E+03 -3.658192E+03
       385   8  3.978950E+05  4.820826E+04 -1.569588E+04  1.655836E+05  2.370295E+03 -2.495604E+03
       385   9  4.175390E+05  6.225596E+04 -9.726779E+03  1.778321E+05  1.538597E+03 -1.333586E+03
       385  10  5.473876E+05  1.110908E+05  2.353160E+04  2.136820E+05 -3.345735E-09  1.356395E-08
       385  11  5.277380E+05  9.701898E+04  1.706602E+04  2.014419E+05 -1.922058E-09  1.441322E-08
       385  12  4.984444E+05  9.270499E+04  1.086642E+04  2.001677E+05  1.256447E-09  3.895530E-09
       385  13  4.579934E+05  7.750443E+04  1.066865E+03  1.889900E+05 -2.584213E-09  7.587669E-09
       385  14  4.628144E+05  7.261347E+04  6.852276E+02  1.835119E+05  2.817658E-10 -3.802544E-09
       385  15  4.579910E+05  7.748045E+04  5.699071E+02  1.889996E+05 -3.230603E-10 -2.790398E-09
       385  16  3.686073E+05  4.391879E+04 -2.139840E+04  1.643014E+05  2.368229E-11 -1.037115E-09
       385  17  3.978950E+05  4.820825E+04 -1.569590E+04  1.655836E+05 -6.209881E-10 -6.224996E-09
       385  18  4.175390E+05  6.225596E+04 -9.726787E+03  1.778321E+05  1.439533E-09 -6.189681E-09
       385  19  5.473876E+05  1.110908E+05  2.353164E+04  2.136820E+05 -1.400337E+03  4.341213E+03
       385  20  5.277380E+05  9.701900E+04  1.706604E+04  2.014419E+05 -5.692525E+02  3.178480E+03
       385  21  4.984444E+05  9.270499E+04  1.086643E+04  2.001677E+05  2.617538E+02  2.016314E+03
       385  22  4.579934E+05  7.750445E+04  1.066905E+03  1.889900E+05 -2.301259E+03  3.999675E+03
       385  23  4.628144E+05  7.261348E+04  6.852468E+02  1.835119E+05 -1.469825E+03  2.837022E+03
       385  24  4.579910E+05  7.748045E+04  5.699132E+02  1.889996E+05 -6.384519E+02  1.674938E+03
       385  25  3.686073E+05  4.391880E+04 -2.139836E+04  1.643014E+05 -3.202036E+03  3.658192E+03
       385  26  3.978950E+05  4.820826E+04 -1.569588E+04  1.655836E+05 -2.370295E+03  2.495604E+03
       385  27  4.175390E+05  6.225596E+04 -9.726779E+03  1.778321E+05 -1.538597E+03  1.333586E+03
       386   1  4.744164E+05  8.364575E+04  4.643215E+03  1.935495E+05 -6.421246E+02 -1.301197E+03
       386   2  4.548020E+05  6.961964E+04 -1.233987E+03  1.813174E+05 -1.521902E+03 -1.590206E+02
       386   3  4.255674E+05  6.534575E+04 -6.806449E+03  1.800323E+05 -2.401373E+03  9.825339E+02
       386   4  4.579961E+05  7.747653E+04  5.873936E+02  1.889965E+05  2.575210E+02 -9.600175E+02
       386   5  4.628090E+05  7.261778E+04  7.841869E+02  1.835166E+05 -6.227279E+02  1.819712E+02
       386   6  4.580010E+05  7.751119E+04  1.286076E+03  1.889833E+05 -1.502688E+03  1.323333E+03
       386   7  4.415762E+05  7.130734E+04 -3.468445E+03  1.844436E+05  1.157140E+03 -6.188477E+02
       386   8  4.708160E+05  7.561590E+04  2.802355E+03  1.857157E+05  2.764566E+02  5.229670E+02
       386   9  4.904355E+05  8.967666E+04  9.378486E+03  1.979346E+05 -6.039548E+02  1.664150E+03
       386  10  4.744164E+05  8.364575E+04  4.643211E+03  1.935495E+05 -1.573798E-08  9.164979E-10
       386  11  4.548020E+05  6.961964E+04 -1.233992E+03  1.813174E+05 -1.119843E-08 -9.383039E-09
       386  12  4.255674E+05  6.534575E+04 -6.806462E+03  1.800323E+05 -9.545669E-11 -4.810742E-09
       386  13  4.579961E+05  7.747653E+04  5.873918E+02  1.889965E+05 -1.054516E-09 -2.979983E-09
       386  14  4.628090E+05  7.261777E+04  7.841861E+02  1.835166E+05 -4.891832E-09 -1.876479E-09
       386  15  4.580010E+05  7.751119E+04  1.286069E+03  1.889833E+05 -3.876721E-09 -8.035152E-09
       386  16  4.415762E+05  7.130734E+04 -3.468448E+03  1.844436E+05  1.542676E-08 -1.483830E-09
       386  17  4.708160E+05  7.561590E+04  2.802354E+03  1.857157E+05  5.811749E-09 -8.232428E-10
       386  18  4.904355E+05  8.967665E+04  9.378480E+03  1.979346E+05 -6.105247E-09 -8.682949E-09
       386  19  4.744164E+05  8.364575E+04  4.643215E+03  1.935495E+05  6.421246E+02  1.301197E+03
       386  20  4.548020E+05  6.961964E+04 -1.233987E+03  1.813174E+05  1.521902E+03  1.590206E+02
       386  21  4.255674E+05  6.534575E+04 -6.806449E+03  1.800323E+05  2.401373E+03 -9.825339E+02
       386  22  4.579961E+05  7.747653E+04  5.873936E+02  1.889965E+05 -2.575210E+02  9.600175E+02
       386  23  4.628090E+05  7.261778E+04  7.841869E+02  1.835166E+05  6.227279E+02 -1.819712E+02
       386  24  4.580010E+05  7.751119E+04  1.286076E+03  1.889833E+05  1.502688E+03 -1.323333E+03
       386  25  4.415762E+05  7.130734E+04 -3.468445E+03  1.844436E+05 -1.157140E+03  6.188477E+02
       386  26  4.708160E+05  7.561590E+04  2.802355E+03  1.857157E+05 -2.764566E+02 -5.229670E+02
       386  27  4.904355E+05  8.967666E+04  9.378486E+03  1.979346E+05  6.039548E+02 -1.664150E+03
       387   1  4.015069E+05  5.629726E+04 -1.266964E+04  1.735402E+05 -2.936323E+03  1.641781E+03
       387   2  3.817702E+05  4.211436E+04 -1.748446E+04  1.611515E+05 -4.891240E+03  2.376380E+03
       387   3  3.527616E+05  3.831952E+04 -2.103048E+04  1.596278E+05 -6.839709E+03  3.094657E+03
       387   4  4.580506E+05  7.745990E+04  1.666684E+03  1.890380E+05 -2.031308E+03  1.984956E+03
       387   5  4.627244E+05  7.254077E+04  2.942305E+03  1.835006E+05 -3.997840E+03  2.715084E+03
       387   6  4.581284E+05  7.801201E+04  5.495965E+03  1.888280E+05 -5.957984E+03  3.428868E+03
       387   7  5.145977E+05  9.862284E+04  1.600282E+04  2.045372E+05 -1.126198E+03  2.328167E+03
       387   8  5.436852E+05  1.029677E+05  2.336860E+04  2.058524E+05 -3.104310E+03  3.053837E+03
       387   9  5.635061E+05  1.177053E+05  3.202154E+04  2.180326E+05 -5.076096E+03  3.763142E+03
       387  10  4.015069E+05  5.629726E+04 -1.266966E+04  1.735402E+05  1.173009E-09 -1.196488E-08
       387  11  3.817701E+05  4.211435E+04 -1.748452E+04  1.611515E+05 -1.927697E-09 -2.888842E-09
       387  12  3.527615E+05  3.831950E+04 -2.103059E+04  1.596278E+05 -2.177117E-09  3.288634E-09
       387  13  4.580506E+05  7.745990E+04  1.666669E+03  1.890380E+05 -1.349757E-09 -5.036061E-09
       387  14  4.627244E+05  7.254075E+04  2.942261E+03  1.835006E+05 -8.487086E-10 -6.404346E-09
       387  15  4.581283E+05  7.801199E+04  5.495877E+03  1.888280E+05  5.327678E-10 -4.195650E-09
       387  16  5.145977E+05  9.862283E+04  1.600281E+04  2.045372E+05 -5.562109E-09  4.922341E-09
       387  17  5.436852E+05  1.029677E+05  2.336856E+04  2.058524E+05 -6.719006E-10  1.293100E-08
       387  18  5.635060E+05  1.177053E+05  3.202146E+04  2.180326E+05  1.478395E-09 -3.667282E-09
       387  19  4.015069E+05  5.629726E+04 -1.266964E+04  1.735402E+05  2.936323E+03 -1.641781E+03
       387  20  3.817702E+05  4.211436E+04 -1.748446E+04  1.611515E+05  4.891240E+03 -2.376380E+03
       387  21  3.527616E+05  3.831952E+04 -2.103048E+04  1.596278E+05  6.839709E+03 -3.094657E+03
       387  22  4.580506E+05  7.745990E+04  1.666684E+03  1.890380E+05  2.031308E+03 -1.984956E+03
       387  23  4.627244E+05  7.254077E+04  2.942305E+03  1.835006E+05  3.997840E+03 -2.715084E+03
       387  24  4.581284E+05  7.801201E+04  5.495965E+03  1.888280E+05  5.957984E+03 -3.428868E+03
       387  25  5.145977E+05  9.862284E+04  1.600282E+04  2.045372E+05  1.126198E+03 -2.328167E+03
       387  26  5.436852E+05  1.029677E+05  2.336860E+04  2.058524E+05  3.104310E+03 -3.053837E+03
       387  27  5.635061E+05  1.177053E+05  3.202154E+04  2.180326E+05  5.076096E+03 -3.763142E+03
       388   1  3.280861E+05  2.932283E+04 -2.561657E+04  1.546067E+05 -8.268120E+03  3.466065E+03
       388   2  3.082237E+05  1.340457E+04 -2.619476E+04  1.403190E+05 -1.501106E+04  2.341233E+03
       388   3  2.825378E+05  1.555257E+04 -1.985104E+04  1.351358E+05 -2.161939E+04  8.628988E+02
       388   4  4.585377E+05  7.717974E+04  7.160465E+03  1.894021E+05 -7.273576E+03  3.842995E+03
       388   5  4.619584E+05  7.185170E+04  1.273275E+04  1.834358E+05 -1.426460E+04  2.623966E+03
       388   6  4.596032E+05  8.463723E+04  2.542218E+04  1.865735E+05 -2.112133E+04  1.051330E+03
       388   7  5.890055E+05  1.250374E+05  3.993602E+04  2.242039E+05 -6.278807E+03  4.220006E+03
       388   8  6.157162E+05  1.303006E+05  5.165835E+04  2.265623E+05 -1.351795E+04  2.906778E+03
       388   9  6.367000E+05  1.537249E+05  7.069303E+04  2.380249E+05 -2.062311E+04  1.239827E+03
       388  10  3.280860E+05  2.932280E+04 -2.561672E+04  1.546068E+05  1.305305E-08  1.461421E-08
       388  11  3.082234E+05  1.340451E+04 -2.619519E+04  1.403190E+05  6.628566E-09  4.421078E-09
       388  12  2.825373E+05  1.555244E+04 -1.985192E+04  1.351358E+05 -3.989010E-09 -6.725633E-10
       388  13  4.585377E+05  7.717971E+04  7.160337E+03  1.894021E+05  1.908047E-09 -5.149471E-09
       388  14  4.619581E+05  7.185163E+04  1.273235E+04  1.834358E+05  3.459924E-09 -1.781330E-08
       388  15  4.596027E+05  8.463711E+04  2.542134E+04  1.865735E+05  6.150664E-10  2.848075E-10
       388  16  5.890055E+05  1.250374E+05  3.993591E+04  2.242039E+05 -1.338012E-08 -1.730107E-08
       388  17  6.157160E+05  1.303005E+05  5.165799E+04  2.265624E+05 -2.724499E-09  7.316682E-09
       388  18  6.366995E+05  1.537248E+05  7.069222E+04  2.380249E+05  3.320564E-09 -9.226874E-09
       388  19  3.280861E+05  2.932283E+04 -2.561657E+04  1.546067E+05  8.268120E+03 -3.466065E+03
       388  20  3.082237E+05  1.340457E+04 -2.619476E+04  1.403190E+05  1.501106E+04 -2.341233E+03
       388  21  2.825378E+05  1.555257E+04 -1.985104E+04  1.351358E+05  2.161939E+04 -8.628988E+02
       388  22  4.585377E+05  7.717974E+04  7.160465E+03  1.894021E+05  7.273576E+03 -3.842995E+03
       388  23  4.619584E+05  7.185170E+04  1.273275E+04  1.834358E+05  1.426460E+04 -2.623966E+03
       388  24  4.596032E+05  8.463723E+04  2.542218E+04  1.865735E+05  2.112133E+04 -1.051330E+03
       388  25  5.890055E+05  1.250374E+05  3.993602E+04  2.242039E+05  6.278807E+03 -4.220006E+03
       388  26  6.157162E+05  1.303006E+05  5.165835E+04  2.265623E+05  1.351795E+04 -2.906778E+03
       388  27  6.367000E+05  1.537249E+05  7.069303E+04  2.380249E+05  2.062311E+04 -1.239827E+03
       389   1  2.502509E+05  7.083507E+03 -1.949116E+04  1.486060E+05 -2.862862E+04  4.155011E+01
       389   2  2.345844E+05 -3.002918E+04 -3.437957E+03  1.104253E+05 -5.328117E+04 -8.896223E+03
       389   3  2.515527E+05  4.594934E+04  5.926112E+04  5.619963E+04 -7.529539E+04 -2.479801E+04
       389   4  4.636799E+05  7.338027E+04  3.169723E+04  1.933226E+05 -2.596369E+04  1.051613E+03
       389   5  4.537607E+05  6.437697E+04  5.434945E+04  1.831577E+05 -5.548053E+04 -9.730697E+03
       389   6  4.774224E+05  1.694015E+05  1.274901E+05  1.569518E+05 -8.235982E+04 -2.747837E+04
       389   7  6.771541E+05  1.396771E+05  8.288262E+04  2.380516E+05 -2.329775E+04  2.061910E+03
       389   8  6.729830E+05  1.587902E+05  1.121324E+05  2.559144E+05 -5.768072E+04 -1.056559E+04
       389   9  7.033420E+05  2.928742E+05  1.957133E+05  2.577411E+05 -8.942696E+04 -3.016084E+04
       389  10  2.502500E+05  7.083287E+03 -1.949270E+04  1.486060E+05  6.465857E-09  9.118906E-09
       389  11  2.345813E+05 -3.003003E+04 -3.443438E+03  1.104249E+05  7.069981E-09  2.596498E-10
       389  12  2.515465E+05  4.594716E+04  5.924932E+04  5.619813E+04 -9.307789E-10 -3.058843E-09
       389  13  4.636792E+05  7.338009E+04  3.169596E+04  1.933226E+05  1.028891E-09 -1.695444E-08
       389  14  4.537574E+05  6.437604E+04  5.434350E+04  1.831572E+05 -9.511843E-10 -2.012022E-09
       389  15  4.774150E+05  1.693989E+05  1.274759E+05  1.569500E+05  4.853902E-10 -7.995119E-10
       389  16  6.771535E+05  1.396770E+05  8.288159E+04  2.380517E+05 -8.122792E-09 -2.016297E-08
       389  17  6.729794E+05  1.587891E+05  1.121259E+05  2.559139E+05 -6.578208E-09 -4.243820E-09
       389  18  7.033332E+05  2.928711E+05  1.956966E+05  2.577390E+05  9.770812E-11  3.357213E-09
       389  19  2.502509E+05  7.083507E+03 -1.949116E+04  1.486060E+05  2.862862E+04 -4.155011E+01
       389  20  2.345844E+05 -3.002918E+04 -3.437957E+03  1.104253E+05  5.328117E+04  8.896223E+03
       389  21  2.515527E+05  4.594934E+04  5.926112E+04  5.619963E+04  7.529539E+04  2.479801E+04
       389  22  4.636799E+05  7.338027E+04  3.169723E+04  1.933226E+05  2.596369E+04 -1.051613E+03
       389  23  4.537607E+05  6.437697E+04  5.434945E+04  1.831577E+05  5.548053E+04  9.730697E+03
       389  24  4.774224E+05  1.694015E+05  1.274901E+05  1.569518E+05  8.235982E+04  2.747837E+04
       389  25  6.771541E+05  1.396771E+05  8.288262E+04  2.380516E+05  2.329775E+04 -2.061910E+03
       389  26  6.729830E+05  1.587902E+05  1.121324E+05  2.559144E+05  5.768072E+04  1.056559E+04
       389  27  7.033420E+05  2.928742E+05  1.957133E+05  2.577411E+05  8.942696E+04  3.016084E+04
       390   1 -1.484173E+05 -7.501400E+05 -1.492346E+05  9.232273E+04 -5.555764E+03 -2.480747E+04
       390   2 -9.471169E+04 -6.020597E+05 -9.823380E+04  5.124713E+04 -1.546453E+04 -9.209010E+03
       390   3 -5.946072E+04 -4.600277E+05 -6.191549E+04  8.313090E+04 -1.070769E+04  6.433794E+03
       390   4 -1.555758E+04 -2.170186E+05 -1.859320E+04  8.485822E+04 -5.590692E+03 -1.202895E+04
       390   5  6.357360E+02 -2.149170E+05 -8.900933E+03  4.840104E+04 -1.546881E+04 -7.327275E+03
       390   6  2.749620E+02 -2.169867E+05 -6.312902E+03  8.490160E+04 -1.068517E+04 -2.585162E+03
       390   7  1.172814E+05  3.163624E+05  1.120280E+05  7.738744E+04 -5.625914E+03  7.605388E+02
       390   8  9.597268E+04  1.723645E+05  8.042197E+04  4.555325E+04 -1.547311E+04 -5.444374E+03
       390   9  6.000659E+04  2.610916E+04  4.928612E+04  8.667303E+04 -1.066271E+04 -1.160762E+04
       390  10 -1.484175E+05 -7.501406E+05 -1.492359E+05  9.232262E+04  9.863318E-10 -4.304460E-09
       390  11 -9.471197E+04 -6.020598E+05 -9.823441E+04  5.124701E+04  3.390097E-09  8.144731E-09
       390  12 -5.946085E+04 -4.600277E+05 -6.191578E+04  8.313095E+04  2.555460E-09  1.247180E-08
       390  13 -1.555765E+04 -2.170187E+05 -1.859353E+04  8.485817E+04  2.695427E-09 -2.119328E-09
       390  14  6.354646E+02 -2.149171E+05 -8.901483E+03  4.840095E+04  4.952467E-10 -9.026671E-11
       390  15  2.748376E+02 -2.169868E+05 -6.313129E+03  8.490157E+04  3.125040E-10  6.295065E-10
       390  16  1.172813E+05  3.163624E+05  1.120280E+05  7.738745E+04  2.451107E-09  4.301734E-09
       390  17  9.597241E+04  1.723644E+05  8.042147E+04  4.555319E+04  5.956390E-09 -4.698587E-09
       390  18  6.000643E+04  2.610899E+04  4.928565E+04  8.667293E+04 -2.813414E-09 -1.422192E-08
       390  19 -1.484173E+05 -7.501400E+05 -1.492346E+05  9.232273E+04  5.555764E+03  2.480747E+04
       390  20 -9.471169E+04 -6.020597E+05 -9.823380E+04  5.124713E+04  1.546453E+04  9.209010E+03
       390  21 -5.946072E+04 -4.600277E+05 -6.191549E+04  8.313090E+04  1.070769E+04 -6.433794E+03
       390  22 -1.555758E+04 -2.170186E+05 -1.859320E+04  8.485822E+04  5.590692E+03  1.202895E+04
       390  23  6.357360E+02 -2.149170E+05 -8.900933E+03  4.840104E+04  1.546881E+04  7.327275E+03
       390  24  2.749620E+02 -2.169867E+05 -6.312902E+03  8.490160E+04  1.068517E+04  2.585162E+03
       390  25  1.172814E+05  3.163624E+05  1.120280E+05  7.738744E+04  5.625914E+03 -7.605388E+02
       390  26  9.597268E+04  1.723645E+05  8.042197E+04  4.555325E+04  1.547311E+04  5.444374E+03
       390  27  6.000659E+04  2.610916E+04  4.928612E+04  8.667303E+04  1.066271E+04  1.160762E+04
       391   1 -2.779746E+04 -3.234971E+05 -3.036639E+04  8.588544E+04 -4.687386E+03  3.184126E+03
       391   2  9.252499E+03 -1.780848E+05  3.317668E+03  4.812765E+04  1.648178E+03  5.823971E+03
       391   3  4.289701E+04 -3.336902E+04  3.453373E+04  8.390222E+04  7.894703E+03  8.464569E+03
       391   4 -1.416169E+03 -2.162103E+05 -5.802147E+03  8.501680E+04 -4.675839E+03 -1.566025E+03
       391   5 -2.984088E+01 -2.158480E+05 -5.320093E+03  4.824957E+04  1.659731E+03  1.139624E+03
       391   6 -2.059131E+03 -2.162134E+05 -7.350777E+03  8.501520E+04  7.906195E+03  3.845427E+03
       391   7  2.496434E+04 -1.089128E+05  1.876142E+04  8.414801E+04 -4.664281E+03 -6.316990E+03
       391   8 -9.312268E+03 -2.536098E+05 -1.395786E+04  4.837148E+04  1.671282E+03 -3.544441E+03
       391   9 -4.701759E+04 -3.990267E+05 -4.923740E+04  8.612787E+04  7.917673E+03 -7.723662E+02
       391  10 -2.779749E+04 -3.234971E+05 -3.036645E+04  8.588545E+04 -9.644317E-10  3.234833E-09
       391  11  9.252487E+03 -1.780848E+05  3.317599E+03  4.812764E+04 -7.950010E-10  6.228914E-09
       391  12  4.289693E+04 -3.336911E+04  3.453347E+04  8.390217E+04  7.229209E-10  1.667570E-09
       391  13 -1.416193E+03 -2.162103E+05 -5.802192E+03  8.501679E+04 -2.232579E-09 -4.317567E-09
       391  14 -2.984418E+01 -2.158480E+05 -5.320100E+03  4.824957E+04  5.978723E-10 -5.326805E-09
       391  15 -2.059202E+03 -2.162134E+05 -7.350922E+03  8.501518E+04  1.771928E-09 -1.703787E-09
       391  16  2.496430E+04 -1.089129E+05  1.876130E+04  8.414799E+04 -3.967023E-09 -7.569579E-09
       391  17 -9.312274E+03 -2.536098E+05 -1.395789E+04  4.837149E+04 -1.628132E-09 -6.137475E-09
       391  18 -4.701765E+04 -3.990267E+05 -4.923752E+04  8.612787E+04 -1.741600E-09 -3.759447E-09
       391  19 -2.779746E+04 -3.234971E+05 -3.036639E+04  8.588544E+04  4.687386E+03 -3.184126E+03
       391  20  9.252499E+03 -1.780848E+05  3.317668E+03  4.812765E+04 -1.648178E+03 -5.823971E+03
       391  21  4.289701E+04 -3.336902E+04  3.453373E+04  8.390222E+04 -7.894703E+03 -8.464569E+03
       391  22 -1.416169E+03 -2.162103E+05 -5.802147E+03  8.501680E+04  4.675839E+03  1.566025E+03
       391  23 -2.984088E+01 -2.158480E+05 -5.320093E+03  4.824957E+04 -1.659731E+03 -1.139624E+03
       391  24 -2.059131E+03 -2.162134E+05 -7.350777E+03  8.501520E+04 -7.906195E+03 -3.845427E+03
       391  25  2.496434E+04 -1.089128E+05  1.876142E+04  8.414801E+04  4.664281E+03  6.316990E+03
       391  26 -9.312268E+03 -2.536098E+05 -1.395786E+04  4.837148E+04 -1.671282E+03  3.544441E+03
       391  27 -4.701759E+04 -3.990267E+05 -4.923740E+04  8.612787E+04 -7.917673E+03  7.723662E+02
       392   1  7.903992E+04  1.011318E+05  6.425981E+04  8.772747E+04  1.408986E+04  1.465287E+04
       392   2  1.150091E+05  2.484708E+05  9.341723E+04  4.427704E+04  1.859206E+04  9.439632E+03
       392   3  1.277577E+05  3.913361E+05  1.202956E+05  7.367057E+04  6.586413E+03  4.178207E+03
       392   4  7.562310E+02 -2.175408E+05 -8.566301E+03  8.488466E+04  1.411410E+04  5.167405E+03
       392   5  1.113233E+03 -2.142454E+05 -1.324493E+04  4.842545E+04  1.858544E+04  1.223585E+04
       392   6 -2.389075E+04 -2.175794E+05 -2.873498E+04  8.481494E+04  6.543347E+03  1.925703E+04
       392   7 -7.753443E+04 -5.361190E+05 -8.139871E+04  8.204338E+04  1.413843E+04 -4.313231E+03
       392   8 -1.127976E+05 -6.767636E+05 -1.199213E+05  5.257087E+04  1.857886E+04  1.503000E+04
       392   9 -1.755661E+05 -8.261565E+05 -1.777918E+05  9.594858E+04  6.500802E+03  3.432110E+04
       392  10  7.903965E+04  1.011315E+05  6.425903E+04  8.772730E+04  8.150898E-10 -2.820709E-09
       392  11  1.150087E+05  2.484706E+05  9.341642E+04  4.427690E+04 -3.287109E-09  7.872283E-09
       392  12  1.277576E+05  3.913361E+05  1.202955E+05  7.367054E+04 -2.523686E-09  1.873628E-09
       392  13  7.560099E+02 -2.175408E+05 -8.566726E+03  8.488461E+04 -2.299650E-09  2.108944E-09
       392  14  1.112822E+03 -2.142457E+05 -1.324586E+04  4.842527E+04 -6.020140E-10  5.418473E-09
       392  15 -2.389089E+04 -2.175798E+05 -2.873576E+04  8.481484E+04 -1.530598E-09 -5.533549E-10
       392  16 -7.753465E+04 -5.361191E+05 -8.139912E+04  8.204343E+04 -1.406279E-09 -2.540621E-09
       392  17 -1.127980E+05 -6.767639E+05 -1.199224E+05  5.257064E+04 -1.064177E-10 -9.035462E-09
       392  18 -1.755664E+05 -8.261578E+05 -1.777941E+05  9.594840E+04 -8.274466E-10 -5.592297E-09
       392  19  7.903992E+04  1.011318E+05  6.425981E+04  8.772747E+04 -1.408986E+04 -1.465287E+04
       392  20  1.150091E+05  2.484708E+05  9.341723E+04  4.427704E+04 -1.859206E+04 -9.439632E+03
       392  21  1.277577E+05  3.913361E+05  1.202956E+05  7.367057E+04 -6.586413E+03 -4.178207E+03
       392  22  7.562310E+02 -2.175408E+05 -8.566301E+03  8.488466E+04 -1.411410E+04 -5.167405E+03
       392  23  1.113233E+03 -2.142454E+05 -1.324493E+04  4.842545E+04 -1.858544E+04 -1.223585E+04
       392  24 -2.389075E+04 -2.175794E+05 -2.873498E+04  8.481494E+04 -6.543347E+03 -1.925703E+04
       392  25 -7.753443E+04 -5.361190E+05 -8.139871E+04  8.204338E+04 -1.413843E+04  4.313231E+03
       392  26 -1.127976E+05 -6.767636E+05 -1.199213E+05  5.257087E+04 -1.857886E+04 -1.503000E+04
       392  27 -1.755661E+05 -8.261565E+05 -1.777918E+05  9.594858E+04 -6.500802E+03 -3.432110E+04
       393   1  2.969594E+05 -9.819387E+04 -9.104442E+04 -1.193674E+04  4.255200E+03  5.882755E+03
       393   2  3.310687E+05 -1.103439E+05 -9.018473E+04 -8.873400E+03  7.022871E+03  1.824134E+04
       393   3  3.702727E+05 -1.012337E+05 -8.578865E+04 -2.388903E+04  9.802591E+03  1.844707E+04
       393   4  7.776911E+05  2.132818E+04  2.621711E+04 -2.055883E+04  1.798313E+04  5.895704E+03
       393   5  7.743706E+05 -1.356465E+03  1.174023E+04 -1.151014E+04  1.170285E+04  1.824413E+04
       393   6  7.777083E+05 -1.219506E+03  7.075113E+03 -2.053935E+04  5.434418E+03  1.844362E+04
       393   7  1.258634E+06  1.408336E+05  1.434626E+05 -2.918766E+04  3.172166E+04  5.908268E+03
       393   8  1.217854E+06  1.076173E+05  1.136523E+05 -1.414880E+04  1.638615E+04  1.824688E+04
       393   9  1.185298E+06  9.878323E+04  9.992814E+04 -1.718748E+04  1.063405E+03  1.844012E+04
       393  10  2.969594E+05 -9.819391E+04 -9.104452E+04 -1.193676E+04  8.456108E-12 -2.213291E-11
       393  11  3.310685E+05 -1.103443E+05 -9.018544E+04 -8.873503E+03  1.134193E-10 -1.178511E-10
       393  12  3.702725E+05 -1.012341E+05 -8.578947E+04 -2.388917E+04  1.485294E-10  2.307395E-11
       393  13  7.776907E+05  2.132806E+04  2.621644E+04 -2.055892E+04  5.557710E-10 -3.033622E-11
       393  14  7.743704E+05 -1.356859E+03  1.173935E+04 -1.151031E+04 -2.394555E-10 -9.593468E-11
       393  15  7.777082E+05 -1.219880E+03  7.074418E+03 -2.053943E+04  7.965456E-10  3.655780E-11
       393  16  1.258633E+06  1.408333E+05  1.434606E+05 -2.918781E+04  3.090179E-10 -2.799013E-11
       393  17  1.217854E+06  1.076169E+05  1.136512E+05 -1.414904E+04 -3.334455E-10 -2.186091E-10
       393  18  1.185298E+06  9.878286E+04  9.992750E+04 -1.718749E+04  4.783436E-11 -8.868351E-11
       393  19  2.969594E+05 -9.819387E+04 -9.104442E+04 -1.193674E+04 -4.255200E+03 -5.882755E+03
       393  20  3.310687E+05 -1.103439E+05 -9.018473E+04 -8.873400E+03 -7.022871E+03 -1.824134E+04
       393  21  3.702727E+05 -1.012337E+05 -8.578865E+04 -2.388903E+04 -9.802591E+03 -1.844707E+04
       393  22  7.776911E+05  2.132818E+04  2.621711E+04 -2.055883E+04 -1.798313E+04 -5.895704E+03
       393  23  7.743706E+05 -1.356465E+03  1.174023E+04 -1.151014E+04 -1.170285E+04 -1.824413E+04
       393  24  7.777083E+05 -1.219506E+03  7.075113E+03 -2.053935E+04 -5.434418E+03 -1.844362E+04
       393  25  1.258634E+06  1.408336E+05  1.434626E+05 -2.918766E+04 -3.172166E+04 -5.908268E+03
       393  26  1.217854E+06  1.076173E+05  1.136523E+05 -1.414880E+04 -1.638615E+04 -1.824688E+04
       393  27  1.185298E+06  9.878323E+04  9.992814E+04 -1.718748E+04 -1.063405E+03 -1.844012E+04
       394   1  4.028940E+05 -9.027486E+04 -7.987535E+04 -2.018613E+04  5.016311E+03  1.600179E+04
       394   2  4.384328E+05 -8.305566E+04 -7.412262E+04 -1.145550E+04  3.919622E+03  1.487597E+04
       394   3  4.745942E+05 -7.423442E+04 -6.723849E+04 -2.088145E+04  2.822296E+03  1.317525E+04
       394   4  7.763880E+05  1.488327E+03  5.688411E+03 -2.056243E+04  4.394472E+03  1.600080E+04
       394   5  7.760441E+05 -1.496800E+02  3.019414E+03 -1.148411E+04  2.869033E+03  1.487500E+04
       394   6  7.763956E+05 -1.117211E+02  1.778841E+03 -2.056174E+04  1.343019E+03  1.317445E+04
       394   7  1.150011E+06  9.324182E+04  9.124301E+04 -2.093897E+04  3.772261E+03  1.599981E+04
       394   8  1.113761E+06  8.274839E+04  8.015400E+04 -1.151275E+04  1.817877E+03  1.487403E+04
       394   9  1.078281E+06  7.400465E+04  7.079021E+04 -2.024188E+04 -1.369706E+02  1.317364E+04
       394  10  4.028939E+05 -9.027515E+04 -7.987588E+04 -2.018619E+04  7.230186E-11  5.120313E-11
       394  11  4.384327E+05 -8.305590E+04 -7.412307E+04 -1.145555E+04  6.139737E-11  1.240167E-10
       394  12  4.745941E+05 -7.423461E+04 -6.723883E+04 -2.088148E+04  1.733590E-10  9.725765E-11
       394  13  7.763879E+05  1.488047E+03  5.687894E+03 -2.056249E+04  2.219565E-10 -3.091624E-11
       394  14  7.760440E+05 -1.499199E+02  3.018982E+03 -1.148415E+04 -1.559137E-10  5.417223E-11
       394  15  7.763956E+05 -1.119081E+02  1.778511E+03 -2.056176E+04  3.295500E-10  1.184537E-10
       394  16  1.150011E+06  9.324154E+04  9.124250E+04 -2.093902E+04  3.480007E-11  3.166591E-11
       394  17  1.113761E+06  8.274815E+04  8.015358E+04 -1.151277E+04 -2.132904E-10 -7.625420E-11
       394  18  1.078281E+06  7.400447E+04  7.078988E+04 -2.024188E+04 -1.155168E-10 -7.817202E-11
       394  19  4.028940E+05 -9.027486E+04 -7.987535E+04 -2.018613E+04 -5.016311E+03 -1.600179E+04
       394  20  4.384328E+05 -8.305566E+04 -7.412262E+04 -1.145550E+04 -3.919622E+03 -1.487597E+04
       394  21  4.745942E+05 -7.423442E+04 -6.723849E+04 -2.088145E+04 -2.822296E+03 -1.317525E+04
       394  22  7.763880E+05  1.488327E+03  5.688411E+03 -2.056243E+04 -4.394472E+03 -1.600080E+04
       394  23  7.760441E+05 -1.496800E+02  3.019414E+03 -1.148411E+04 -2.869033E+03 -1.487500E+04
       394  24  7.763956E+05 -1.117211E+02  1.778841E+03 -2.056174E+04 -1.343019E+03 -1.317445E+04
       394  25  1.150011E+06  9.324182E+04  9.124301E+04 -2.093897E+04 -3.772261E+03 -1.599981E+04
       394  26  1.113761E+06  8.274839E+04  8.015400E+04 -1.151275E+04 -1.817877E+03 -1.487403E+04
       394  27  1.078281E+06  7.400465E+04  7.079021E+04 -2.024188E+04  1.369706E+02 -1.317364E+04
       395   1  5.076792E+05 -6.585180E+04 -5.987240E+04 -2.054258E+04  2.358323E+03  1.206742E+04
       395   2  5.429723E+05 -5.729679E+04 -5.246023E+04 -1.157579E+04  1.971860E+03  1.031861E+04
       395   3  5.783798E+05 -4.862158E+04 -4.475924E+04 -2.053183E+04  1.584751E+03  8.548675E+03
       395   4  7.762715E+05  8.003785E+01  1.383409E+03 -2.051005E+04  1.064620E+03  1.206684E+04
       395   5  7.762155E+05 -2.782698E+01  8.103020E+02 -1.154883E+04  6.622520E+02  1.031823E+04
       395   6  7.762761E+05 -1.256049E+01  5.371474E+02 -2.051004E+04  2.592598E+02  8.548508E+03
       395   7  1.044931E+06  6.600688E+04  6.263453E+04 -2.047750E+04 -2.296367E+02  1.206625E+04
       395   8  1.009509E+06  5.723737E+04  5.407729E+04 -1.152187E+04 -6.478433E+02  1.031785E+04
       395   9  9.742087E+05  4.859374E+04  4.583097E+04 -2.048824E+04 -1.066650E+03  8.548341E+03
       395  10  5.076792E+05 -6.585196E+04 -5.987269E+04 -2.054260E+04  9.326360E-11  3.537388E-11
       395  11  5.429722E+05 -5.729691E+04 -5.246044E+04 -1.157580E+04  2.204289E-10  8.170776E-11
       395  12  5.783797E+05 -4.862166E+04 -4.475938E+04 -2.053184E+04  1.258196E-10  1.405433E-10
       395  13  7.762715E+05  7.988113E+01  1.383133E+03 -2.051006E+04  3.704263E-11  7.813007E-11
       395  14  7.762155E+05 -2.794147E+01  8.101010E+02 -1.154884E+04  2.529273E-12  9.898150E-11
       395  15  7.762761E+05 -1.263901E+01  5.370099E+02 -2.051004E+04 -2.646458E-11  4.143579E-11
       395  16  1.044931E+06  6.600673E+04  6.263425E+04 -2.047750E+04 -9.628611E-11  7.257832E-11
       395  17  1.009509E+06  5.723725E+04  5.407708E+04 -1.152187E+04 -1.172744E-10  3.801324E-11
       395  18  9.742086E+05  4.859367E+04  4.583083E+04 -2.048823E+04 -9.261087E-11 -5.965661E-11
       395  19  5.076792E+05 -6.585180E+04 -5.987240E+04 -2.054258E+04 -2.358323E+03 -1.206742E+04
       395  20  5.429723E+05 -5.729679E+04 -5.246023E+04 -1.157579E+04 -1.971860E+03 -1.031861E+04
       395  21  5.783798E+05 -4.862158E+04 -4.475924E+04 -2.053183E+04 -1.584751E+03 -8.548675E+03
       395  22  7.762715E+05  8.003785E+01  1.383409E+03 -2.051005E+04 -1.064620E+03 -1.206684E+04
       395  23  7.762155E+05 -2.782698E+01  8.103020E+02 -1.154883E+04 -6.622520E+02 -1.031823E+04
       395  24  7.762761E+05 -1.256049E+01  5.371474E+02 -2.051004E+04 -2.592598E+02 -8.548508E+03
       395  25  1.044931E+06  6.600688E+04  6.263453E+04 -2.047750E+04  2.296367E+02 -1.206625E+04
       395  26  1.009509E+06  5.723737E+04  5.407729E+04 -1.152187E+04  6.478433E+02 -1.031785E+04
       395  27  9.742087E+05  4.859374E+04  4.583097E+04 -2.048824E+04  1.066650E+03 -8.548341E+03
       396   1  6.111905E+05 -4.050814E+04 -3.713132E+04 -2.047411E+04  1.482004E+03  7.516309E+03
       396   2  6.462068E+05 -3.193233E+04 -2.927777E+04 -1.158078E+04  1.272981E+03  5.753880E+03
       396   3  6.812612E+05 -2.334075E+04 -2.128308E+04 -2.045449E+04  1.063593E+03  3.994060E+03
       396   4  7.762611E+05 -2.410702E-01  4.639572E+02 -2.047546E+04  1.688416E+02  7.516248E+03
       396   5  7.762442E+05 -5.958247E+00  4.189104E+02 -1.159205E+04 -3.832473E+01  5.753935E+03
       396   6  7.762635E+05  3.706686E+00  5.135925E+02 -2.047546E+04 -2.458456E+02  3.994236E+03
       396   7  9.413570E+05  4.050578E+04  3.805747E+04 -2.047682E+04 -1.144666E+03  7.516187E+03
       396   8  9.062974E+05  3.191924E+04  3.011449E+04 -1.160333E+04 -1.349903E+03  5.753990E+03
       396   9  8.712742E+05  2.334753E+04  2.230968E+04 -2.049644E+04 -1.555483E+03  3.994411E+03
       396  10  6.111904E+05 -4.050820E+04 -3.713143E+04 -2.047412E+04 -1.114050E-10 -9.130797E-11
       396  11  6.462067E+05 -3.193236E+04 -2.927783E+04 -1.158078E+04  7.472190E-11  1.451833E-10
       396  12  6.812612E+05 -2.334077E+04 -2.128312E+04 -2.045450E+04  1.278906E-10 -1.921476E-10
       396  13  7.762611E+05 -3.017647E-01  4.638510E+02 -2.047547E+04  3.966423E-11 -8.013724E-11
       396  14  7.762442E+05 -5.993812E+00  4.188482E+02 -1.159205E+04 -8.198737E-11  1.467804E-11
       396  15  7.762635E+05  3.689532E+00  5.135624E+02 -2.047546E+04 -1.578978E-10  1.586120E-10
       396  16  9.413570E+05  4.050571E+04  3.805736E+04 -2.047681E+04  1.067247E-10 -1.614055E-10
       396  17  9.062974E+05  3.191920E+04  3.011442E+04 -1.160332E+04  9.801050E-11  2.550328E-11
       396  18  8.712742E+05  2.334752E+04  2.230965E+04 -2.049643E+04 -1.451665E-10  3.767582E-11
       396  19  6.111905E+05 -4.050814E+04 -3.713132E+04 -2.047411E+04 -1.482004E+03 -7.516309E+03
       396  20  6.462068E+05 -3.193233E+04 -2.927777E+04 -1.158078E+04 -1.272981E+03 -5.753880E+03
       396  21  6.812612E+05 -2.334075E+04 -2.128308E+04 -2.045449E+04 -1.063593E+03 -3.994060E+03
       396  22  7.762611E+05 -2.410702E-01  4.639572E+02 -2.047546E+04 -1.688416E+02 -7.516248E+03
       396  23  7.762442E+05 -5.958247E+00  4.189104E+02 -1.159205E+04  3.832473E+01 -5.753935E+03
       396  24  7.762635E+05  3.706686E+00  5.135925E+02 -2.047546E+04  2.458456E+02 -3.994236E+03
       396  25  9.413570E+05  4.050578E+04  3.805747E+04 -2.047682E+04  1.144666E+03 -7.516187E+03
       396  26  9.062974E+05  3.191924E+04  3.011449E+04 -1.160333E+04  1.349903E+03 -5.753990E+03
       396  27  8.712742E+05  2.334753E+04  2.230968E+04 -2.049644E+04  1.555483E+03 -3.994411E+03
       397   1  7.138866E+05 -1.529381E+04 -1.352834E+04 -2.043465E+04  9.593018E+02  2.971360E+03
       397   2  7.487526E+05 -6.755575E+03 -5.300674E+03 -1.158019E+04  4.749141E+02  1.216154E+03
       397   3  7.836888E+05  1.833584E+03  3.253115E+03 -2.042200E+04 -9.574489E+00 -5.373534E+02
       397   4  7.762720E+05  1.768884E+00  6.157510E+02 -2.045978E+04 -3.484221E+02  2.971581E+03
       397   5  7.762377E+05 -7.933896E+00  9.756590E+02 -1.161166E+04 -8.315958E+02  1.216397E+03
       397   6  7.762723E+05  3.315689E+01  1.660901E+03 -2.045976E+04 -1.314844E+03 -5.370832E+02
       397   7  8.386611E+05  1.529708E+04  1.475960E+04 -2.048490E+04 -1.656276E+03  2.971802E+03
       397   8  8.037236E+05  6.739656E+03  7.251949E+03 -1.164313E+04 -2.138163E+03  1.216641E+03
       397   9  7.688559E+05 -1.767273E+03  6.869074E+01 -2.049752E+04 -2.620097E+03 -5.368129E+02
       397  10  7.138866E+05 -1.529382E+04 -1.352836E+04 -2.043465E+04 -1.387789E-10 -5.578327E-11
       397  11  7.487526E+05 -6.755576E+03 -5.300677E+03 -1.158019E+04  2.921465E-11  1.523215E-10
       397  12  7.836888E+05  1.833584E+03  3.253115E+03 -2.042200E+04  9.746333E-11  1.119030E-10
       397  13  7.762720E+05  1.759366E+00  6.157342E+02 -2.045978E+04 -1.327176E-10  1.048578E-10
       397  14  7.762377E+05 -7.935671E+00  9.756549E+02 -1.161166E+04 -2.596837E-11  9.797160E-11
       397  15  7.762723E+05  3.315612E+01  1.660898E+03 -2.045977E+04 -2.087596E-10  7.723446E-11
       397  16  8.386611E+05  1.529707E+04  1.475958E+04 -2.048490E+04  5.793800E-11  2.284045E-11
       397  17  8.037236E+05  6.739653E+03  7.251937E+03 -1.164312E+04  5.500255E-11  8.259586E-11
       397  18  7.688559E+05 -1.767275E+03  6.867731E+01 -2.049753E+04 -1.238854E-10 -9.933962E-11
       397  19  7.138866E+05 -1.529381E+04 -1.352834E+04 -2.043465E+04 -9.593018E+02 -2.971360E+03
       397  20  7.487526E+05 -6.755575E+03 -5.300674E+03 -1.158019E+04 -4.749141E+02 -1.216154E+03
       397  21  7.836888E+05  1.833584E+03  3.253115E+03 -2.042200E+04  9.574489E+00  5.373534E+02
       397  22  7.762720E+05  1.768884E+00  6.157510E+02 -2.045978E+04  3.484221E+02 -2.971581E+03
       397  23  7.762377E+05 -7.933896E+00  9.756590E+02 -1.161166E+04  8.315958E+02 -1.216397E+03
       397  24  7.762723E+05  3.315689E+01  1.660901E+03 -2.045976E+04  1.314844E+03  5.370832E+02
       397  25  8.386611E+05  1.529708E+04  1.475960E+04 -2.048490E+04  1.656276E+03 -2.971802E+03
       397  26  8.037236E+05  6.739656E+03  7.251949E+03 -1.164313E+04  2.138163E+03 -1.216641E+03
       397  27  7.688559E+05 -1.767273E+03  6.869074E+01 -2.049752E+04  2.620097E+03  5.368129E+02
       398   1  8.163359E+05  9.810323E+03  1.140035E+04 -2.033456E+04 -3.481576E+02 -1.560450E+03
       398   2  8.510821E+05  1.832980E+04  2.084859E+04 -1.155918E+04 -2.219590E+03 -3.312971E+03
       398   3  8.862240E+05  2.746828E+04  3.166764E+04 -2.050069E+04 -4.090899E+03 -5.048874E+03
       398   4  7.763439E+05 -2.753464E+01  2.167151E+03 -2.046442E+04 -1.659705E+03 -1.560193E+03
       398   5  7.761463E+05 -6.612185E+01  3.736616E+03 -1.160585E+04 -3.518575E+03 -3.312786E+03
       398   6  7.763415E+05  5.124099E+02  6.668538E+03 -2.046432E+04 -5.377220E+03 -5.048756E+03
       398   7  7.363535E+05 -9.865503E+03 -7.066144E+03 -2.059426E+04 -2.971168E+03 -1.559934E+03
       398   8  7.012156E+05 -1.846243E+04 -1.337572E+04 -1.165252E+04 -4.817405E+03 -3.312600E+03
       398   9  6.664702E+05 -2.644429E+04 -1.833134E+04 -2.042795E+04 -6.663315E+03 -5.048638E+03
       398  10  8.163359E+05  9.810320E+03  1.140034E+04 -2.033456E+04 -9.539165E-11  4.923150E-12
       398  11  8.510821E+05  1.832978E+04  2.084856E+04 -1.155918E+04  5.798940E-11  1.138204E-11
       398  12  8.862240E+05  2.746825E+04  3.166756E+04 -2.050071E+04 -4.559484E-11 -9.936027E-11
       398  13  7.763439E+05 -2.753800E+01  2.167141E+03 -2.046442E+04 -9.419665E-11 -5.421964E-11
       398  14  7.761462E+05 -6.613696E+01  3.736572E+03 -1.160586E+04  7.238158E-11 -2.414880E-10
       398  15  7.763415E+05  5.123747E+02  6.668436E+03 -2.046434E+04 -1.130769E-10 -1.128992E-10
       398  16  7.363535E+05 -9.865508E+03 -7.066165E+03 -2.059427E+04  6.091147E-11 -1.156141E-10
       398  17  7.012155E+05 -1.846245E+04 -1.337578E+04 -1.165254E+04 -5.502262E-12 -2.535560E-10
       398  18  6.664701E+05 -2.644433E+04 -1.833147E+04 -2.042797E+04 -1.237745E-10 -1.560986E-10
       398  19  8.163359E+05  9.810323E+03  1.140035E+04 -2.033456E+04  3.481576E+02  1.560450E+03
       398  20  8.510821E+05  1.832980E+04  2.084859E+04 -1.155918E+04  2.219590E+03  3.312971E+03
       398  21  8.862240E+05  2.746828E+04  3.166764E+04 -2.050069E+04  4.090899E+03  5.048874E+03
       398  22  7.763439E+05 -2.753464E+01  2.167151E+03 -2.046442E+04  1.659705E+03  1.560193E+03
       398  23  7.761463E+05 -6.612185E+01  3.736616E+03 -1.160585E+04  3.518575E+03  3.312786E+03
       398  24  7.763415E+05  5.124099E+02  6.668538E+03 -2.046432E+04  5.377220E+03  5.048756E+03
       398  25  7.363535E+05 -9.865503E+03 -7.066144E+03 -2.059426E+04  2.971168E+03  1.559934E+03
       398  26  7.012156E+05 -1.846243E+04 -1.337572E+04 -1.165252E+04  4.817405E+03  3.312600E+03
       398  27  6.664702E+05 -2.644429E+04 -1.833134E+04 -2.042795E+04  6.663315E+03  5.048638E+03
       399   1  9.195233E+05  3.458638E+04  4.129670E+04 -1.918636E+04 -5.316334E+03 -6.118268E+03
       399   2  9.531324E+05  4.305188E+04  5.545873E+04 -1.222385E+04 -1.311535E+04 -7.818034E+03
       399   3  9.898590E+05  5.986414E+04  7.678255E+04 -2.307327E+04 -2.091454E+04 -9.131353E+03
       399   4  7.769341E+05 -4.338955E+02  8.647371E+03 -2.048552E+04 -6.725694E+03 -6.118198E+03
       399   5  7.753963E+05 -5.816383E+02  1.485528E+04 -1.157943E+04 -1.423497E+04 -7.818169E+03
       399   6  7.769252E+05  7.568552E+03  2.802553E+04 -2.048545E+04 -2.174398E+04 -9.131686E+03
       399   7  6.343637E+05 -3.545558E+04 -2.400329E+04 -2.178437E+04 -8.134734E+03 -6.118123E+03
       399   8  5.976893E+05 -4.421735E+04 -2.575023E+04 -1.093520E+04 -1.535427E+04 -7.818306E+03
       399   9  5.640334E+05 -4.473016E+04 -2.073446E+04 -1.789853E+04 -2.257313E+04 -9.132027E+03
       399  10  9.195232E+05  3.458634E+04  4.129658E+04 -1.918639E+04  6.632817E-11 -1.057837E-10
       399  11  9.531322E+05  4.305177E+04  5.545830E+04 -1.222394E+04  1.673908E-10  3.726495E-11
       399  12  9.898585E+05  5.986393E+04  7.678158E+04 -2.307342E+04 -1.343889E-10  1.569076E-10
       399  13  7.769340E+05 -4.339479E+02  8.647215E+03 -2.048555E+04 -1.933667E-10 -8.196969E-11
       399  14  7.753960E+05 -5.817583E+02  1.485479E+04 -1.157952E+04 -6.592722E-11 -1.432441E-10
       399  15  7.769247E+05  7.568336E+03  2.802449E+04 -2.048561E+04  1.324422E-10  2.267500E-10
       399  16  6.343636E+05 -3.545564E+04 -2.400348E+04 -2.178441E+04 -2.291359E-11 -2.095073E-10
       399  17  5.976891E+05 -4.421748E+04 -2.575079E+04 -1.093530E+04 -1.475585E-10  6.745209E-12
       399  18  5.640328E+05 -4.473038E+04 -2.073557E+04 -1.789870E+04  2.015599E-10  1.257375E-10
       399  19  9.195233E+05  3.458638E+04  4.129670E+04 -1.918636E+04  5.316334E+03  6.118268E+03
       399  20  9.531324E+05  4.305188E+04  5.545873E+04 -1.222385E+04  1.311535E+04  7.818034E+03
       399  21  9.898590E+05  5.986414E+04  7.678255E+04 -2.307327E+04  2.091454E+04  9.131353E+03
       399  22  7.769341E+05 -4.338955E+02  8.647371E+03 -2.048552E+04  6.725694E+03  6.118198E+03
       399  23  7.753963E+05 -5.816383E+02  1.485528E+04 -1.157943E+04  1.423497E+04  7.818169E+03
       399  24  7.769252E+05  7.568552E+03  2.802553E+04 -2.048545E+04  2.174398E+04  9.131686E+03
       399  25  6.343637E+05 -3.545558E+04 -2.400329E+04 -2.178437E+04  8.134734E+03  6.118123E+03
       399  26  5.976893E+05 -4.421735E+04 -2.575023E+04 -1.093520E+04  1.535427E+04  7.818306E+03
       399  27  5.640334E+05 -4.473016E+04 -2.073446E+04 -1.789853E+04  2.257313E+04  9.132027E+03
       400   1  1.029453E+06  5.460765E+04  9.094291E+04 -4.854740E+03 -2.353077E+04 -1.109448E+04
       400   2  1.048478E+06  6.269527E+04  1.226150E+05 -2.588566E+04 -6.055375E+04 -1.152131E+04
       400   3  1.100735E+06  1.843070E+05  2.067542E+05 -6.466763E+04 -9.758160E+04 -3.804369E+03
       400   4  7.834021E+05 -5.771847E+03  3.486610E+04 -2.046392E+04 -2.687137E+04 -1.109449E+04
       400   5  7.672829E+05 -6.409237E+03  5.796657E+04 -1.160377E+04 -5.781760E+04 -1.152249E+04
       400   6  7.833559E+05  1.054484E+05  1.293338E+05 -2.049249E+04 -8.876620E+04 -3.808639E+03
       400   7  5.374082E+05 -6.615461E+04 -2.121447E+04 -3.606687E+04 -3.021065E+04 -1.109434E+04
       400   8  4.861617E+05 -7.551849E+04 -6.686975E+03  2.671617E+03 -5.508268E+04 -1.152354E+04
       400   9  4.660726E+05  2.658977E+04  5.190729E+04  2.366004E+04 -7.995527E+04 -3.811658E+03
       400  10  1.029452E+06  5.460737E+04  9.094164E+04 -4.854950E+03  7.734725E-11  1.151630E-10
       400  11  1.048474E+06  6.269414E+04  1.226079E+05 -2.588622E+04 -3.929593E-11 -1.044145E-10
       400  12  1.100725E+06  1.843045E+05  2.067363E+05 -6.466793E+04  2.081099E-10 -1.135053E-11
       400  13  7.834013E+05 -5.772173E+03  3.486452E+04 -2.046416E+04  1.521742E-10  2.149862E-10
       400  14  7.672793E+05 -6.410276E+03  5.796005E+04 -1.160430E+04 -6.544009E-11  4.605172E-11
       400  15  7.833474E+05  1.054463E+05  1.293189E+05 -2.049276E+04  4.213683E-10  4.241667E-11
       400  16  5.374072E+05 -6.615499E+04 -2.121641E+04 -3.606714E+04 -1.054370E-10  2.315960E-10
       400  17  4.861584E+05 -7.551944E+04 -6.692922E+03  2.671106E+03  6.271796E-11  2.379092E-10
       400  18  4.660657E+05  2.658804E+04  5.189525E+04  2.365980E+04  3.465482E-11  9.294289E-11
       400  19  1.029453E+06  5.460765E+04  9.094291E+04 -4.854740E+03  2.353077E+04  1.109448E+04
       400  20  1.048478E+06  6.269527E+04  1.226150E+05 -2.588566E+04  6.055375E+04  1.152131E+04
       400  21  1.100735E+06  1.843070E+05  2.067542E+05 -6.466763E+04  9.758160E+04  3.804369E+03
       400  22  7.834021E+05 -5.771847E+03  3.486610E+04 -2.046392E+04  2.687137E+04  1.109449E+04
       400  23  7.672829E+05 -6.409237E+03  5.796657E+04 -1.160377E+04  5.781760E+04  1.152249E+04
       400  24  7.833559E+05  1.054484E+05  1.293338E+05 -2.049249E+04  8.876620E+04  3.808639E+03
       400  25  5.374082E+05 -6.615461E+04 -2.121447E+04 -3.606687E+04  3.021065E+04  1.109434E+04
       400  26  4.861617E+05 -7.551849E+04 -6.686975E+03  2.671617E+03  5.508268E+04  1.152354E+04
       400  27  4.660726E+05  2.658977E+04  5.190729E+04  2.366004E+04  7.995527E+04  3.811658E+03
       401   1 -2.139979E+05 -9.545159E+04 -9.203996E+04 -1.802298E+04 -6.148377E+03  4.971032E+03
       401   2 -1.785958E+05 -9.221801E+04 -8.229763E+04 -1.096960E+04 -2.973686E+02  1.533864E+04
       401   3 -1.424771E+05 -8.339519E+04 -7.495290E+04 -2.160450E+04  5.557142E+03  1.528830E+04
       401   4  1.955376E+05  6.451283E+03  7.937472E+03 -2.064649E+04  5.438869E+03  4.974399E+03
       401   5  1.945112E+05 -4.267363E+02  3.550014E+03 -1.180192E+04  3.540634E+03  1.533862E+04
       401   6  1.955453E+05 -3.717875E+02  2.146138E+03 -2.064499E+04  1.645688E+03  1.528772E+04
       401   7  6.052263E+05  1.083419E+05  1.079032E+05 -2.327175E+04  1.703374E+04  4.977668E+03
       401   8  5.677471E+05  9.135482E+04  8.938850E+04 -1.263475E+04  7.380925E+03  1.533859E+04
       401   9  5.336738E+05  8.264371E+04  7.923778E+04 -1.968495E+04 -2.267876E+03  1.528712E+04
       401  10 -2.139980E+05 -9.545163E+04 -9.204007E+04 -1.802295E+04 -7.346404E-12  7.613046E-11
       401  11 -1.785959E+05 -9.221826E+04 -8.229808E+04 -1.096959E+04 -9.267390E-11 -3.750997E-11
       401  12 -1.424772E+05 -8.339545E+04 -7.495339E+04 -2.160456E+04 -3.463380E-12 -2.017037E-10
       401  13  1.955376E+05  6.451248E+03  7.937370E+03 -2.064651E+04  3.700274E-10 -1.028408E-10
       401  14  1.945112E+05 -4.269924E+02  3.549549E+03 -1.180196E+04 -1.191112E-10  1.049953E-10
       401  15  1.955453E+05 -3.720393E+02  2.145694E+03 -2.064501E+04  1.540521E-10 -8.311444E-11
       401  16  6.052260E+05  1.083418E+05  1.079026E+05 -2.327182E+04  2.772138E-10  1.499525E-10
       401  17  5.677470E+05  9.135455E+04  8.938796E+04 -1.263484E+04 -2.349782E-11 -8.561976E-11
       401  18  5.336737E+05  8.264346E+04  7.923733E+04 -1.968492E+04 -9.078712E-11 -1.980940E-10
       401  19 -2.139979E+05 -9.545159E+04 -9.203996E+04 -1.802298E+04  6.148377E+03 -4.971032E+03
       401  20 -1.785958E+05 -9.221801E+04 -8.229763E+04 -1.096960E+04  2.973686E+02 -1.533864E+04
       401  21 -1.424771E+05 -8.339519E+04 -7.495290E+04 -2.160450E+04 -5.557142E+03 -1.528830E+04
       401  22  1.955376E+05  6.451283E+03  7.937472E+03 -2.064649E+04 -5.438869E+03 -4.974399E+03
       401  23  1.945112E+05 -4.267363E+02  3.550014E+03 -1.180192E+04 -3.540634E+03 -1.533862E+04
       401  24  1.955453E+05 -3.717875E+02  2.146138E+03 -2.064499E+04 -1.645688E+03 -1.528772E+04
       401  25  6.052263E+05  1.083419E+05  1.079032E+05 -2.327175E+04 -1.703374E+04 -4.977668E+03
       401  26  5.677471E+05  9.135482E+04  8.938850E+04 -1.263475E+04 -7.380925E+03 -1.533859E+04
       401  27  5.336738E+05  8.264371E+04  7.923778E+04 -1.968495E+04  2.267876E+03 -1.528712E+04
       402   1 -1.094858E+05 -7.443936E+04 -6.810148E+04 -2.054185E+04  2.038237E+03  1.306070E+04
       402   2 -7.404773E+04 -6.616456E+04 -6.060203E+04 -1.164203E+04  1.944674E+03  1.185756E+04
       402   3 -3.845065E+04 -5.743366E+04 -5.292062E+04 -2.074299E+04  1.850376E+03  1.015509E+04
       402   4  1.951418E+05  4.497226E+02  1.726446E+03 -2.071479E+04  1.329386E+03  1.306031E+04
       402   5  1.950335E+05 -4.665322E+01  9.208789E+02 -1.171468E+04  8.641654E+02  1.185739E+04
       402   6  1.951470E+05 -2.258180E+01  5.551485E+02 -2.071486E+04  3.982084E+02  1.015525E+04
       402   7  4.998553E+05  7.533235E+04  7.154827E+04 -2.088782E+04  6.201901E+02  1.305991E+04
       402   8  4.641819E+05  6.606622E+04  6.243905E+04 -1.178736E+04 -2.168079E+02  1.185722E+04
       402   9  4.287952E+05  5.738470E+04  5.402735E+04 -2.068672E+04 -1.054501E+03  1.015541E+04
       402  10 -1.094859E+05 -7.443955E+04 -6.810181E+04 -2.054188E+04 -2.662177E-10 -1.906629E-10
       402  11 -7.404777E+04 -6.616471E+04 -6.060230E+04 -1.164205E+04  6.451565E-11  1.399092E-10
       402  12 -3.845068E+04 -5.743377E+04 -5.292082E+04 -2.074300E+04  1.182282E-10  1.254578E-10
       402  13  1.951417E+05  4.495390E+02  1.726122E+03 -2.071481E+04 -1.850982E-10 -1.544689E-10
       402  14  1.950335E+05 -4.680441E+01  9.206132E+02 -1.171469E+04  3.137737E-10 -1.230766E-10
       402  15  1.951470E+05 -2.269259E+01  5.549544E+02 -2.071486E+04 -4.031472E-10  6.891335E-11
       402  16  4.998553E+05  7.533216E+04  7.154795E+04 -2.088782E+04  2.576474E-10 -1.198720E-10
       402  17  4.641819E+05  6.606607E+04  6.243879E+04 -1.178736E+04 -2.553474E-11  3.542310E-11
       402  18  4.287952E+05  5.738459E+04  5.402715E+04 -2.068671E+04 -3.207711E-10 -1.420514E-10
       402  19 -1.094858E+05 -7.443936E+04 -6.810148E+04 -2.054185E+04 -2.038237E+03 -1.306070E+04
       402  20 -7.404773E+04 -6.616456E+04 -6.060203E+04 -1.164203E+04 -1.944674E+03 -1.185756E+04
       402  21 -3.845065E+04 -5.743366E+04 -5.292062E+04 -2.074299E+04 -1.850376E+03 -1.015509E+04
       402  22  1.951418E+05  4.497226E+02  1.726446E+03 -2.071479E+04 -1.329386E+03 -1.306031E+04
       402  23  1.950335E+05 -4.665322E+01  9.208789E+02 -1.171468E+04 -8.641654E+02 -1.185739E+04
       402  24  1.951470E+05 -2.258180E+01  5.551485E+02 -2.071486E+04 -3.982084E+02 -1.015525E+04
       402  25  4.998553E+05  7.533235E+04  7.154827E+04 -2.088782E+04 -6.201901E+02 -1.305991E+04
       402  26  4.641819E+05  6.606622E+04  6.243905E+04 -1.178736E+04  2.168079E+02 -1.185722E+04
       402  27  4.287952E+05  5.738470E+04  5.402735E+04 -2.068672E+04  1.054501E+03 -1.015541E+04
       403   1 -5.365390E+03 -4.920024E+04 -4.528526E+04 -2.065555E+04  1.607152E+03  9.059586E+03
       403   2  3.004220E+04 -4.055169E+04 -3.743818E+04 -1.167665E+04  1.483919E+03  7.304723E+03
       403   3  6.547657E+04 -3.185396E+04 -2.949929E+04 -2.066586E+04  1.360222E+03  5.527000E+03
       403   4  1.951076E+05  3.547311E+01  4.396208E+02 -2.070762E+04  3.100828E+02  9.059829E+03
       403   5  1.950949E+05 -1.069508E+00  2.815973E+02 -1.172371E+04  1.697702E+02  7.305120E+03
       403   6  1.951107E+05  1.459060E+01  2.272721E+02 -2.070763E+04  2.899982E+01  5.527559E+03
       403   7  3.956178E+05  4.926840E+04  4.616188E+04 -2.075969E+04 -9.874013E+02  9.060072E+03
       403   8  3.601728E+05  4.054766E+04  3.799960E+04 -1.177078E+04 -1.144725E+03  7.305517E+03
       403   9  3.247604E+05  3.188197E+04  2.995274E+04 -2.074939E+04 -1.302498E+03  5.528118E+03
       403  10 -5.365415E+03 -4.920033E+04 -4.528542E+04 -2.065556E+04 -6.324047E-12  5.591876E-11
       403  11  3.004219E+04 -4.055174E+04 -3.743828E+04 -1.167666E+04  6.429620E-11  2.189095E-10
       403  12  6.547656E+04 -3.185400E+04 -2.949935E+04 -2.066587E+04  9.995766E-11 -2.075446E-10
       403  13  1.951075E+05  3.538494E+01  4.394664E+02 -2.070762E+04 -2.917682E-10 -1.622237E-11
       403  14  1.950949E+05 -1.126825E+00  2.814969E+02 -1.172371E+04 -8.649637E-11  2.874480E-10
       403  15  1.951107E+05  1.455779E+01  2.272147E+02 -2.070763E+04 -7.470738E-10  2.901053E-10
       403  16  3.956178E+05  4.926832E+04  4.616173E+04 -2.075969E+04 -3.652471E-11 -1.901901E-10
       403  17  3.601728E+05  4.054760E+04  3.799949E+04 -1.177077E+04  7.033095E-11 -1.198337E-10
       403  18  3.247604E+05  3.188194E+04  2.995267E+04 -2.074939E+04 -1.933013E-10 -1.475502E-10
       403  19 -5.365390E+03 -4.920024E+04 -4.528526E+04 -2.065555E+04 -1.607152E+03 -9.059586E+03
       403  20  3.004220E+04 -4.055169E+04 -3.743818E+04 -1.167665E+04 -1.483919E+03 -7.304723E+03
       403  21  6.547657E+04 -3.185396E+04 -2.949929E+04 -2.066586E+04 -1.360222E+03 -5.527000E+03
       403  22  1.951076E+05  3.547311E+01  4.396208E+02 -2.070762E+04 -3.100828E+02 -9.059829E+03
       403  23  1.950949E+05 -1.069508E+00  2.815973E+02 -1.172371E+04 -1.697702E+02 -7.305120E+03
       403  24  1.951107E+05  1.459060E+01  2.272721E+02 -2.070763E+04 -2.899982E+01 -5.527559E+03
       403  25  3.956178E+05  4.926840E+04  4.616188E+04 -2.075969E+04  9.874013E+02 -9.060072E+03
       403  26  3.601728E+05  4.054766E+04  3.799960E+04 -1.177078E+04  1.144725E+03 -7.305517E+03
       403  27  3.247604E+05  3.188197E+04  2.995274E+04 -2.074939E+04  1.302498E+03 -5.528118E+03
       404   1  9.852434E+04 -2.368851E+04 -2.174244E+04 -2.066518E+04  1.310826E+03  4.487930E+03
       404   2  1.338962E+05 -1.502882E+04 -1.371251E+04 -1.170102E+04  1.174827E+03  2.709297E+03
       404   3  1.692717E+05 -6.346589E+03 -5.593248E+03 -2.067978E+04  1.038655E+03  9.300170E+02
       404   4  1.951069E+05  1.846576E+01  2.251855E+02 -2.070207E+04 -1.247153E+01  4.488552E+03
       404   5  1.951059E+05  8.342194E+00  2.745419E+02 -1.173066E+04 -1.489881E+02  2.709973E+03
       404   6  1.951080E+05  2.106823E+01  4.137817E+02 -2.070206E+04 -2.856702E+02  9.307520E+02
       404   7  2.916981E+05  2.372480E+04  2.219221E+04 -2.073896E+04 -1.335973E+03  4.489174E+03
       404   8  2.563191E+05  1.504525E+04  1.426136E+04 -1.176030E+04 -1.472932E+03  2.710649E+03
       404   9  2.209450E+05  6.388679E+03  6.420773E+03 -2.072435E+04 -1.610050E+03  9.314870E+02
       404  10  9.852433E+04 -2.368853E+04 -2.174248E+04 -2.066518E+04 -1.038459E-10 -1.219483E-10
       404  11  1.338962E+05 -1.502883E+04 -1.371253E+04 -1.170102E+04 -8.117195E-11  7.425717E-11
       404  12  1.692717E+05 -6.346590E+03 -5.593252E+03 -2.067978E+04 -4.825503E-11  2.489709E-12
       404  13  1.951069E+05  1.844412E+01  2.251476E+02 -2.070207E+04  6.019653E-11 -3.408464E-10
       404  14  1.951059E+05  8.334301E+00  2.745281E+02 -1.173066E+04  2.324307E-10  1.701058E-10
       404  15  1.951080E+05  2.106727E+01  4.137800E+02 -2.070206E+04 -7.137627E-10 -2.006577E-10
       404  16  2.916981E+05  2.372478E+04  2.219217E+04 -2.073895E+04 -5.672677E-11  1.614049E-11
       404  17  2.563191E+05  1.504524E+04  1.426134E+04 -1.176030E+04  7.296113E-11  6.770193E-11
       404  18  2.209450E+05  6.388678E+03  6.420767E+03 -2.072435E+04 -4.090700E-11 -4.732287E-10
       404  19  9.852434E+04 -2.368851E+04 -2.174244E+04 -2.066518E+04 -1.310826E+03 -4.487930E+03
       404  20  1.338962E+05 -1.502882E+04 -1.371251E+04 -1.170102E+04 -1.174827E+03 -2.709297E+03
       404  21  1.692717E+05 -6.346589E+03 -5.593248E+03 -2.067978E+04 -1.038655E+03 -9.300170E+02
       404  22  1.951069E+05  1.846576E+01  2.251855E+02 -2.070207E+04  1.247153E+01 -4.488552E+03
       404  23  1.951059E+05  8.342194E+00  2.745419E+02 -1.173066E+04  1.489881E+02 -2.709973E+03
       404  24  1.951080E+05  2.106823E+01  4.137817E+02 -2.070206E+04  2.856702E+02 -9.307520E+02
       404  25  2.916981E+05  2.372480E+04  2.219221E+04 -2.073896E+04  1.335973E+03 -4.489174E+03
       404  26  2.563191E+05  1.504525E+04  1.426136E+04 -1.176030E+04  1.472932E+03 -2.710649E+03
       404  27  2.209450E+05  6.388679E+03  6.420773E+03 -2.072435E+04  1.610050E+03 -9.314870E+02
       405   1  2.023125E+05  1.806932E+03  2.274167E+03 -2.068706E+04  9.527575E+02 -1.056982E+02
       405   2  2.376583E+05  1.045714E+04  1.061381E+04 -1.172046E+04  5.118871E+02 -1.884598E+03
       405   3  2.730563E+05  1.916767E+04  1.925043E+04 -2.069473E+04  7.110185E+01 -3.662754E+03
       405   4  1.951187E+05  1.909879E+01  5.270668E+02 -2.070165E+04 -3.715326E+02 -1.049578E+02
       405   5  1.950930E+05  9.920199E-01  8.878200E+02 -1.173118E+04 -8.118647E+02 -1.883899E+03
       405   6  1.951179E+05  4.306420E+01  1.545123E+03 -2.070163E+04 -1.252087E+03 -3.662093E+03
       405   7  1.879250E+05 -1.768737E+03 -1.220031E+03 -2.071624E+04 -1.695807E+03 -1.042173E+02
       405   8  1.525295E+05 -1.045528E+04 -8.838282E+03 -1.174188E+04 -2.135527E+03 -1.883201E+03
       405   9  1.171850E+05 -1.908196E+04 -1.616057E+04 -2.070854E+04 -2.575111E+03 -3.661431E+03
       405  10  2.023125E+05  1.806932E+03  2.274166E+03 -2.068706E+04 -3.545673E-10  3.661321E-10
       405  11  2.376583E+05  1.045714E+04  1.061380E+04 -1.172046E+04  1.571866E-11  7.149985E-10
       405  12  2.730563E+05  1.916766E+04  1.925041E+04 -2.069473E+04  4.285187E-10 -3.821206E-10
       405  13  1.951187E+05  1.909874E+01  5.270665E+02 -2.070165E+04 -1.502725E-10 -3.325841E-11
       405  14  1.950930E+05  9.880315E-01  8.878121E+02 -1.173118E+04 -1.460393E-10 -3.131589E-10
       405  15  1.951179E+05  4.304938E+01  1.545095E+03 -2.070164E+04 -7.262544E-10  9.052180E-11
       405  16  1.879250E+05 -1.768738E+03 -1.220036E+03 -2.071624E+04  2.032364E-10 -1.163870E-10
       405  17  1.525295E+05 -1.045529E+04 -8.838298E+03 -1.174189E+04  1.986409E-10 -2.283283E-10
       405  18  1.171850E+05 -1.908198E+04 -1.616061E+04 -2.070854E+04 -5.295400E-10 -2.384274E-12
       405  19  2.023125E+05  1.806932E+03  2.274167E+03 -2.068706E+04 -9.527575E+02  1.056982E+02
       405  20  2.376583E+05  1.045714E+04  1.061381E+04 -1.172046E+04 -5.118871E+02  1.884598E+03
       405  21  2.730563E+05  1.916767E+04  1.925043E+04 -2.069473E+04 -7.110185E+01  3.662754E+03
       405  22  1.951187E+05  1.909879E+01  5.270668E+02 -2.070165E+04  3.715326E+02  1.049578E+02
       405  23  1.950930E+05  9.920199E-01  8.878200E+02 -1.173118E+04  8.118647E+02  1.883899E+03
       405  24  1.951179E+05  4.306420E+01  1.545123E+03 -2.070163E+04  1.252087E+03  3.662093E+03
       405  25  1.879250E+05 -1.768737E+03 -1.220031E+03 -2.071624E+04  1.695807E+03  1.042173E+02
       405  26  1.525295E+05 -1.045528E+04 -8.838282E+03 -1.174188E+04  2.135527E+03  1.883201E+03
       405  27  1.171850E+05 -1.908196E+04 -1.616057E+04 -2.070854E+04  2.575111E+03  3.661431E+03
       406   1  3.061758E+05  2.726982E+04  2.748823E+04 -2.061966E+04 -2.432696E+02 -4.701228E+03
       406   2  3.414055E+05  3.590322E+04  3.695922E+04 -1.171963E+04 -2.005035E+03 -6.477635E+03
       406   3  3.770072E+05  4.513180E+04  4.772354E+04 -2.078091E+04 -3.766496E+03 -8.232204E+03
       406   4  1.951869E+05 -1.392248E+01  2.026181E+03 -2.070630E+04 -1.573984E+03 -4.700618E+03
       406   5  1.950013E+05 -5.898370E+01  3.507487E+03 -1.172539E+04 -3.319155E+03 -6.477170E+03
       406   6  1.951839E+05  4.884652E+02  6.270927E+03 -2.070607E+04 -5.063924E+03 -8.231876E+03
       406   7  8.420944E+04 -2.729852E+04 -2.343667E+04 -2.079291E+04 -2.904463E+03 -4.700008E+03
       406   8  4.861706E+04 -3.602267E+04 -2.994564E+04 -1.173115E+04 -4.632968E+03 -6.476704E+03
       406   9  1.339126E+04 -4.415716E+04 -3.518384E+04 -2.063124E+04 -6.360975E+03 -8.231550E+03
       406  10  3.061758E+05  2.726980E+04  2.748819E+04 -2.061966E+04 -9.169272E-13 -4.602119E-10
       406  11  3.414055E+05  3.590317E+04  3.695913E+04 -1.171964E+04  6.063212E-11 -6.033098E-11
       406  12  3.770071E+05  4.513172E+04  4.772339E+04 -2.078094E+04 -2.122766E-10  1.708901E-10
       406  13  1.951869E+05 -1.394688E+01  2.026135E+03 -2.070630E+04 -5.543064E-10  8.107422E-11
       406  14  1.950013E+05 -5.903171E+01  3.507388E+03 -1.172541E+04  9.281587E-12 -1.534347E-10
       406  15  1.951838E+05  4.883855E+02  6.270751E+03 -2.070610E+04 -7.855172E-11 -1.166126E-10
       406  16  8.420942E+04 -2.729855E+04 -2.343673E+04 -2.079292E+04 -2.109451E-10  5.219253E-11
       406  17  4.861703E+04 -3.602272E+04 -2.994576E+04 -1.173118E+04  2.072667E-10  4.597939E-10
       406  18  1.339119E+04 -4.415724E+04 -3.518404E+04 -2.063128E+04  1.729327E-10  1.410699E-10
       406  19  3.061758E+05  2.726982E+04  2.748823E+04 -2.061966E+04  2.432696E+02  4.701228E+03
       406  20  3.414055E+05  3.590322E+04  3.695922E+04 -1.171963E+04  2.005035E+03  6.477635E+03
       406  21  3.770072E+05  4.513180E+04  4.772354E+04 -2.078091E+04  3.766496E+03  8.232204E+03
       406  22  1.951869E+05 -1.392248E+01  2.026181E+03 -2.070630E+04  1.573984E+03  4.700618E+03
       406  23  1.950013E+05 -5.898370E+01  3.507487E+03 -1.172539E+04  3.319155E+03  6.477170E+03
       406  24  1.951839E+05  4.884652E+02  6.270927E+03 -2.070607E+04  5.063924E+03  8.231876E+03
       406  25  8.420944E+04 -2.729852E+04 -2.343667E+04 -2.079291E+04  2.904463E+03  4.700008E+03
       406  26  4.861706E+04 -3.602267E+04 -2.994564E+04 -1.173115E+04  4.632968E+03  6.476704E+03
       406  27  1.339126E+04 -4.415716E+04 -3.518384E+04 -2.063124E+04  6.360975E+03  8.231550E+03
       407   1  4.106887E+05  5.241038E+04  5.733489E+04 -1.953308E+04 -4.886379E+03 -9.324312E+03
       407   2  4.447153E+05  6.096444E+04  7.121741E+04 -1.236165E+04 -1.230826E+04 -1.102774E+04
       407   3  4.817027E+05  7.740435E+04  9.190562E+04 -2.318010E+04 -1.972981E+04 -1.225505E+04
       407   4  1.957434E+05 -4.028144E+02  8.134935E+03 -2.071301E+04 -6.331785E+03 -9.324043E+03
       407   5  1.942905E+05 -5.504994E+02  1.397756E+04 -1.171715E+04 -1.339669E+04 -1.102782E+04
       407   6  1.957374E+05  7.127862E+03  2.638034E+04 -2.071155E+04 -2.046085E+04 -1.225543E+04
       407   7 -1.915915E+04 -5.321921E+04 -4.106804E+04 -2.189253E+04 -7.776694E+03 -9.323768E+03
       407   8 -5.607617E+04 -6.206979E+04 -4.326638E+04 -1.107292E+04 -1.448469E+04 -1.102790E+04
       407   9 -9.015213E+04 -6.315430E+04 -3.915031E+04 -1.824415E+04 -2.119155E+04 -1.225581E+04
       407  10  4.106887E+05  5.241028E+04  5.733468E+04 -1.953311E+04  9.591907E-11  2.561885E-10
       407  11  4.447151E+05  6.096426E+04  7.121689E+04 -1.236175E+04 -1.274880E-10 -2.916706E-10
       407  12  4.817022E+05  7.740409E+04  9.190460E+04 -2.318029E+04 -1.409393E-10 -2.126196E-11
       407  13  1.957433E+05 -4.029186E+02  8.134697E+03 -2.071306E+04 -2.947396E-10  2.343755E-10
       407  14  1.942903E+05 -5.506782E+02  1.397700E+04 -1.171727E+04 -4.205786E-10  1.944612E-10
       407  15  1.957369E+05  7.127588E+03  2.637927E+04 -2.071175E+04 -2.113676E-10  3.325544E-11
       407  16 -1.915924E+04 -5.321932E+04 -4.106832E+04 -2.189259E+04  5.455527E-11  1.096028E-10
       407  17 -5.607642E+04 -6.206997E+04 -4.326701E+04 -1.107305E+04 -7.951271E-11  1.708938E-13
       407  18 -9.015265E+04 -6.315458E+04 -3.915144E+04 -1.824436E+04 -1.415895E-10  1.333651E-10
       407  19  4.106887E+05  5.241038E+04  5.733489E+04 -1.953308E+04  4.886379E+03  9.324312E+03
       407  20  4.447153E+05  6.096444E+04  7.121741E+04 -1.236165E+04  1.230826E+04  1.102774E+04
       407  21  4.817027E+05  7.740435E+04  9.190562E+04 -2.318010E+04  1.972981E+04  1.225505E+04
       407  22  1.957434E+05 -4.028144E+02  8.134935E+03 -2.071301E+04  6.331785E+03  9.324043E+03
       407  23  1.942905E+05 -5.504994E+02  1.397756E+04 -1.171715E+04  1.339669E+04  1.102782E+04
       407  24  1.957374E+05  7.127862E+03  2.638034E+04 -2.071155E+04  2.046085E+04  1.225543E+04
       407  25 -1.915915E+04 -5.321921E+04 -4.106804E+04 -2.189253E+04  7.776694E+03  9.323768E+03
       407  26 -5.607617E+04 -6.206979E+04 -4.326638E+04 -1.107292E+04  1.448469E+04  1.102790E+04
       407  27 -9.015213E+04 -6.315430E+04 -3.915031E+04 -1.824415E+04  2.119155E+04  1.225581E+04
       408   1  5.211783E+05  7.296705E+04  1.056323E+05 -5.984452E+03 -2.149496E+04 -1.442999E+04
       408   2  5.411083E+05  8.111410E+04  1.360920E+05 -2.525561E+04 -5.803861E+04 -1.456024E+04
       408   3  5.926592E+05  1.964719E+05  2.171472E+05 -6.224040E+04 -9.458754E+04 -4.744944E+03
       408   4  2.018344E+05 -5.436162E+03  3.282138E+04 -2.064683E+04 -2.528577E+04 -1.442978E+04
       408   5  1.866524E+05 -6.049625E+03  5.456847E+04 -1.179893E+04 -5.441226E+04 -1.456174E+04
       408   6  2.018193E+05  9.929063E+04  1.217800E+05 -2.066238E+04 -8.354133E+04 -4.748935E+03
       408   7 -1.174145E+05 -8.384563E+04 -3.999604E+04 -3.530159E+04 -2.907464E+04 -1.442939E+04
       408   8 -1.676869E+05 -9.322144E+04 -2.696324E+04  1.650019E+03 -5.078795E+04 -1.456309E+04
       408   9 -1.888774E+05  2.104699E+03  2.640320E+04  2.088942E+04 -7.250204E+04 -4.751450E+03
       408  10  5.211777E+05  7.296671E+04  1.056311E+05 -5.984701E+03  1.002036E-10  5.698464E-11
       408  11  5.411046E+05  8.111297E+04  1.360853E+05 -2.525629E+04 -1.460735E-11 -2.101615E-11
       408  12  5.926495E+05  1.964694E+05  2.171303E+05 -6.224076E+04 -4.102516E-11 -5.118866E-11
       408  13  2.018337E+05 -5.436557E+03  3.281978E+04 -2.064712E+04 -1.977940E-10  2.853779E-11
       408  14  1.866491E+05 -6.050647E+03  5.456251E+04 -1.179957E+04  1.299937E-10  5.101676E-11
       408  15  2.018118E+05  9.928874E+04  1.217669E+05 -2.066270E+04  4.179374E-10 -9.930531E-13
       408  16 -1.174154E+05 -8.384608E+04 -3.999802E+04 -3.530193E+04 -3.881823E-10  1.288894E-10
       408  17 -1.676898E+05 -9.322236E+04 -2.696848E+04  1.649423E+03 -1.519300E-10  1.158960E-10
       408  18 -1.888830E+05  2.103263E+03  2.639328E+04  2.088914E+04  1.139424E-10 -1.715994E-10
       408  19  5.211783E+05  7.296705E+04  1.056323E+05 -5.984452E+03  2.149496E+04  1.442999E+04
       408  20  5.411083E+05  8.111410E+04  1.360920E+05 -2.525561E+04  5.803861E+04  1.456024E+04
       408  21  5.926592E+05  1.964719E+05  2.171472E+05 -6.224040E+04  9.458754E+04  4.744944E+03
       408  22  2.018344E+05 -5.436162E+03  3.282138E+04 -2.064683E+04  2.528577E+04  1.442978E+04
       408  23  1.866524E+05 -6.049625E+03  5.456847E+04 -1.179893E+04  5.441226E+04  1.456174E+04
       408  24  2.018193E+05  9.929063E+04  1.217800E+05 -2.066238E+04  8.354133E+04  4.748935E+03
       408  25 -1.174145E+05 -8.384563E+04 -3.999604E+04 -3.530159E+04  2.907464E+04  1.442939E+04
       408  26 -1.676869E+05 -9.322144E+04 -2.696324E+04  1.650019E+03  5.078795E+04  1.456309E+04
       408  27 -1.888774E+05  2.104699E+03  2.640320E+04  2.088942E+04  7.250204E+04  4.751450E+03
       409   1 -1.177151E+06 -1.495713E+05 -1.709433E+05 -5.392570E+04 -8.877080E+04  2.424784E+03
       409   2 -1.140455E+06 -3.876285E+04 -9.618009E+04 -2.065852E+04 -5.590583E+04  7.455397E+03
       409   3 -1.134581E+06 -3.414004E+04 -6.938405E+04  2.060379E+03 -2.303828E+04  7.260603E+03
       409   4 -9.738568E+05 -9.889580E+04 -1.212346E+05 -1.249289E+04 -8.311204E+04  2.420308E+03
       409   5 -9.587608E+05  5.997350E+03 -5.431662E+04 -7.229707E+03 -5.412258E+04  7.454386E+03
       409   6 -9.738064E+05  5.392839E+03 -3.266125E+04 -1.251640E+04 -2.513191E+04  7.260767E+03
       409   7 -7.705206E+05 -4.821692E+04 -7.152792E+04  2.895355E+04 -7.745143E+04  2.416590E+03
       409   8 -7.770358E+05  5.075591E+04 -1.245523E+04  6.203076E+03 -5.233881E+04  7.453451E+03
       409   9 -8.130069E+05  4.492473E+04  4.059997E+03 -2.709699E+04 -2.722608E+04  7.261030E+03
       409  10 -1.177160E+06 -1.495734E+05 -1.709581E+05 -5.392553E+04  1.289974E-10 -7.237498E-12
       409  11 -1.140458E+06 -3.876375E+04 -9.618608E+04 -2.065819E+04  2.336558E-10 -2.600156E-10
       409  12 -1.134582E+06 -3.414024E+04 -6.938515E+04  2.060514E+03 -3.478653E-10 -5.329149E-12
       409  13 -9.738642E+05 -9.889766E+04 -1.212476E+05 -1.249272E+04  8.131418E-12 -1.056071E-10
       409  14 -9.587640E+05  5.996502E+03 -5.432224E+04 -7.229382E+03  5.999594E-10 -3.657357E-10
       409  15 -9.738071E+05  5.392612E+03 -3.266253E+04 -1.251625E+04  2.301929E-11 -1.143764E-11
       409  16 -7.705271E+05 -4.821853E+04 -7.153922E+04  2.895370E+04  4.115259E-11 -4.910672E-11
       409  17 -7.770387E+05  5.075512E+04 -1.246049E+04  6.203390E+03  7.551418E-11 -1.489805E-10
       409  18 -8.130077E+05  4.492447E+04  4.058503E+03 -2.709683E+04  3.278025E-10 -9.442063E-12
       409  19 -1.177151E+06 -1.495713E+05 -1.709433E+05 -5.392570E+04  8.877080E+04 -2.424784E+03
       409  20 -1.140455E+06 -3.876285E+04 -9.618009E+04 -2.065852E+04  5.590583E+04 -7.455397E+03
       409  21 -1.134581E+06 -3.414004E+04 -6.938405E+04  2.060379E+03  2.303828E+04 -7.260603E+03
       409  22 -9.738568E+05 -9.889580E+04 -1.212346E+05 -1.249289E+04  8.311204E+04 -2.420308E+03
       409  23 -9.587608E+05  5.997350E+03 -5.431662E+04 -7.229707E+03  5.412258E+04 -7.454386E+03
       409  24 -9.738064E+05  5.392839E+03 -3.266125E+04 -1.251640E+04  2.513191E+04 -7.260767E+03
       409  25 -7.705206E+05 -4.821692E+04 -7.152792E+04  2.895355E+04  7.745143E+04 -2.416590E+03
       409  26 -7.770358E+05  5.075591E+04 -1.245523E+04  6.203076E+03  5.233881E+04 -7.453451E+03
       409  27 -8.130069E+05  4.492473E+04  4.059997E+03 -2.709699E+04  2.722608E+04 -7.261030E+03
       410   1 -1.108426E+06 -4.174444E+04 -5.853807E+04 -1.503474E+04 -1.984245E+04  6.040443E+03
       410   2 -1.085431E+06 -2.876579E+04 -4.118058E+04 -7.736829E+03 -1.262488E+04  5.251390E+03
       410   3 -1.065325E+06 -2.360813E+04 -3.048147E+04 -1.136566E+04 -5.407284E+03  4.206333E+03
       410   4 -9.677508E+05 -7.119293E+03 -2.625422E+04 -1.259358E+04 -2.033697E+04  6.040229E+03
       410   5 -9.663194E+05  5.377545E+02 -1.391194E+04 -7.130452E+03 -1.330818E+04  5.251282E+03
       410   6 -9.677430E+05  4.077082E+02 -8.095481E+03 -1.259397E+04 -6.279604E+03  4.206311E+03
       410   7 -8.270571E+05  2.750449E+04  6.028324E+03 -1.015185E+04 -2.083161E+04  6.040011E+03
       410   8 -8.471943E+05  2.984031E+04  1.335578E+04 -6.523957E+03 -1.399161E+04  5.251173E+03
       410   9 -8.701523E+05  2.442288E+04  1.428988E+04 -1.382248E+04 -7.152060E+03  4.206294E+03
       410  10 -1.108427E+06 -4.174458E+04 -5.853888E+04 -1.503465E+04  3.014679E-11  1.365648E-11
       410  11 -1.085431E+06 -2.876586E+04 -4.118093E+04 -7.736776E+03 -3.338374E-10  2.001104E-11
       410  12 -1.065325E+06 -2.360815E+04 -3.048156E+04 -1.136564E+04  3.257545E-10 -3.348761E-10
       410  13 -9.677513E+05 -7.119443E+03 -2.625507E+04 -1.259348E+04 -9.526413E-11  7.905563E-11
       410  14 -9.663196E+05  5.376773E+02 -1.391232E+04 -7.130396E+03 -2.841008E-10  8.483709E-12
       410  15 -9.677430E+05  4.076786E+02 -8.095588E+03 -1.259395E+04 -5.460425E-13 -2.633659E-10
       410  16 -8.270576E+05  2.750434E+04  6.027439E+03 -1.015175E+04 -1.608895E-10  2.498460E-10
       410  17 -8.471946E+05  2.984023E+04  1.335536E+04 -6.523898E+03  1.569066E-10  1.515880E-10
       410  18 -8.701523E+05  2.442285E+04  1.428975E+04 -1.382245E+04 -3.022789E-10 -1.096278E-10
       410  19 -1.108426E+06 -4.174444E+04 -5.853807E+04 -1.503474E+04  1.984245E+04 -6.040443E+03
       410  20 -1.085431E+06 -2.876579E+04 -4.118058E+04 -7.736829E+03  1.262488E+04 -5.251390E+03
       410  21 -1.065325E+06 -2.360813E+04 -3.048147E+04 -1.136566E+04  5.407284E+03 -4.206333E+03
       410  22 -9.677508E+05 -7.119293E+03 -2.625422E+04 -1.259358E+04  2.033697E+04 -6.040229E+03
       410  23 -9.663194E+05  5.377545E+02 -1.391194E+04 -7.130452E+03  1.330818E+04 -5.251282E+03
       410  24 -9.677430E+05  4.077082E+02 -8.095481E+03 -1.259397E+04  6.279604E+03 -4.206311E+03
       410  25 -8.270571E+05  2.750449E+04  6.028324E+03 -1.015185E+04  2.083161E+04 -6.040011E+03
       410  26 -8.471943E+05  2.984031E+04  1.335578E+04 -6.523957E+03  1.399161E+04 -5.251173E+03
       410  27 -8.701523E+05  2.442288E+04  1.428988E+04 -1.382248E+04  7.152060E+03 -4.206294E+03
       411   1 -1.044518E+06 -1.949144E+04 -2.388333E+04 -1.264165E+04 -4.221899E+03  3.542662E+03
       411   2 -1.022597E+06 -1.361042E+04 -1.622406E+04 -7.047888E+03 -2.470087E+03  2.463032E+03
       411   3 -1.001047E+06 -8.306517E+03 -9.850900E+03 -1.248870E+04 -7.182769E+02  1.369216E+03
       411   4 -9.671904E+05 -4.808303E+02 -6.245374E+03 -1.261785E+04 -5.019188E+03  3.542660E+03
       411   5 -9.670043E+05  6.461184E+01 -3.503370E+03 -7.100573E+03 -3.277732E+03  2.463061E+03
       411   6 -9.671886E+05  3.474990E+01 -2.040192E+03 -1.261781E+04 -1.536338E+03  1.369278E+03
       411   7 -8.898569E+05  1.852937E+04  1.139220E+04 -1.259404E+04 -5.816576E+03  3.542659E+03
       411   8 -9.114089E+05  1.373943E+04  9.217116E+03 -7.153263E+03 -4.085448E+03  2.463091E+03
       411   9 -9.333292E+05  8.375936E+03  5.770443E+03 -1.274693E+04 -2.354444E+03  1.369341E+03
       411  10 -1.044518E+06 -1.949146E+04 -2.388339E+04 -1.264163E+04 -5.348950E-10 -3.671651E-10
       411  11 -1.022597E+06 -1.361043E+04 -1.622408E+04 -7.047883E+03 -4.409530E-10 -1.495263E-10
       411  12 -1.001047E+06 -8.306519E+03 -9.850904E+03 -1.248870E+04  2.431003E-10  6.640760E-11
       411  13 -9.671905E+05 -4.808506E+02 -6.245445E+03 -1.261783E+04 -3.018215E-10 -2.829190E-10
       411  14 -9.670043E+05  6.460244E+01 -3.503402E+03 -7.100566E+03 -2.993772E-10 -3.044590E-11
       411  15 -9.671886E+05  3.474725E+01 -2.040199E+03 -1.261781E+04 -2.136356E-10 -1.833176E-10
       411  16 -8.898570E+05  1.852934E+04  1.139211E+04 -1.259402E+04  7.408953E-11 -1.896207E-10
       411  17 -9.114089E+05  1.373942E+04  9.217073E+03 -7.153254E+03  2.334695E-10 -5.140681E-11
       411  18 -9.333293E+05  8.375933E+03  5.770429E+03 -1.274693E+04 -5.797449E-11 -1.971294E-11
       411  19 -1.044518E+06 -1.949144E+04 -2.388333E+04 -1.264165E+04  4.221899E+03 -3.542662E+03
       411  20 -1.022597E+06 -1.361042E+04 -1.622406E+04 -7.047888E+03  2.470087E+03 -2.463032E+03
       411  21 -1.001047E+06 -8.306517E+03 -9.850900E+03 -1.248870E+04  7.182769E+02 -1.369216E+03
       411  22 -9.671904E+05 -4.808303E+02 -6.245374E+03 -1.261785E+04  5.019188E+03 -3.542660E+03
       411  23 -9.670043E+05  6.461184E+01 -3.503370E+03 -7.100573E+03  3.277732E+03 -2.463061E+03
       411  24 -9.671886E+05  3.474990E+01 -2.040192E+03 -1.261781E+04  1.536338E+03 -1.369278E+03
       411  25 -8.898569E+05  1.852937E+04  1.139220E+04 -1.259404E+04  5.816576E+03 -3.542659E+03
       411  26 -9.114089E+05  1.373943E+04  9.217116E+03 -7.153263E+03  4.085448E+03 -2.463091E+03
       411  27 -9.333292E+05  8.375936E+03  5.770443E+03 -1.274693E+04  2.354444E+03 -1.369341E+03
       412   1 -9.806169E+05 -3.329091E+03 -4.595883E+03 -1.258786E+04 -3.968225E+02  7.291547E+02
       412   2 -9.587927E+05  2.052555E+03  9.519944E+02 -7.069017E+03  7.090554E+01 -3.676494E+02
       412   3 -9.370415E+05  7.391016E+03  6.183736E+03 -1.261076E+04  5.386640E+02 -1.464672E+03
       412   4 -9.671223E+05 -2.239846E+01 -1.571726E+03 -1.262362E+04 -1.211778E+03  7.292256E+02
       412   5 -9.670855E+05  1.273195E+01 -9.453703E+02 -7.093318E+03 -7.442145E+02 -3.675841E+02
       412   6 -9.671222E+05  4.742124E+00 -6.349993E+02 -1.262361E+04 -2.766368E+02 -1.464611E+03
       412   7 -9.536276E+05  3.284282E+03  1.452423E+03 -1.265937E+04 -2.026751E+03  7.292966E+02
       412   8 -9.753783E+05 -2.027095E+03 -2.842737E+03 -7.117618E+03 -1.559324E+03 -3.675188E+02
       412   9 -9.972020E+05 -7.381594E+03 -7.453790E+03 -1.263646E+04 -1.091898E+03 -1.464549E+03
       412  10 -9.806169E+05 -3.329092E+03 -4.595884E+03 -1.258786E+04  1.089312E-10 -3.355435E-11
       412  11 -9.587927E+05  2.052554E+03  9.519942E+02 -7.069017E+03  1.874982E-10  1.782746E-10
       412  12 -9.370415E+05  7.391013E+03  6.183731E+03 -1.261076E+04  5.006489E-11  8.494669E-12
       412  13 -9.671223E+05 -2.239943E+01 -1.571729E+03 -1.262361E+04  4.322937E-10  1.702989E-11
       412  14 -9.670855E+05  1.273165E+01 -9.453716E+02 -7.093318E+03 -3.600500E-10 -1.027841E-11
       412  15 -9.671222E+05  4.739801E+00 -6.350034E+02 -1.262361E+04 -4.677848E-10 -6.331351E-11
       412  16 -9.536276E+05  3.284281E+03  1.452414E+03 -1.265937E+04 -2.952642E-10 -2.190439E-10
       412  17 -9.753783E+05 -2.027096E+03 -2.842742E+03 -7.117618E+03  6.084587E-11  1.045630E-10
       412  18 -9.972020E+05 -7.381596E+03 -7.453797E+03 -1.263646E+04 -3.065646E-10  7.451263E-11
       412  19 -9.806169E+05 -3.329091E+03 -4.595883E+03 -1.258786E+04  3.968225E+02 -7.291547E+02
       412  20 -9.587927E+05  2.052555E+03  9.519944E+02 -7.069017E+03 -7.090554E+01  3.676494E+02
       412  21 -9.370415E+05  7.391016E+03  6.183736E+03 -1.261076E+04 -5.386640E+02  1.464672E+03
       412  22 -9.671223E+05 -2.239846E+01 -1.571726E+03 -1.262362E+04  1.211778E+03 -7.292256E+02
       412  23 -9.670855E+05  1.273195E+01 -9.453703E+02 -7.093318E+03  7.442145E+02  3.675841E+02
       412  24 -9.671222E+05  4.742124E+00 -6.349993E+02 -1.262361E+04  2.766368E+02  1.464611E+03
       412  25 -9.536276E+05  3.284282E+03  1.452423E+03 -1.265937E+04  2.026751E+03 -7.292966E+02
       412  26 -9.753783E+05 -2.027095E+03 -2.842737E+03 -7.117618E+03  1.559324E+03  3.675188E+02
       412  27 -9.972020E+05 -7.381594E+03 -7.453790E+03 -1.263646E+04  1.091898E+03  1.464549E+03
       413   1 -9.166858E+05  1.242012E+04  1.104373E+04 -1.261127E+04  6.455590E+02 -2.102945E+03
       413   2 -8.949670E+05  1.774702E+04  1.597210E+04 -7.109048E+03  9.051997E+02 -3.196981E+03
       413   3 -8.732843E+05  2.305577E+04  2.072701E+04 -1.262357E+04  1.164967E+03 -4.287539E+03
       413   4 -9.671144E+05  3.463132E+00 -5.580632E+02 -1.261388E+04 -1.687934E+02 -2.102899E+03
       413   5 -9.670965E+05  5.647547E+00 -5.304625E+02 -7.105475E+03  9.340264E+01 -3.196977E+03
       413   6 -9.671152E+05 -1.063923E+01 -6.779991E+02 -1.261389E+04  3.557158E+02 -4.287574E+03
       413   7 -1.017541E+06 -1.241337E+04 -1.216002E+04 -1.261650E+04 -9.830800E+02 -2.102852E+03
       413   8 -1.039221E+06 -1.773608E+04 -1.703336E+04 -7.101902E+03 -7.183008E+02 -3.196972E+03
       413   9 -1.060938E+06 -2.307766E+04 -2.208358E+04 -1.260420E+04 -4.534136E+02 -4.287609E+03
       413  10 -9.166858E+05  1.242012E+04  1.104372E+04 -1.261127E+04 -8.293632E-11 -5.467811E-11
       413  11 -8.949670E+05  1.774701E+04  1.597207E+04 -7.109045E+03 -3.992745E-10 -5.493849E-11
       413  12 -8.732843E+05  2.305575E+04  2.072697E+04 -1.262357E+04  3.600740E-11 -2.552123E-10
       413  13 -9.671144E+05  3.458378E+00 -5.580716E+02 -1.261389E+04  2.561170E-10  6.262930E-11
       413  14 -9.670965E+05  5.636574E+00 -5.304817E+02 -7.105474E+03  2.874096E-10  3.978104E-11
       413  15 -9.671152E+05 -1.065900E+01 -6.780339E+02 -1.261388E+04 -5.615225E-10 -6.732424E-11
       413  16 -1.017541E+06 -1.241338E+04 -1.216003E+04 -1.261650E+04  4.123385E-11  2.829564E-11
       413  17 -1.039221E+06 -1.773609E+04 -1.703338E+04 -7.101904E+03  5.244922E-10 -6.977846E-11
       413  18 -1.060938E+06 -2.307768E+04 -2.208361E+04 -1.260420E+04 -1.686094E-10  1.351683E-10
       413  19 -9.166858E+05  1.242012E+04  1.104373E+04 -1.261127E+04 -6.455590E+02  2.102945E+03
       413  20 -8.949670E+05  1.774702E+04  1.597210E+04 -7.109048E+03 -9.051997E+02  3.196981E+03
       413  21 -8.732843E+05  2.305577E+04  2.072701E+04 -1.262357E+04 -1.164967E+03  4.287539E+03
       413  22 -9.671144E+05  3.463132E+00 -5.580632E+02 -1.261388E+04  1.687934E+02  2.102899E+03
       413  23 -9.670965E+05  5.647547E+00 -5.304625E+02 -7.105475E+03 -9.340264E+01  3.196977E+03
       413  24 -9.671152E+05 -1.063923E+01 -6.779991E+02 -1.261389E+04 -3.557158E+02  4.287574E+03
       413  25 -1.017541E+06 -1.241337E+04 -1.216002E+04 -1.261650E+04  9.830800E+02  2.102852E+03
       413  26 -1.039221E+06 -1.773608E+04 -1.703336E+04 -7.101902E+03  7.183008E+02  3.196972E+03
       413  27 -1.060938E+06 -2.307766E+04 -2.208358E+04 -1.260420E+04  4.534136E+02  4.287609E+03
       414   1 -8.531022E+05  2.807096E+04  2.533124E+04 -1.263001E+04  1.302293E+03 -4.922897E+03
       414   2 -8.315644E+05  3.334860E+04  2.968374E+04 -7.146327E+03  1.941998E+03 -6.004075E+03
       414   3 -8.101492E+05  3.841872E+04  3.357008E+04 -1.256205E+04  2.581957E+03 -7.063697E+03
       414   4 -9.671361E+05  1.054644E+01 -8.215687E+02 -1.258783E+04  4.906204E+02 -4.922970E+03
       414   5 -9.670741E+05  1.902082E+01 -1.319234E+03 -7.138049E+03  1.146203E+03 -6.004224E+03
       414   6 -9.671381E+05 -1.828794E+02 -2.294255E+03 -1.258782E+04  1.802016E+03 -7.063918E+03
       414   7 -1.081158E+06 -2.805078E+04 -2.697523E+04 -1.254566E+04 -3.209037E+02 -4.923042E+03
       414   8 -1.102567E+06 -3.331184E+04 -3.232341E+04 -7.129773E+03  3.505792E+02 -6.004373E+03
       414   9 -1.124104E+06 -3.878619E+04 -3.816020E+04 -1.261358E+04  1.022271E+03 -7.064140E+03
       414  10 -8.531022E+05  2.807094E+04  2.533119E+04 -1.263000E+04  2.062784E-10 -9.849888E-11
       414  11 -8.315644E+05  3.334856E+04  2.968367E+04 -7.146318E+03 -1.551040E-10  2.171007E-10
       414  12 -8.101493E+05  3.841866E+04  3.356997E+04 -1.256203E+04  3.869581E-10 -1.281846E-10
       414  13 -9.671361E+05  1.052037E+01 -8.216147E+02 -1.258783E+04 -3.642727E-10  1.050177E-10
       414  14 -9.670741E+05  1.898178E+01 -1.319304E+03 -7.138044E+03 -5.822306E-10  2.722838E-10
       414  15 -9.671381E+05 -1.829339E+02 -2.294355E+03 -1.258781E+04  2.796477E-10 -2.681550E-10
       414  16 -1.081158E+06 -2.805080E+04 -2.697527E+04 -1.254566E+04  2.331287E-10  2.078564E-10
       414  17 -1.102567E+06 -3.331188E+04 -3.232348E+04 -7.129772E+03 -5.141109E-10  2.143429E-10
       414  18 -1.124104E+06 -3.878624E+04 -3.816029E+04 -1.261358E+04 -4.765768E-10  1.345031E-10
       414  19 -8.531022E+05  2.807096E+04  2.533124E+04 -1.263001E+04 -1.302293E+03  4.922897E+03
       414  20 -8.315644E+05  3.334860E+04  2.968374E+04 -7.146327E+03 -1.941998E+03  6.004075E+03
       414  21 -8.101492E+05  3.841872E+04  3.357008E+04 -1.256205E+04 -2.581957E+03  7.063697E+03
       414  22 -9.671361E+05  1.054644E+01 -8.215687E+02 -1.258783E+04 -4.906204E+02  4.922970E+03
       414  23 -9.670741E+05  1.902082E+01 -1.319234E+03 -7.138049E+03 -1.146203E+03  6.004224E+03
       414  24 -9.671381E+05 -1.828794E+02 -2.294255E+03 -1.258782E+04 -1.802016E+03  7.063918E+03
       414  25 -1.081158E+06 -2.805078E+04 -2.697523E+04 -1.254566E+04  3.209037E+02  4.923042E+03
       414  26 -1.102567E+06 -3.331184E+04 -3.232341E+04 -7.129773E+03 -3.505792E+02  6.004373E+03
       414  27 -1.124104E+06 -3.878619E+04 -3.816020E+04 -1.261358E+04 -1.022271E+03  7.064140E+03
       415   1 -7.904142E+05  4.366489E+04  3.757174E+04 -1.296772E+04  3.144445E+03 -7.727234E+03
       415   2 -7.688135E+05  4.889083E+04  4.025550E+04 -6.934680E+03  5.444505E+03 -8.736397E+03
       415   3 -7.481809E+05  5.133244E+04  4.075036E+04 -1.160525E+04  7.744826E+03 -9.396666E+03
       415   4 -9.673368E+05  1.399579E+02 -2.958901E+03 -1.254455E+04  2.263892E+03 -7.727530E+03
       415   5 -9.668322E+05  1.849157E+02 -5.064555E+03 -7.192250E+03  4.822550E+03 -8.736749E+03
       415   6 -9.673415E+05 -2.599906E+03 -9.539405E+03 -1.254380E+04  7.381391E+03 -9.397027E+03
       415   7 -1.144230E+06 -4.338715E+04 -4.349160E+04 -1.212149E+04  1.383589E+03 -7.727826E+03
       415   8 -1.164815E+06 -4.852373E+04 -5.038718E+04 -7.449739E+03  4.200791E+03 -8.737100E+03
       415   9 -1.186458E+06 -5.653561E+04 -5.983234E+04 -1.348202E+04  7.018082E+03 -9.397387E+03
       415  10 -7.904142E+05  4.366482E+04  3.757161E+04 -1.296770E+04  3.902479E-11 -1.634796E-10
       415  11 -7.688135E+05  4.889074E+04  4.025530E+04 -6.934642E+03 -1.556715E-10 -1.012805E-10
       415  12 -7.481810E+05  5.133233E+04  4.075008E+04 -1.160519E+04 -4.031139E-10  2.390213E-10
       415  13 -9.673369E+05  1.398924E+02 -2.959023E+03 -1.254453E+04  1.581509E-11 -2.510143E-10
       415  14 -9.668323E+05  1.848275E+02 -5.064742E+03 -7.192216E+03 -2.798873E-10 -3.558289E-12
       415  15 -9.673416E+05 -2.600015E+03 -9.539673E+03 -1.254375E+04  5.621732E-10  2.357101E-10
       415  16 -1.144230E+06 -4.338722E+04 -4.349172E+04 -1.212149E+04 -3.927901E-10 -1.307473E-10
       415  17 -1.164815E+06 -4.852382E+04 -5.038736E+04 -7.449710E+03  5.281459E-11 -1.208516E-10
       415  18 -1.186458E+06 -5.653571E+04 -5.983259E+04 -1.348197E+04  3.302070E-10  7.281029E-10
       415  19 -7.904142E+05  4.366489E+04  3.757174E+04 -1.296772E+04 -3.144445E+03  7.727234E+03
       415  20 -7.688135E+05  4.889083E+04  4.025550E+04 -6.934680E+03 -5.444505E+03  8.736397E+03
       415  21 -7.481809E+05  5.133244E+04  4.075036E+04 -1.160525E+04 -7.744826E+03  9.396666E+03
       415  22 -9.673368E+05  1.399579E+02 -2.958901E+03 -1.254455E+04 -2.263892E+03  7.727530E+03
       415  23 -9.668322E+05  1.849157E+02 -5.064555E+03 -7.192250E+03 -4.822550E+03  8.736749E+03
       415  24 -9.673415E+05 -2.599906E+03 -9.539405E+03 -1.254380E+04 -7.381391E+03  9.397027E+03
       415  25 -1.144230E+06 -4.338715E+04 -4.349160E+04 -1.212149E+04 -1.383589E+03  7.727826E+03
       415  26 -1.164815E+06 -4.852373E+04 -5.038718E+04 -7.449739E+03 -4.200791E+03  8.737100E+03
       415  27 -1.186458E+06 -5.653561E+04 -5.983234E+04 -1.348202E+04 -7.018082E+03  9.397387E+03
       416   1 -7.307259E+05  6.064816E+04  4.265460E+04 -1.766320E+04  1.165902E+04 -1.081427E+04
       416   2 -7.050617E+05  6.594950E+04  3.991837E+04 -2.370033E+03  1.691454E+04 -1.066958E+04
       416   3 -6.893801E+05  3.387538E+04  2.442449E+04  2.744033E+03  2.216605E+04 -3.425803E+03
       416   4 -9.695381E+05  1.942167E+03 -1.186362E+04 -1.243318E+04  9.123742E+03 -1.081542E+04
       416   5 -9.640964E+05  2.159671E+03 -1.972941E+04 -7.333479E+03  1.965292E+04 -1.066869E+04
       416   6 -9.695589E+05 -3.592353E+04 -4.402299E+04 -1.241317E+04  3.017772E+04 -3.421702E+03
       416   7 -1.208297E+06 -5.676768E+04 -6.638554E+04 -7.205186E+03  6.589431E+03 -1.081662E+04
       416   8 -1.223069E+06 -6.163477E+04 -7.938159E+04 -1.229484E+04  2.239017E+04 -1.066783E+04
       416   9 -1.249665E+06 -1.057274E+05 -1.124758E+05 -2.756351E+04  3.818577E+04 -3.417993E+03
       416  10 -7.307261E+05  6.064800E+04  4.265413E+04 -1.766310E+04  5.485199E-10  3.753118E-10
       416  11 -7.050620E+05  6.594931E+04  3.991761E+04 -2.369888E+03  8.548814E-11  1.984105E-10
       416  12 -6.893806E+05  3.387523E+04  2.442354E+04  2.744094E+03 -1.313828E-10  3.185179E-10
       416  13 -9.695382E+05  1.942019E+03 -1.186400E+04 -1.243310E+04  9.022775E-10 -2.206746E-10
       416  14 -9.640968E+05  2.159445E+03 -1.973035E+04 -7.333310E+03 -1.367086E-10  3.088102E-10
       416  15 -9.695599E+05 -3.592379E+04 -4.402472E+04 -1.241308E+04  9.268514E-10 -2.804618E-10
       416  16 -1.208297E+06 -5.676782E+04 -6.638584E+04 -7.205129E+03 -2.464163E-10  6.858088E-10
       416  17 -1.223069E+06 -6.163502E+04 -7.938275E+04 -1.229465E+04  7.623653E-11 -4.118280E-11
       416  18 -1.249667E+06 -1.057278E+05 -1.124786E+05 -2.756341E+04 -1.725080E-10  4.500591E-10
       416  19 -7.307259E+05  6.064816E+04  4.265460E+04 -1.766320E+04 -1.165902E+04  1.081427E+04
       416  20 -7.050617E+05  6.594950E+04  3.991837E+04 -2.370033E+03 -1.691454E+04  1.066958E+04
       416  21 -6.893801E+05  3.387538E+04  2.442449E+04  2.744033E+03 -2.216605E+04  3.425803E+03
       416  22 -9.695381E+05  1.942167E+03 -1.186362E+04 -1.243318E+04 -9.123742E+03  1.081542E+04
       416  23 -9.640964E+05  2.159671E+03 -1.972941E+04 -7.333479E+03 -1.965292E+04  1.066869E+04
       416  24 -9.695589E+05 -3.592353E+04 -4.402299E+04 -1.241317E+04 -3.017772E+04  3.421702E+03
       416  25 -1.208297E+06 -5.676768E+04 -6.638554E+04 -7.205186E+03 -6.589431E+03  1.081662E+04
       416  26 -1.223069E+06 -6.163477E+04 -7.938159E+04 -1.229484E+04 -2.239017E+04  1.066783E+04
       416  27 -1.249665E+06 -1.057274E+05 -1.124758E+05 -2.756351E+04 -3.818577E+04  3.417993E+03
       417   1  1.526668E+06  3.642665E+05  4.621476E+05  1.596139E+05  3.531496E+05  3.296362E+03
       417   2  1.497466E+06 -7.992367E+04  1.845631E+05  4.729181E+04  2.325874E+05  9.113587E+03
       417   3  1.597764E+06 -6.888568E+04  9.920973E+04 -8.281725E+04  1.120156E+05  8.364429E+03
       417   4  1.782817E+06  4.275720E+05  5.245599E+05 -1.976662E+04  3.601582E+05  3.198483E+03
       417   5  1.717862E+06 -2.586987E+04  2.351966E+05 -1.074881E+04  2.346196E+05  9.092653E+03
       417   6  1.783182E+06 -2.336671E+04  1.414515E+05 -1.952450E+04  1.090794E+05  8.374460E+03
       417   7  2.039095E+06  4.909934E+05  5.869849E+05 -1.992212E+05  3.671697E+05  3.096599E+03
       417   8  1.938310E+06  2.819319E+04  2.858287E+05 -6.881015E+04  2.366526E+05  9.071346E+03
       417   9  1.968640E+06  2.216489E+04  1.836931E+05  4.378728E+04  1.061424E+05  8.383891E+03
       417  10  1.526535E+06  3.642331E+05  4.619138E+05  1.596130E+05  4.813429E-10 -7.484088E-10
       417  11  1.497408E+06 -7.993823E+04  1.844615E+05  4.729010E+04  5.796274E-10  5.670319E-11
       417  12  1.597750E+06 -6.888912E+04  9.918608E+04 -8.281801E+04 -1.687586E-09 -9.636685E-11
       417  13  1.782679E+06  4.275373E+05  5.243168E+05 -1.976755E+04  9.440669E-10  2.837371E-10
       417  14  1.717803E+06 -2.588468E+04  2.350933E+05 -1.075053E+04  4.550822E-10 -2.113449E-10
       417  15  1.783169E+06 -2.336997E+04  1.414290E+05 -1.952523E+04 -1.685849E-10  6.975649E-11
       417  16  2.038951E+06  4.909573E+05  5.867324E+05 -1.992221E+05  1.262638E-10  1.492283E-10
       417  17  1.938250E+06  2.817813E+04  2.857236E+05 -6.881188E+04  7.475287E-10 -1.898824E-10
       417  18  1.968628E+06  2.216181E+04  1.836719E+05  4.378656E+04  2.463677E-09  1.480591E-09
       417  19  1.526668E+06  3.642665E+05  4.621476E+05  1.596139E+05 -3.531496E+05 -3.296362E+03
       417  20  1.497466E+06 -7.992367E+04  1.845631E+05  4.729181E+04 -2.325874E+05 -9.113587E+03
       417  21  1.597764E+06 -6.888568E+04  9.920973E+04 -8.281725E+04 -1.120156E+05 -8.364429E+03
       417  22  1.782817E+06  4.275720E+05  5.245599E+05 -1.976662E+04 -3.601582E+05 -3.198483E+03
       417  23  1.717862E+06 -2.586987E+04  2.351966E+05 -1.074881E+04 -2.346196E+05 -9.092653E+03
       417  24  1.783182E+06 -2.336671E+04  1.414515E+05 -1.952450E+04 -1.090794E+05 -8.374460E+03
       417  25  2.039095E+06  4.909934E+05  5.869849E+05 -1.992212E+05 -3.671697E+05 -3.096599E+03
       417  26  1.938310E+06  2.819319E+04  2.858287E+05 -6.881015E+04 -2.366526E+05 -9.071346E+03
       417  27  1.968640E+06  2.216489E+04  1.836931E+05  4.378728E+04 -1.061424E+05 -8.383891E+03
       418   1  1.603986E+06 -6.818116E+03  7.873133E+04 -9.053267E+03  8.914542E+04  6.593136E+03
       418   2  1.632390E+06 -3.136816E+04  3.330145E+04 -8.203044E+03  5.888804E+04  5.213509E+03
       418   3  1.673136E+06 -2.235635E+04  1.593385E+04 -2.485377E+04  2.862984E+04  3.524208E+03
       418   4  1.756908E+06  3.069559E+04  1.137093E+05 -1.953310E+04  8.825535E+04  6.591195E+03
       418   5  1.750745E+06 -2.340178E+03  6.031716E+04 -1.077754E+04  5.775951E+04  5.212833E+03
       418   6  1.756960E+06 -1.777418E+03  3.514674E+04 -1.952217E+04  2.726450E+04  3.524058E+03
       418   7  1.909853E+06  6.820809E+04  1.486857E+05 -3.001554E+04  8.736506E+04  6.589285E+03
       418   8  1.869113E+06  2.668686E+04  8.733197E+04 -1.335254E+04  5.663077E+04  5.212166E+03
       418   9  1.840790E+06  1.880114E+04  5.435918E+04 -1.418984E+04  2.589897E+04  3.523885E+03
       418  10  1.603977E+06 -6.820289E+03  7.871636E+04 -9.053740E+03  1.601682E-10  8.157878E-11
       418  11  1.632386E+06 -3.136911E+04  3.329490E+04 -8.203291E+03  7.556418E-10  4.162130E-10
       418  12  1.673135E+06 -2.235659E+04  1.593229E+04 -2.485385E+04 -9.414880E-11 -2.633472E-10
       418  13  1.756900E+06  3.069346E+04  1.136946E+05 -1.953357E+04  9.942657E-10  1.061385E-09
       418  14  1.750742E+06 -2.341100E+03  6.031086E+04 -1.077779E+04  7.639272E-10  3.315244E-10
       418  15  1.756959E+06 -1.777631E+03  3.514532E+04 -1.952224E+04 -2.546494E-10 -3.664564E-10
       418  16  1.909844E+06  6.820600E+04  1.486713E+05 -3.001600E+04 -4.156462E-10  8.781548E-10
       418  17  1.869110E+06  2.668597E+04  8.732591E+04 -1.335278E+04  7.319496E-11 -4.376828E-10
       418  18  1.840789E+06  1.880094E+04  5.435790E+04 -1.418992E+04 -1.695378E-10 -2.036664E-10
       418  19  1.603986E+06 -6.818116E+03  7.873133E+04 -9.053267E+03 -8.914542E+04 -6.593136E+03
       418  20  1.632390E+06 -3.136816E+04  3.330145E+04 -8.203044E+03 -5.888804E+04 -5.213509E+03
       418  21  1.673136E+06 -2.235635E+04  1.593385E+04 -2.485377E+04 -2.862984E+04 -3.524208E+03
       418  22  1.756908E+06  3.069559E+04  1.137093E+05 -1.953310E+04 -8.825535E+04 -6.591195E+03
       418  23  1.750745E+06 -2.340178E+03  6.031716E+04 -1.077754E+04 -5.775951E+04 -5.212833E+03
       418  24  1.756960E+06 -1.777418E+03  3.514674E+04 -1.952217E+04 -2.726450E+04 -3.524058E+03
       418  25  1.909853E+06  6.820809E+04  1.486857E+05 -3.001554E+04 -8.736506E+04 -6.589285E+03
       418  26  1.869113E+06  2.668686E+04  8.733197E+04 -1.335254E+04 -5.663077E+04 -5.212166E+03
       418  27  1.840790E+06  1.880114E+04  5.435918E+04 -1.418984E+04 -2.589897E+04 -3.523885E+03
       419   1  1.702783E+06 -1.062379E+04  1.541743E+04 -1.940034E+04  2.304160E+04  2.482359E+03
       419   2  1.736259E+06 -4.577630E+03  1.130526E+04 -1.103463E+04  1.544231E+04  7.757348E+02
       419   3  1.771352E+06  3.939488E+03  1.275110E+04 -2.003715E+04  7.842770E+03 -9.453736E+02
       419   4  1.754566E+06  2.057110E+03  2.713844E+04 -1.949637E+04  2.177693E+04  2.482026E+03
       419   5  1.753762E+06 -2.849880E+02  1.529859E+04 -1.081204E+04  1.416617E+04  7.754213E+02
       419   6  1.754576E+06 -1.541713E+02  9.024215E+03 -1.949588E+04  6.555575E+03 -9.456706E+02
       419   7  1.806352E+06  1.473783E+04  3.885928E+04 -1.959242E+04  2.051215E+04  2.481693E+03
       419   8  1.771265E+06  4.007633E+03  1.929190E+04 -1.058944E+04  1.289000E+04  7.751068E+02
       419   9  1.737800E+06 -4.247847E+03  5.297323E+03 -1.895463E+04  5.268413E+03 -9.459699E+02
       419  10  1.702782E+06 -1.062394E+04  1.541642E+04 -1.940039E+04 -1.799951E-10 -5.680742E-10
       419  11  1.736258E+06 -4.577694E+03  1.130481E+04 -1.103464E+04 -1.233660E-09 -6.924399E-10
       419  12  1.771352E+06  3.939470E+03  1.275098E+04 -2.003715E+04 -1.708656E-10 -2.640642E-11
       419  13  1.754566E+06  2.056977E+03  2.713754E+04 -1.949642E+04 -4.111534E-10 -2.142835E-10
       419  14  1.753762E+06 -2.850423E+02  1.529821E+04 -1.081205E+04 -4.138368E-11  1.579382E-10
       419  15  1.754576E+06 -1.541838E+02  9.024133E+03 -1.949588E+04 -8.333858E-10 -1.413482E-10
       419  16  1.806351E+06  1.473771E+04  3.885848E+04 -1.959246E+04 -5.429300E-10  4.787848E-11
       419  17  1.771265E+06  4.007588E+03  1.929159E+04 -1.058945E+04 -8.364162E-10 -1.811286E-10
       419  18  1.737800E+06 -4.247856E+03  5.297269E+03 -1.895462E+04 -2.090710E-11  2.961108E-10
       419  19  1.702783E+06 -1.062379E+04  1.541743E+04 -1.940034E+04 -2.304160E+04 -2.482359E+03
       419  20  1.736259E+06 -4.577630E+03  1.130526E+04 -1.103463E+04 -1.544231E+04 -7.757348E+02
       419  21  1.771352E+06  3.939488E+03  1.275110E+04 -2.003715E+04 -7.842770E+03  9.453736E+02
       419  22  1.754566E+06  2.057110E+03  2.713844E+04 -1.949637E+04 -2.177693E+04 -2.482026E+03
       419  23  1.753762E+06 -2.849880E+02  1.529859E+04 -1.081204E+04 -1.416617E+04 -7.754213E+02
       419  24  1.754576E+06 -1.541713E+02  9.024215E+03 -1.949588E+04 -6.555575E+03  9.456706E+02
       419  25  1.806352E+06  1.473783E+04  3.885928E+04 -1.959242E+04 -2.051215E+04 -2.481693E+03
       419  26  1.771265E+06  4.007633E+03  1.929190E+04 -1.058944E+04 -1.289000E+04 -7.751068E+02
       419  27  1.737800E+06 -4.247847E+03  5.297323E+03 -1.895463E+04 -5.268413E+03  9.459699E+02
       420   1  1.803049E+06  1.206824E+04  1.826242E+04 -1.964884E+04  6.391869E+03 -1.949422E+03
       420   2  1.837285E+06  2.033156E+04  2.345283E+04 -1.086924E+04  4.177366E+03 -3.674874E+03
       420   3  1.871872E+06  2.877784E+04  3.013142E+04 -1.952261E+04  1.962937E+03 -5.406829E+03
       420   4  1.754294E+06  9.271250E+01  7.042845E+03 -1.951051E+04  5.107775E+03 -1.949742E+03
       420   5  1.754118E+06 -6.219001E+01  4.483534E+03 -1.079395E+04  2.888532E+03 -3.675273E+03
       420   6  1.754294E+06 -3.337193E+01  3.415609E+03 -1.951050E+04  6.694852E+02 -5.407301E+03
       420   7  1.705541E+06 -1.188298E+04 -4.176884E+03 -1.937219E+04  3.823780E+03 -1.950063E+03
       420   8  1.670958E+06 -2.045642E+04 -1.448621E+04 -1.071866E+04  1.599870E+03 -3.675672E+03
       420   9  1.636729E+06 -2.884554E+04 -2.330109E+04 -1.949839E+04 -6.237249E+02 -5.407774E+03
       420  10  1.803049E+06  1.206822E+04  1.826234E+04 -1.964883E+04  6.478752E-10 -1.082999E-10
       420  11  1.837285E+06  2.033154E+04  2.345277E+04 -1.086923E+04 -1.844149E-10 -3.370599E-10
       420  12  1.871872E+06  2.877781E+04  3.013135E+04 -1.952260E+04 -6.894299E-10 -2.773741E-10
       420  13  1.754294E+06  9.270144E+01  7.042789E+03 -1.951050E+04  6.619525E-11  1.989867E-10
       420  14  1.754118E+06 -6.220676E+01  4.483493E+03 -1.079394E+04 -1.651846E-10 -4.106313E-10
       420  15  1.754294E+06 -3.340347E+01  3.415553E+03 -1.951050E+04  1.105917E-09  3.867342E-10
       420  16  1.705541E+06 -1.188299E+04 -4.176919E+03 -1.937219E+04 -2.274081E-10  2.656656E-10
       420  17  1.670958E+06 -2.045643E+04 -1.448624E+04 -1.071866E+04 -6.561146E-10 -6.029768E-10
       420  18  1.636729E+06 -2.884557E+04 -2.330114E+04 -1.949839E+04  4.457060E-10  1.551434E-10
       420  19  1.803049E+06  1.206824E+04  1.826242E+04 -1.964884E+04 -6.391869E+03  1.949422E+03
       420  20  1.837285E+06  2.033156E+04  2.345283E+04 -1.086924E+04 -4.177366E+03  3.674874E+03
       420  21  1.871872E+06  2.877784E+04  3.013142E+04 -1.952261E+04 -1.962937E+03  5.406829E+03
       420  22  1.754294E+06  9.271250E+01  7.042845E+03 -1.951051E+04 -5.107775E+03  1.949742E+03
       420  23  1.754118E+06 -6.219001E+01  4.483534E+03 -1.079395E+04 -2.888532E+03  3.675273E+03
       420  24  1.754294E+06 -3.337193E+01  3.415609E+03 -1.951050E+04 -6.694852E+02  5.407301E+03
       420  25  1.705541E+06 -1.188298E+04 -4.176884E+03 -1.937219E+04 -3.823780E+03  1.950063E+03
       420  26  1.670958E+06 -2.045642E+04 -1.448621E+04 -1.071866E+04 -1.599870E+03  3.675672E+03
       420  27  1.636729E+06 -2.884554E+04 -2.330109E+04 -1.949839E+04  6.237249E+02  5.407774E+03
       421   1  1.904149E+06  3.673675E+04  3.757137E+04 -1.952232E+04  1.361448E+03 -6.418746E+03
       421   2  1.938929E+06  4.525260E+04  4.595306E+04 -1.060130E+04 -5.128937E+02 -8.168020E+03
       421   3  1.974025E+06  5.390643E+04  5.559481E+04 -1.938040E+04 -2.386839E+03 -9.928506E+03
       421   4  1.754284E+06 -3.097001E+01  3.291168E+03 -1.956990E+04  6.161795E+01 -6.419297E+03
       421   5  1.754124E+06 -6.213412E+01  3.803506E+03 -1.071970E+04 -1.820646E+03 -8.168743E+03
       421   6  1.754280E+06  4.618612E+01  5.581706E+03 -1.956993E+04 -3.702411E+03 -9.929398E+03
       421   7  1.604441E+06 -3.680025E+04 -3.099050E+04 -1.961747E+04 -1.237902E+03 -6.419849E+03
       421   8  1.569350E+06 -4.537923E+04 -3.834827E+04 -1.083806E+04 -3.128014E+03 -8.169466E+03
       421   9  1.534579E+06 -5.381739E+04 -4.443452E+04 -1.975940E+04 -5.017523E+03 -9.930289E+03
       421  10  1.904149E+06  3.673670E+04  3.757129E+04 -1.952232E+04 -3.350703E-10 -3.233268E-11
       421  11  1.938929E+06  4.525253E+04  4.595293E+04 -1.060130E+04  1.201929E-09  8.882467E-10
       421  12  1.974025E+06  5.390632E+04  5.559461E+04 -1.938041E+04  2.350842E-10 -1.288536E-10
       421  13  1.754284E+06 -3.101430E+01  3.291091E+03 -1.956990E+04  1.335863E-09  1.085124E-09
       421  14  1.754124E+06 -6.220672E+01  3.803374E+03 -1.071971E+04  1.161035E-09  1.228969E-09
       421  15  1.754280E+06  4.607649E+01  5.581495E+03 -1.956996E+04  6.454434E-10  1.248231E-10
       421  16  1.604441E+06 -3.680029E+04 -3.099058E+04 -1.961748E+04  6.950950E-10  6.268323E-10
       421  17  1.569350E+06 -4.537931E+04 -3.834841E+04 -1.083808E+04 -9.402473E-10 -1.488277E-10
       421  18  1.534579E+06 -5.381750E+04 -4.443476E+04 -1.975944E+04 -6.287234E-10 -2.922499E-10
       421  19  1.904149E+06  3.673675E+04  3.757137E+04 -1.952232E+04 -1.361448E+03  6.418746E+03
       421  20  1.938929E+06  4.525260E+04  4.595306E+04 -1.060130E+04  5.128937E+02  8.168020E+03
       421  21  1.974025E+06  5.390643E+04  5.559481E+04 -1.938040E+04  2.386839E+03  9.928506E+03
       421  22  1.754284E+06 -3.097001E+01  3.291168E+03 -1.956990E+04 -6.161795E+01  6.419297E+03
       421  23  1.754124E+06 -6.213412E+01  3.803506E+03 -1.071970E+04  1.820646E+03  8.168743E+03
       421  24  1.754280E+06  4.618612E+01  5.581706E+03 -1.956993E+04  3.702411E+03  9.929398E+03
       421  25  1.604441E+06 -3.680025E+04 -3.099050E+04 -1.961747E+04  1.237902E+03  6.419849E+03
       421  26  1.569350E+06 -4.537923E+04 -3.834827E+04 -1.083806E+04  3.128014E+03  8.169466E+03
       421  27  1.534579E+06 -5.381739E+04 -4.443452E+04 -1.975940E+04  5.017523E+03  9.930289E+03
       422   1  2.007207E+06  6.184197E+04  6.476969E+04 -1.916182E+04 -3.503184E+03 -1.096553E+04
       422   2  2.042422E+06  7.051214E+04  7.754251E+04 -1.027563E+04 -9.346907E+03 -1.275632E+04
       422   3  2.078938E+06  8.105124E+04  9.459412E+04 -1.956213E+04 -1.519014E+04 -1.453563E+04
       422   4  1.754494E+06 -1.417335E+02  7.035119E+03 -1.967461E+04 -4.839203E+03 -1.096657E+04
       422   5  1.753838E+06 -2.456514E+02  1.172614E+04 -1.058857E+04 -1.067198E+04 -1.275762E+04
       422   6  1.754482E+06  1.518393E+03  2.069006E+04 -1.967573E+04 -1.650394E+04 -1.453719E+04
       422   7  1.501841E+06 -6.212986E+04 -5.070362E+04 -2.018719E+04 -6.174683E+03 -1.096761E+04
       422   8  1.465332E+06 -7.100919E+04 -5.409566E+04 -1.090138E+04 -1.199645E+04 -1.275892E+04
       422   9  1.430123E+06 -7.802172E+04 -5.322084E+04 -1.978929E+04 -1.781707E+04 -1.453875E+04
       422  10  2.007207E+06  6.184184E+04  6.476945E+04 -1.916185E+04 -2.145285E-11  6.724641E-10
       422  11  2.042422E+06  7.051194E+04  7.754204E+04 -1.027573E+04 -1.187158E-09 -9.622424E-10
       422  12  2.078938E+06  8.105095E+04  9.459329E+04 -1.956230E+04  1.113991E-09  6.447775E-10
       422  13  1.754494E+06 -1.418690E+02  7.034849E+03 -1.967465E+04 -1.393343E-10  2.686237E-10
       422  14  1.753838E+06 -2.458568E+02  1.172562E+04 -1.058868E+04 -6.371429E-10  1.370580E-10
       422  15  1.754481E+06  1.518093E+03  2.068915E+04 -1.967592E+04  9.525136E-10  1.772748E-10
       422  16  1.501841E+06 -6.213000E+04 -5.070392E+04 -2.018724E+04 -9.698138E-11 -5.299390E-10
       422  17  1.465332E+06 -7.100941E+04 -5.409624E+04 -1.090150E+04 -1.021871E-09 -4.371328E-11
       422  18  1.430122E+06 -7.802203E+04 -5.322183E+04 -1.978950E+04 -4.193854E-10  6.094834E-10
       422  19  2.007207E+06  6.184197E+04  6.476969E+04 -1.916182E+04  3.503184E+03  1.096553E+04
       422  20  2.042422E+06  7.051214E+04  7.754251E+04 -1.027563E+04  9.346907E+03  1.275632E+04
       422  21  2.078938E+06  8.105124E+04  9.459412E+04 -1.956213E+04  1.519014E+04  1.453563E+04
       422  22  1.754494E+06 -1.417335E+02  7.035119E+03 -1.967461E+04  4.839203E+03  1.096657E+04
       422  23  1.753838E+06 -2.456514E+02  1.172614E+04 -1.058857E+04  1.067198E+04  1.275762E+04
       422  24  1.754482E+06  1.518393E+03  2.069006E+04 -1.967573E+04  1.650394E+04  1.453719E+04
       422  25  1.501841E+06 -6.212986E+04 -5.070362E+04 -2.018719E+04  6.174683E+03  1.096761E+04
       422  26  1.465332E+06 -7.100919E+04 -5.409566E+04 -1.090138E+04  1.199645E+04  1.275892E+04
       422  27  1.430123E+06 -7.802172E+04 -5.322084E+04 -1.978929E+04  1.781707E+04  1.453875E+04
       423   1  2.114792E+06  8.652114E+04  1.086074E+05 -1.554177E+04 -1.915287E+04 -1.568121E+04
       423   2  2.147204E+06  9.518540E+04  1.361446E+05 -1.207785E+04 -4.282949E+04 -1.745202E+04
       423   3  2.189217E+06  1.294518E+05  1.854883E+05 -2.745573E+04 -6.650814E+04 -1.859198E+04
       423   4  1.756306E+06 -1.397355E+03  2.676744E+04 -1.981610E+04 -2.068500E+04 -1.568303E+04
       423   5  1.751523E+06 -1.827658E+03  4.587582E+04 -1.040835E+04 -4.387809E+04 -1.745401E+04
       423   6  1.756260E+06  2.327000E+04  8.646564E+04 -1.984277E+04 -6.707181E+04 -1.859440E+04
       423   7  1.397939E+06 -8.932468E+04 -5.508092E+04 -2.408797E+04 -2.221625E+04 -1.568484E+04
       423   8  1.355985E+06 -9.885152E+04 -4.440320E+04 -8.739955E+03 -4.492603E+04 -1.745601E+04
       423   9  1.323477E+06 -8.292460E+04 -1.256926E+04 -1.223519E+04 -6.763508E+04 -1.859683E+04
       423  10  2.114791E+06  8.652078E+04  1.086063E+05 -1.554201E+04  1.124882E-09 -4.745557E-11
       423  11  2.147202E+06  9.518458E+04  1.361406E+05 -1.207845E+04  8.100794E-10 -1.316763E-09
       423  12  2.189212E+06  1.294503E+05  1.854794E+05 -2.745673E+04  5.138364E-10 -1.474971E-09
       423  13  1.756306E+06 -1.397733E+03  2.676618E+04 -1.981636E+04  6.544403E-10 -2.108958E-10
       423  14  1.751520E+06 -1.828500E+03  4.587164E+04 -1.040896E+04 -6.052622E-10 -8.401735E-10
       423  15  1.756255E+06  2.326843E+04  8.645656E+04 -1.984377E+04  1.108417E-09 -9.881612E-10
       423  16  1.397939E+06 -8.932508E+04 -5.508231E+04 -2.408825E+04 -6.872883E-10  2.885893E-11
       423  17  1.355983E+06 -9.885239E+04 -4.440756E+04 -8.740586E+03  7.982774E-11  1.999788E-09
       423  18  1.323472E+06 -8.292620E+04 -1.257849E+04 -1.223620E+04  5.369411E-10  2.536935E-10
       423  19  2.114792E+06  8.652114E+04  1.086074E+05 -1.554177E+04  1.915287E+04  1.568121E+04
       423  20  2.147204E+06  9.518540E+04  1.361446E+05 -1.207785E+04  4.282949E+04  1.745202E+04
       423  21  2.189217E+06  1.294518E+05  1.854883E+05 -2.745573E+04  6.650814E+04  1.859198E+04
       423  22  1.756306E+06 -1.397355E+03  2.676744E+04 -1.981610E+04  2.068500E+04  1.568303E+04
       423  23  1.751523E+06 -1.827658E+03  4.587582E+04 -1.040835E+04  4.387809E+04  1.745401E+04
       423  24  1.756260E+06  2.327000E+04  8.646564E+04 -1.984277E+04  6.707181E+04  1.859440E+04
       423  25  1.397939E+06 -8.932468E+04 -5.508092E+04 -2.408797E+04  2.221625E+04  1.568484E+04
       423  26  1.355985E+06 -9.885152E+04 -4.440320E+04 -8.739955E+03  4.492603E+04  1.745601E+04
       423  27  1.323477E+06 -8.292460E+04 -1.256926E+04 -1.223519E+04  6.763508E+04  1.859683E+04
       424   1  2.244730E+06  9.712547E+04  2.141728E+05  2.870729E+04 -7.808569E+04 -2.129597E+04
       424   2  2.233519E+06  1.045538E+05  2.951449E+05 -5.394517E+04 -1.838304E+05 -2.107979E+04
       424   3  2.323244E+06  4.603165E+05  5.319299E+05 -1.562732E+05 -2.896056E+05 -7.124429E+03
       424   4  1.776243E+06 -1.784040E+04  1.075545E+05 -1.985865E+04 -8.290319E+04 -2.129727E+04
       424   5  1.726489E+06 -1.974358E+04  1.787935E+05 -1.029873E+04 -1.783522E+05 -2.108578E+04
       424   6  1.775953E+06  3.250257E+05  3.987897E+05 -2.040077E+04 -2.738228E+05 -7.161431E+03
       424   7  1.307963E+06 -1.328126E+05  9.231842E+02 -6.838778E+04 -8.771708E+04 -2.129781E+04
       424   8  1.219700E+06 -1.440516E+05  6.242637E+04  3.331181E+04 -1.728784E+05 -2.109100E+04
       424   9  1.228975E+06  1.897825E+05  2.656387E+05  1.153519E+05 -2.580537E+05 -7.191583E+03
       424  10  2.244724E+06  9.712335E+04  2.141606E+05  2.870595E+04  6.125450E-10 -2.340026E-09
       424  11  2.233482E+06  1.045443E+05  2.950808E+05 -5.394829E+04 -1.165527E-09 -4.519142E-09
       424  12  2.323154E+06  4.602940E+05  5.317728E+05 -1.562749E+05 -1.665383E-09 -1.335417E-09
       424  13  1.776235E+06 -1.784273E+04  1.075407E+05 -1.986007E+04 -1.517299E-09 -6.250274E-09
       424  14  1.726455E+06 -1.975257E+04  1.787331E+05 -1.030175E+04  1.421952E-09  2.845895E-09
       424  15  1.775873E+06  3.250056E+05  3.986491E+05 -2.040235E+04  2.883896E-09  3.800737E-11
       424  16  1.307955E+06 -1.328152E+05  9.079022E+02 -6.838929E+04 -4.213587E-10 -1.076898E-09
       424  17  1.219668E+06 -1.440601E+05  6.236948E+04  3.330888E+04  5.191497E-10  1.824917E-09
       424  18  1.228904E+06  1.897646E+05  2.655137E+05  1.153504E+05  1.596450E-09 -1.991333E-09
       424  19  2.244730E+06  9.712547E+04  2.141728E+05  2.870729E+04  7.808569E+04  2.129597E+04
       424  20  2.233519E+06  1.045538E+05  2.951449E+05 -5.394517E+04  1.838304E+05  2.107979E+04
       424  21  2.323244E+06  4.603165E+05  5.319299E+05 -1.562732E+05  2.896056E+05  7.124429E+03
       424  22  1.776243E+06 -1.784040E+04  1.075545E+05 -1.985865E+04  8.290319E+04  2.129727E+04
       424  23  1.726489E+06 -1.974358E+04  1.787935E+05 -1.029873E+04  1.783522E+05  2.108578E+04
       424  24  1.775953E+06  3.250257E+05  3.987897E+05 -2.040077E+04  2.738228E+05  7.161431E+03
       424  25  1.307963E+06 -1.328126E+05  9.231842E+02 -6.838778E+04  8.771708E+04  2.129781E+04
       424  26  1.219700E+06 -1.440516E+05  6.242637E+04  3.331181E+04  1.728784E+05  2.109100E+04
       424  27  1.228975E+06  1.897825E+05  2.656387E+05  1.153519E+05  2.580537E+05  7.191583E+03
       425   1  5.295901E+05  1.820317E+05  1.662851E+05  3.887229E+04  3.559748E+04 -1.270712E+04
       425   2  4.657367E+05  1.910038E+05  1.406867E+05  4.617590E+04  1.134771E+04 -4.270452E+04
       425   3  4.004940E+05  1.817009E+05  1.263414E+05  6.685681E+04 -1.293656E+04 -5.109897E+04
       425   4 -3.740803E+05 -4.098633E+04 -4.581132E+04  6.307721E+04 -3.190309E+04 -1.283890E+04
       425   5 -3.702522E+05 -8.705949E+03 -2.221702E+04  5.634500E+04 -2.035659E+04 -4.277575E+04
       425   6 -3.740390E+05 -9.296885E+02 -1.222920E+04  6.299097E+04 -8.847544E+03 -5.109523E+04
       425   7 -1.276988E+06 -2.640577E+05 -2.579462E+05  8.724632E+04 -9.930604E+04 -1.297605E+04
       425   8 -1.205568E+06 -2.084567E+05 -1.851501E+05  6.649974E+04 -5.201915E+04 -4.284807E+04
       425   9 -1.147987E+06 -1.835936E+05 -1.508227E+05  5.912974E+04 -4.763476E+03 -5.109153E+04
       425  10  5.295887E+05  1.820311E+05  1.662824E+05  3.887265E+04  3.005107E-09 -6.176667E-10
       425  11  4.657361E+05  1.910019E+05  1.406830E+05  4.617629E+04  3.136112E-09 -4.456054E-09
       425  12  4.004931E+05  1.816981E+05  1.263362E+05  6.685628E+04  2.637949E-10 -3.753513E-09
       425  13 -3.740814E+05 -4.098678E+04 -4.581354E+04  6.307688E+04 -1.451558E-10  1.045244E-09
       425  14 -3.702531E+05 -8.708025E+03 -2.222123E+04  5.634430E+04  4.137003E-10 -3.336048E-09
       425  15 -3.740398E+05 -9.325124E+02 -1.223426E+04  6.299061E+04  1.331743E-09 -3.740802E-10
       425  16 -1.276998E+06 -2.640605E+05 -2.579651E+05  8.724528E+04 -4.653166E-09  3.390998E-10
       425  17 -1.205572E+06 -2.084594E+05 -1.851587E+05  6.649794E+04 -1.299682E-09 -6.369449E-09
       425  18 -1.147988E+06 -1.835964E+05 -1.508276E+05  5.912955E+04 -1.661579E-09 -5.819564E-09
       425  19  5.295901E+05  1.820317E+05  1.662851E+05  3.887229E+04 -3.559748E+04  1.270712E+04
       425  20  4.657367E+05  1.910038E+05  1.406867E+05  4.617590E+04 -1.134771E+04  4.270452E+04
       425  21  4.004940E+05  1.817009E+05  1.263414E+05  6.685681E+04  1.293656E+04  5.109897E+04
       425  22 -3.740803E+05 -4.098633E+04 -4.581132E+04  6.307721E+04  3.190309E+04  1.283890E+04
       425  23 -3.702522E+05 -8.705949E+03 -2.221702E+04  5.634500E+04  2.035659E+04  4.277575E+04
       425  24 -3.740390E+05 -9.296885E+02 -1.222920E+04  6.299097E+04  8.847544E+03  5.109523E+04
       425  25 -1.276988E+06 -2.640577E+05 -2.579462E+05  8.724632E+04  9.930604E+04  1.297605E+04
       425  26 -1.205568E+06 -2.084567E+05 -1.851501E+05  6.649974E+04  5.201915E+04  4.284807E+04
       425  27 -1.147987E+06 -1.835936E+05 -1.508227E+05  5.912974E+04  4.763476E+03  5.109153E+04
       426   1  3.588722E+05  1.705883E+05  1.204073E+05  6.389319E+04 -8.743762E+03 -4.927757E+04
       426   2  2.944739E+05  1.563591E+05  1.103937E+05  5.695816E+04 -9.304341E+03 -4.744248E+04
       426   3  2.299527E+05  1.414864E+05  1.005772E+05  6.480177E+04 -9.871061E+03 -4.372070E+04
       426   4 -3.724838E+05 -1.625533E+03 -9.324173E+03  6.331435E+04 -7.257791E+03 -4.927919E+04
       426   5 -3.721348E+05 -7.386896E+01 -5.139021E+03  5.592212E+04 -4.694961E+03 -4.743567E+04
       426   6 -3.724548E+05  2.917299E+02 -2.926655E+03  6.330954E+04 -2.138275E+03 -4.370444E+04
       426   7 -1.103317E+06 -1.738689E+05 -1.390755E+05  6.273589E+04 -5.773516E+03 -4.928082E+04
       426   8 -1.038308E+06 -1.565308E+05 -1.206871E+05  5.488695E+04 -9.037548E+01 -4.742887E+04
       426   9 -9.745056E+05 -1.409223E+05 -1.064426E+05  6.181856E+04  5.587244E+03 -4.368821E+04
       426  10  3.588715E+05  1.705857E+05  1.204026E+05  6.389284E+04 -7.011024E-09 -4.773524E-09
       426  11  2.944732E+05  1.563567E+05  1.103893E+05  5.695780E+04 -1.475782E-10  2.427751E-09
       426  12  2.299521E+05  1.414843E+05  1.005734E+05  6.480142E+04  5.109090E-10  2.154635E-09
       426  13 -3.724845E+05 -1.628155E+03 -9.328835E+03  6.331406E+04 -1.088162E-09 -3.871347E-09
       426  14 -3.721355E+05 -7.629070E+01 -5.143291E+03  5.592194E+04  2.277628E-10 -4.526877E-10
       426  15 -3.724553E+05  2.896779E+02 -2.930252E+03  6.330946E+04  2.119439E-09 -2.860248E-09
       426  16 -1.103318E+06 -1.738715E+05 -1.390802E+05  6.273566E+04  4.834677E-09  9.812565E-11
       426  17 -1.038308E+06 -1.565332E+05 -1.206914E+05  5.488694E+04  1.417831E-09  1.789198E-09
       426  18 -9.745061E+05 -1.409244E+05 -1.064462E+05  6.181876E+04 -2.259779E-09 -1.236141E-10
       426  19  3.588722E+05  1.705883E+05  1.204073E+05  6.389319E+04  8.743762E+03  4.927757E+04
       426  20  2.944739E+05  1.563591E+05  1.103937E+05  5.695816E+04  9.304341E+03  4.744248E+04
       426  21  2.299527E+05  1.414864E+05  1.005772E+05  6.480177E+04  9.871061E+03  4.372070E+04
       426  22 -3.724838E+05 -1.625533E+03 -9.324173E+03  6.331435E+04  7.257791E+03  4.927919E+04
       426  23 -3.721348E+05 -7.386896E+01 -5.139021E+03  5.592212E+04  4.694961E+03  4.743567E+04
       426  24 -3.724548E+05  2.917299E+02 -2.926655E+03  6.330954E+04  2.138275E+03  4.370444E+04
       426  25 -1.103317E+06 -1.738689E+05 -1.390755E+05  6.273589E+04  5.773516E+03  4.928082E+04
       426  26 -1.038308E+06 -1.565308E+05 -1.206871E+05  5.488695E+04  9.037548E+01  4.742887E+04
       426  27 -9.745056E+05 -1.409223E+05 -1.064426E+05  6.181856E+04 -5.587244E+03  4.368821E+04
       427   1  1.877832E+05  1.314711E+05  9.367286E+04  6.457759E+04 -9.202953E+03 -4.096923E+04
       427   2  1.232853E+05  1.163601E+05  8.345857E+04  5.699168E+04 -8.857909E+03 -3.635249E+04
       427   3  5.869147E+04  1.013173E+05  7.301710E+04  6.432657E+04 -8.515074E+03 -3.156909E+04
       427   4 -3.723295E+05  2.554486E+02 -2.225056E+03  6.334181E+04 -1.693983E+03 -4.095260E+04
       427   5 -3.722448E+05  2.915610E+02 -1.274234E+03  5.588095E+04 -1.073759E+03 -3.633374E+04
       427   6 -3.723081E+05  3.481511E+02 -7.421201E+02  6.334159E+04 -4.557079E+02 -3.154815E+04
       427   7 -9.321336E+05 -1.309769E+05 -9.813325E+04  6.210697E+04  5.808427E+03 -4.093599E+04
       427   8 -8.675333E+05 -1.157900E+05 -8.601499E+04  5.477096E+04  6.704375E+03 -3.631501E+04
       427   9 -8.031250E+05 -1.006309E+05 -7.450730E+04  6.235717E+04  7.598239E+03 -3.152723E+04
       427  10  1.877826E+05  1.314692E+05  9.366955E+04  6.457729E+04 -5.240663E-09  4.168339E-09
       427  11  1.232849E+05  1.163587E+05  8.345594E+04  5.699142E+04  2.578190E-09  4.006044E-09
       427  12  5.869112E+04  1.013162E+05  7.301509E+04  6.432636E+04  5.821193E-09 -3.725874E-10
       427  13 -3.723299E+05  2.536472E+02 -2.228212E+03  6.334175E+04 -2.533315E-10 -3.758269E-09
       427  14 -3.722451E+05  2.901433E+02 -1.276716E+03  5.588092E+04  7.081877E-10  2.887842E-09
       427  15 -3.723084E+05  3.470825E+02 -7.439905E+02  6.334157E+04  2.546196E-09  5.572993E-09
       427  16 -9.321341E+05 -1.309787E+05 -9.813647E+04  6.210716E+04  4.001419E-09  1.402545E-09
       427  17 -8.675337E+05 -1.157915E+05 -8.601755E+04  5.477116E+04 -9.057507E-10  4.094583E-09
       427  18 -8.031253E+05 -1.006320E+05 -7.450928E+04  6.235736E+04 -7.148124E-09  6.288381E-10
       427  19  1.877832E+05  1.314711E+05  9.367286E+04  6.457759E+04  9.202953E+03  4.096923E+04
       427  20  1.232853E+05  1.163601E+05  8.345857E+04  5.699168E+04  8.857909E+03  3.635249E+04
       427  21  5.869147E+04  1.013173E+05  7.301710E+04  6.432657E+04  8.515074E+03  3.156909E+04
       427  22 -3.723295E+05  2.554486E+02 -2.225056E+03  6.334181E+04  1.693983E+03  4.095260E+04
       427  23 -3.722448E+05  2.915610E+02 -1.274234E+03  5.588095E+04  1.073759E+03  3.633374E+04
       427  24 -3.723081E+05  3.481511E+02 -7.421201E+02  6.334159E+04  4.557079E+02  3.154815E+04
       427  25 -9.321336E+05 -1.309769E+05 -9.813325E+04  6.210697E+04 -5.808427E+03  4.093599E+04
       427  26 -8.675333E+05 -1.157900E+05 -8.601499E+04  5.477096E+04 -6.704375E+03  3.631501E+04
       427  27 -8.031250E+05 -1.006309E+05 -7.450730E+04  6.235717E+04 -7.598239E+03  3.152723E+04
       428   1  1.644504E+04  9.136655E+04  6.567626E+04  6.423521E+04 -8.386324E+03 -2.873334E+04
       428   2 -4.812640E+04  7.622848E+04  5.497764E+04  5.661615E+04 -8.245903E+03 -2.386921E+04
       428   3 -1.127843E+05  6.117918E+04  4.418337E+04  6.394481E+04 -8.106705E+03 -1.898971E+04
       428   4 -3.722898E+05  3.516632E+02 -5.747359E+02  6.334755E+04 -3.441712E+02 -2.871175E+04
       428   5 -3.722349E+05  3.217378E+02 -3.609137E+02  5.587346E+04 -1.788445E+02 -2.384660E+04
       428   6 -3.722759E+05  3.761431E+02 -2.605281E+02  6.334751E+04 -1.472572E+01 -1.896608E+04
       428   7 -7.608758E+05 -9.067121E+04 -6.683047E+04  6.246036E+04  7.693106E+03 -2.869016E+04
       428   8 -6.962399E+05 -7.559056E+04 -5.570270E+04  5.513108E+04  7.884136E+03 -2.382401E+04
       428   9 -6.317012E+05 -6.043045E+04 -4.470644E+04  6.275042E+04  8.073977E+03 -1.894246E+04
       428  10  1.644474E+04  9.136564E+04  6.567458E+04  6.423501E+04 -4.500445E-10 -8.354256E-11
       428  11 -4.812663E+04  7.622785E+04  5.497644E+04  5.661600E+04  9.373873E-10  7.857531E-09
       428  12 -1.127844E+05  6.117878E+04  4.418257E+04  6.394468E+04 -1.890344E-09  7.330831E-09
       428  13 -3.722900E+05  3.507781E+02 -5.762850E+02  6.334754E+04 -2.745029E-10  4.005188E-10
       428  14 -3.722350E+05  3.211273E+02 -3.619822E+02  5.587345E+04  4.792924E-10  8.318563E-09
       428  15 -3.722760E+05  3.757569E+02 -2.612040E+02  6.334751E+04  2.148490E-09  2.654156E-09
       428  16 -7.608761E+05 -9.067211E+04 -6.683213E+04  6.246054E+04 -1.182677E-09  4.133789E-10
       428  17 -6.962401E+05 -7.559118E+04 -5.570388E+04  5.513124E+04  2.438672E-10  2.375815E-09
       428  18 -6.317013E+05 -6.043086E+04 -4.470723E+04  6.275055E+04  8.827218E-11  1.882957E-10
       428  19  1.644504E+04  9.136655E+04  6.567626E+04  6.423521E+04  8.386324E+03  2.873334E+04
       428  20 -4.812640E+04  7.622848E+04  5.497764E+04  5.661615E+04  8.245903E+03  2.386921E+04
       428  21 -1.127843E+05  6.117918E+04  4.418337E+04  6.394481E+04  8.106705E+03  1.898971E+04
       428  22 -3.722898E+05  3.516632E+02 -5.747359E+02  6.334755E+04  3.441712E+02  2.871175E+04
       428  23 -3.722349E+05  3.217378E+02 -3.609137E+02  5.587346E+04  1.788445E+02  2.384660E+04
       428  24 -3.722759E+05  3.761431E+02 -2.605281E+02  6.334751E+04  1.472572E+01  1.896608E+04
       428  25 -7.608758E+05 -9.067121E+04 -6.683047E+04  6.246036E+04 -7.693106E+03  2.869016E+04
       428  26 -6.962399E+05 -7.559056E+04 -5.570270E+04  5.513108E+04 -7.884136E+03  2.382401E+04
       428  27 -6.317012E+05 -6.043045E+04 -4.470644E+04  6.275042E+04 -8.073977E+03  1.894246E+04
       429   1 -1.550740E+05  5.122268E+04  3.669339E+04  6.385026E+04 -8.069686E+03 -1.614441E+04
       429   2 -2.196757E+05  3.607408E+04  2.577121E+04  5.621107E+04 -7.944271E+03 -1.125877E+04
       429   3 -2.843781E+05  2.101063E+04  1.475779E+04  6.353310E+04 -7.819400E+03 -6.378089E+03
       429   4 -3.722734E+05  3.809339E+02 -2.436365E+02  6.335046E+04  2.275556E+01 -1.612037E+04
       429   5 -3.722189E+05  3.468213E+02 -2.654847E+02  5.586973E+04  1.395979E+02 -1.123431E+04
       429   6 -3.722669E+05  3.997525E+02 -3.724832E+02  6.335042E+04  2.559084E+02 -6.353208E+03
       429   7 -5.894263E+05 -5.046328E+04 -3.718196E+04  6.285080E+04  8.112456E+03 -1.609634E+04
       429   8 -5.247391E+05 -3.538164E+04 -2.630270E+04  5.552846E+04  8.221543E+03 -1.120986E+04
       429   9 -4.601479E+05 -2.021151E+04 -1.550278E+04  6.316776E+04  8.330109E+03 -6.328331E+03
       429  10 -1.550741E+05  5.122238E+04  3.669278E+04  6.385015E+04  9.415287E-09  2.002517E-09
       429  11 -2.196758E+05  3.607393E+04  2.577085E+04  5.621100E+04  4.340362E-09 -1.078541E-09
       429  12 -2.843782E+05  2.101057E+04  1.475760E+04  6.353306E+04 -6.098367E-09 -1.693141E-09
       429  13 -3.722735E+05  3.806549E+02 -2.441248E+02  6.335046E+04 -4.336421E-10  1.006949E-08
       429  14 -3.722190E+05  3.466858E+02 -2.657218E+02  5.586973E+04  2.576749E-10  2.562800E-09
       429  15 -3.722669E+05  3.997092E+02 -3.725592E+02  6.335042E+04  2.251708E-09 -3.653593E-09
       429  16 -5.894264E+05 -5.046358E+04 -3.718257E+04  6.285091E+04 -1.132435E-08  3.573758E-09
       429  17 -5.247392E+05 -3.538180E+04 -2.630306E+04  5.552853E+04 -2.740741E-09 -1.627277E-09
       429  18 -4.601480E+05 -2.021157E+04 -1.550298E+04  6.316780E+04  4.485354E-09 -2.848072E-09
       429  19 -1.550740E+05  5.122268E+04  3.669339E+04  6.385026E+04  8.069686E+03  1.614441E+04
       429  20 -2.196757E+05  3.607408E+04  2.577121E+04  5.621107E+04  7.944271E+03  1.125877E+04
       429  21 -2.843781E+05  2.101063E+04  1.475779E+04  6.353310E+04  7.819400E+03  6.378089E+03
       429  22 -3.722734E+05  3.809339E+02 -2.436365E+02  6.335046E+04 -2.275556E+01  1.612037E+04
       429  23 -3.722189E+05  3.468213E+02 -2.654847E+02  5.586973E+04 -1.395979E+02  1.123431E+04
       429  24 -3.722669E+05  3.997525E+02 -3.724832E+02  6.335042E+04 -2.559084E+02  6.353208E+03
       429  25 -5.894263E+05 -5.046328E+04 -3.718196E+04  6.285080E+04 -8.112456E+03  1.609634E+04
       429  26 -5.247391E+05 -3.538164E+04 -2.630270E+04  5.552846E+04 -8.221543E+03  1.120986E+04
       429  27 -4.601479E+05 -2.021151E+04 -1.550278E+04  6.316776E+04 -8.330109E+03  6.328331E+03
       430   1 -3.266927E+05  1.104795E+04  7.149494E+03  6.342174E+04 -7.761944E+03 -3.534006E+03
       430   2 -3.912677E+05 -4.116049E+03 -4.104589E+03  5.577462E+04 -7.260949E+03  1.312053E+03
       430   3 -4.560096E+05 -1.925253E+04 -1.570993E+04  6.308619E+04 -6.759705E+03  6.078410E+03
       430   4 -3.722759E+05  4.043187E+02 -4.668015E+02  6.334977E+04  3.230069E+02 -3.508980E+03
       430   5 -3.722023E+05  3.651906E+02 -7.748670E+02  5.587049E+04  6.916953E+02  1.336612E+03
       430   6 -3.722768E+05  3.767195E+02 -1.342377E+03  6.334986E+04  1.060684E+03  6.102510E+03
       430   7 -4.178569E+05 -1.023938E+04 -8.082916E+03  6.327780E+04  8.407383E+03 -3.483955E+03
       430   8 -3.531365E+05  4.846445E+03  2.555080E+03  5.596637E+04  8.644577E+03  1.361174E+03
       430   9 -2.885370E+05  2.000563E+04  1.302517E+04  6.361356E+04  8.882095E+03  6.126614E+03
       430  10 -3.266928E+05  1.104792E+04  7.149358E+03  6.342172E+04 -4.041303E-09  2.305117E-09
       430  11 -3.912678E+05 -4.116065E+03 -4.104691E+03  5.577463E+04 -4.003756E-10  3.574590E-09
       430  12 -4.560097E+05 -1.925258E+04 -1.571008E+04  6.308623E+04 -3.297645E-09  3.086342E-09
       430  13 -3.722759E+05  4.043055E+02 -4.668249E+02  6.334977E+04 -1.878526E-11  6.669518E-10
       430  14 -3.722023E+05  3.651885E+02 -7.748712E+02  5.587049E+04  6.688764E-10 -1.385234E-11
       430  15 -3.722768E+05  3.766792E+02 -1.342449E+03  6.334986E+04  2.352580E-09  9.386276E-10
       430  16 -4.178570E+05 -1.023941E+04 -8.083071E+03  6.327783E+04  2.341312E-09  2.064201E-09
       430  17 -3.531365E+05  4.846423E+03  2.554936E+03  5.596636E+04  3.312030E-09 -8.071748E-09
       430  18 -2.885371E+05  2.000557E+04  1.302495E+04  6.361352E+04  1.739676E-09 -1.572035E-09
       430  19 -3.266927E+05  1.104795E+04  7.149494E+03  6.342174E+04  7.761944E+03  3.534006E+03
       430  20 -3.912677E+05 -4.116049E+03 -4.104589E+03  5.577462E+04  7.260949E+03 -1.312053E+03
       430  21 -4.560096E+05 -1.925253E+04 -1.570993E+04  6.308619E+04  6.759705E+03 -6.078410E+03
       430  22 -3.722759E+05  4.043187E+02 -4.668015E+02  6.334977E+04 -3.230069E+02  3.508980E+03
       430  23 -3.722023E+05  3.651906E+02 -7.748670E+02  5.587049E+04 -6.916953E+02 -1.336612E+03
       430  24 -3.722768E+05  3.767195E+02 -1.342377E+03  6.334986E+04 -1.060684E+03 -6.102510E+03
       430  25 -4.178569E+05 -1.023938E+04 -8.082916E+03  6.327780E+04 -8.407383E+03  3.483955E+03
       430  26 -3.531365E+05  4.846445E+03  2.555080E+03  5.596637E+04 -8.644577E+03 -1.361174E+03
       430  27 -2.885370E+05  2.000563E+04  1.302517E+04  6.361356E+04 -8.882095E+03 -6.126614E+03
       431   1 -4.984202E+05 -2.921189E+04 -2.369700E+04  6.285408E+04 -6.606175E+03  8.883510E+03
       431   2 -5.626947E+05 -4.464182E+04 -3.648543E+04  5.557217E+04 -3.563928E+03  1.322653E+04
       431   3 -6.277015E+05 -6.100931E+04 -5.151945E+04  6.318779E+04 -5.187966E+02  1.665391E+04
       431   4 -3.723509E+05  4.038446E+02 -1.762896E+03  6.333566E+04  1.323531E+03  8.907769E+03
       431   5 -3.721184E+05  1.743831E+02 -3.086913E+03  5.588875E+04  2.850628E+03  1.324566E+04
       431   6 -3.723596E+05 -7.292984E+02 -5.603680E+03  6.333909E+04  4.380936E+03  1.666806E+04
       431   7 -2.462660E+05  3.001876E+04  2.017089E+04  6.381733E+04  9.254800E+03  8.932037E+03
       431   8 -1.815063E+05  4.498863E+04  3.031046E+04  5.620540E+04  9.267096E+03  1.326479E+04
       431   9 -1.169540E+05  5.954709E+04  4.030965E+04  6.349041E+04  9.282628E+03  1.668220E+04
       431  10 -4.984202E+05 -2.921199E+04 -2.369723E+04  6.285412E+04 -9.902064E-09  6.619386E-09
       431  11 -5.626948E+05 -4.464201E+04 -3.648579E+04  5.557221E+04  1.599760E-09 -6.336040E-10
       431  12 -6.277016E+05 -6.100961E+04 -5.151997E+04  6.318780E+04  7.648165E-09  4.517280E-09
       431  13 -3.723510E+05  4.037589E+02 -1.763048E+03  6.333565E+04 -1.598304E-10  1.778944E-09
       431  14 -3.721184E+05  1.741926E+02 -3.087258E+03  5.588872E+04  9.136944E-10  2.295578E-09
       431  15 -3.723597E+05 -7.296018E+02 -5.604238E+03  6.333903E+04  2.745603E-09 -2.590394E-09
       431  16 -2.462661E+05  3.001865E+04  2.017058E+04  6.381726E+04  8.095182E-09  1.281453E-09
       431  17 -1.815065E+05  4.498842E+04  3.030996E+04  5.620530E+04  5.322158E-10  2.020918E-09
       431  18 -1.169541E+05  5.954677E+04  4.030897E+04  6.349029E+04 -9.641391E-09 -7.906882E-09
       431  19 -4.984202E+05 -2.921189E+04 -2.369700E+04  6.285408E+04  6.606175E+03 -8.883510E+03
       431  20 -5.626947E+05 -4.464182E+04 -3.648543E+04  5.557217E+04  3.563928E+03 -1.322653E+04
       431  21 -6.277015E+05 -6.100931E+04 -5.151945E+04  6.318779E+04  5.187966E+02 -1.665391E+04
       431  22 -3.723509E+05  4.038446E+02 -1.762896E+03  6.333566E+04 -1.323531E+03 -8.907769E+03
       431  23 -3.721184E+05  1.743831E+02 -3.086913E+03  5.588875E+04 -2.850628E+03 -1.324566E+04
       431  24 -3.723596E+05 -7.292984E+02 -5.603680E+03  6.333909E+04 -4.380936E+03 -1.666806E+04
       431  25 -2.462660E+05  3.001876E+04  2.017089E+04  6.381733E+04 -9.254800E+03 -8.932037E+03
       431  26 -1.815063E+05  4.498863E+04  3.031046E+04  5.620540E+04 -9.267096E+03 -1.326479E+04
       431  27 -1.169540E+05  5.954709E+04  4.030965E+04  6.349041E+04 -9.282628E+03 -1.668220E+04
       432   1 -6.714029E+05 -7.079454E+04 -6.143437E+04  6.098097E+04 -8.306582E+02  1.900341E+04
       432   2 -7.322797E+05 -9.156996E+04 -8.487401E+04  6.222017E+04  2.343239E+04  1.755111E+04
       432   3 -8.008359E+05 -1.300791E+05 -1.285697E+05  7.769336E+04  4.772131E+04  5.604109E+03
       432   4 -3.732945E+05 -3.067088E+02 -7.349817E+03  6.318177E+04  5.331512E+03  1.902098E+04
       432   5 -3.709732E+05 -5.002450E+03 -1.334761E+04  5.609946E+04  1.223461E+04  1.751748E+04
       432   6 -3.733141E+05 -2.441002E+04 -2.753385E+04  6.325161E+04  1.916623E+04  5.521437E+03
       432   7 -7.509935E+04  7.017616E+04  4.673136E+04  6.538359E+04  1.149656E+04  1.903858E+04
       432   8 -9.541370E+03  8.155733E+04  5.817284E+04  4.997502E+04  1.030439E+03  1.748409E+04
       432   9  5.437820E+04  8.124721E+04  7.349255E+04  4.879972E+04 -9.408431E+03  5.440125E+03
       432  10 -6.714030E+05 -7.079493E+04 -6.143505E+04  6.098098E+04 -1.773729E-09  1.951752E-09
       432  11 -7.322804E+05 -9.157043E+04 -8.487563E+04  6.221983E+04  1.401941E-09 -2.571204E-09
       432  12 -8.008384E+05 -1.300797E+05 -1.285741E+05  7.769315E+04 -1.452107E-09 -2.227543E-09
       432  13 -3.732946E+05 -3.071048E+02 -7.350550E+03  6.318169E+04 -6.644054E-10  3.396539E-09
       432  14 -3.709735E+05 -5.002820E+03 -1.334847E+04  5.609928E+04  6.241987E-10 -9.613260E-09
       432  15 -3.733145E+05 -2.441015E+04 -2.753460E+04  6.325152E+04  1.766522E-09  2.662201E-09
       432  16 -7.509959E+04  7.017574E+04  4.673043E+04  6.538342E+04 -3.706728E-10 -7.595811E-10
       432  17 -9.541453E+03  8.155700E+04  5.817227E+04  4.997500E+04  7.109218E-10  2.111500E-09
       432  18  5.437810E+04  8.124716E+04  7.349233E+04  4.879976E+04 -5.443158E-11 -4.373540E-10
       432  19 -6.714029E+05 -7.079454E+04 -6.143437E+04  6.098097E+04  8.306582E+02 -1.900341E+04
       432  20 -7.322797E+05 -9.156996E+04 -8.487401E+04  6.222017E+04 -2.343239E+04 -1.755111E+04
       432  21 -8.008359E+05 -1.300791E+05 -1.285697E+05  7.769336E+04 -4.772131E+04 -5.604109E+03
       432  22 -3.732945E+05 -3.067088E+02 -7.349817E+03  6.318177E+04 -5.331512E+03 -1.902098E+04
       432  23 -3.709732E+05 -5.002450E+03 -1.334761E+04  5.609946E+04 -1.223461E+04 -1.751748E+04
       432  24 -3.733141E+05 -2.441002E+04 -2.753385E+04  6.325161E+04 -1.916623E+04 -5.521437E+03
       432  25 -7.509935E+04  7.017616E+04  4.673136E+04  6.538359E+04 -1.149656E+04 -1.903858E+04
       432  26 -9.541370E+03  8.155733E+04  5.817284E+04  4.997502E+04 -1.030439E+03 -1.748409E+04
       432  27  5.437820E+04  8.124721E+04  7.349255E+04  4.879972E+04  9.408431E+03 -5.440125E+03
       433   1 -1.136818E+05  5.810918E+04  4.351583E+04 -2.961620E+03 -3.338056E+04 -5.655080E+03
       433   2 -1.419330E+05  1.063128E+05  6.600745E+04  3.650398E+03 -2.575406E+04 -1.730603E+04
       433   3 -1.854967E+05  9.736611E+04  6.926265E+04  2.804885E+04 -1.816059E+04 -1.741233E+04
       433   4 -5.688375E+05 -5.502649E+04 -6.758929E+04  1.917053E+04 -4.633386E+04 -5.692930E+03
       433   5 -5.604175E+05  3.373884E+03 -3.029775E+04  1.019227E+04 -3.012921E+04 -1.732014E+04
       433   6 -5.688132E+05  3.112110E+03 -1.821336E+04  1.900171E+04 -1.395690E+04 -1.739961E+04
       433   7 -1.023803E+06 -1.681755E+05 -1.787086E+05  4.128628E+04 -5.927768E+04 -5.731719E+03
       433   8 -9.787398E+05 -9.957709E+04 -1.266145E+05  1.672958E+04 -3.450144E+04 -1.733435E+04
       433   9 -9.519932E+05 -9.115180E+04 -1.056989E+05  9.960103E+03 -9.755770E+03 -1.738701E+04
       433  10 -1.136830E+05  5.810885E+04  4.351367E+04 -2.961772E+03 -4.440138E-09 -8.103729E-10
       433  11 -1.419338E+05  1.063123E+05  6.600564E+04  3.650039E+03 -5.803096E-10  8.049916E-09
       433  12 -1.854971E+05  9.736570E+04  6.926146E+04  2.804859E+04  1.568997E-09  4.205805E-09
       433  13 -5.688398E+05 -5.502711E+04 -6.759339E+04  1.917032E+04  1.887045E-09 -5.612015E-09
       433  14 -5.604186E+05  3.373318E+03 -3.030002E+04  1.019185E+04  1.524373E-10 -9.012641E-09
       433  15 -5.688135E+05  3.111732E+03 -1.821429E+04  1.900152E+04  3.953513E-09  2.033961E-10
       433  16 -1.023806E+06 -1.681765E+05 -1.787153E+05  4.128601E+04  4.817432E-09  2.367934E-10
       433  17 -9.787411E+05 -9.957773E+04 -1.266173E+05  1.672910E+04 -9.567645E-10  1.035619E-08
       433  18 -9.519934E+05 -9.115215E+04 -1.056996E+05  9.959966E+03 -7.525828E-10 -1.374586E-09
       433  19 -1.136818E+05  5.810918E+04  4.351583E+04 -2.961620E+03  3.338056E+04  5.655080E+03
       433  20 -1.419330E+05  1.063128E+05  6.600745E+04  3.650398E+03  2.575406E+04  1.730603E+04
       433  21 -1.854967E+05  9.736611E+04  6.926265E+04  2.804885E+04  1.816059E+04  1.741233E+04
       433  22 -5.688375E+05 -5.502649E+04 -6.758929E+04  1.917053E+04  4.633386E+04  5.692930E+03
       433  23 -5.604175E+05  3.373884E+03 -3.029775E+04  1.019227E+04  3.012921E+04  1.732014E+04
       433  24 -5.688132E+05  3.112110E+03 -1.821336E+04  1.900171E+04  1.395690E+04  1.739961E+04
       433  25 -1.023803E+06 -1.681755E+05 -1.787086E+05  4.128628E+04  5.927768E+04  5.731719E+03
       433  26 -9.787398E+05 -9.957709E+04 -1.266145E+05  1.672958E+04  3.450144E+04  1.733435E+04
       433  27 -9.519932E+05 -9.115180E+04 -1.056989E+05  9.960103E+03  9.755770E+03  1.738701E+04
       434   1 -2.158650E+05  8.211361E+04  6.552631E+04  1.867214E+04 -1.195383E+04 -1.502708E+04
       434   2 -2.512458E+05  7.739119E+04  6.391048E+04  1.045939E+04 -8.447360E+03 -1.384751E+04
       434   3 -2.882172E+05  6.853256E+04  5.895583E+04  2.057963E+04 -4.943772E+03 -1.210537E+04
       434   4 -5.654439E+05 -3.858391E+03 -1.464422E+04  1.918004E+04 -1.128984E+04 -1.502555E+04
       434   5 -5.646068E+05  3.546390E+02 -7.771123E+03  1.000624E+04 -7.366938E+03 -1.384438E+04
       434   6 -5.654355E+05  3.577301E+02 -4.527747E+03  1.916608E+04 -3.446724E+03 -1.210052E+04
       434   7 -9.149095E+05 -8.983891E+04 -9.482280E+04  1.968756E+04 -1.062621E+04 -1.502401E+04
       434   8 -8.778768E+05 -7.668874E+04 -7.945917E+04  9.553244E+03 -6.287056E+03 -1.384125E+04
       434   9 -8.425826E+05 -6.782245E+04 -6.801637E+04  1.775309E+04 -1.950340E+03 -1.209567E+04
       434  10 -2.158652E+05  8.211333E+04  6.552562E+04  1.867199E+04 -1.617848E-09 -1.156974E-09
       434  11 -2.512459E+05  7.739096E+04  6.390999E+04  1.045930E+04 -1.293768E-09 -5.473131E-10
       434  12 -2.882172E+05  6.853240E+04  5.895551E+04  2.057958E+04 -8.227204E-10  9.180871E-09
       434  13 -5.654440E+05 -3.858668E+03 -1.464488E+04  1.917990E+04  1.419175E-09  7.832577E-09
       434  14 -5.646070E+05  3.544186E+02 -7.771585E+03  1.000616E+04  6.924508E-10 -2.354513E-08
       434  15 -5.654356E+05  3.575697E+02 -4.528045E+03  1.916604E+04  4.066460E-09  4.025244E-09
       434  16 -9.149097E+05 -8.983918E+04 -9.482343E+04  1.968743E+04  3.302104E-09 -9.957156E-09
       434  17 -8.778769E+05 -7.668896E+04 -7.945960E+04  9.553173E+03  1.137722E-09 -6.857309E-09
       434  18 -8.425827E+05 -6.782260E+04 -6.801665E+04  1.775307E+04  7.023008E-10 -1.462036E-09
       434  19 -2.158650E+05  8.211361E+04  6.552631E+04  1.867214E+04  1.195383E+04  1.502708E+04
       434  20 -2.512458E+05  7.739119E+04  6.391048E+04  1.045939E+04  8.447360E+03  1.384751E+04
       434  21 -2.882172E+05  6.853256E+04  5.895583E+04  2.057963E+04  4.943772E+03  1.210537E+04
       434  22 -5.654439E+05 -3.858391E+03 -1.464422E+04  1.918004E+04  1.128984E+04  1.502555E+04
       434  23 -5.646068E+05  3.546390E+02 -7.771123E+03  1.000624E+04  7.366938E+03  1.384438E+04
       434  24 -5.654355E+05  3.577301E+02 -4.527747E+03  1.916608E+04  3.446724E+03  1.210052E+04
       434  25 -9.149095E+05 -8.983891E+04 -9.482280E+04  1.968756E+04  1.062621E+04  1.502401E+04
       434  26 -8.778768E+05 -7.668874E+04 -7.945917E+04  9.553244E+03  6.287056E+03  1.384125E+04
       434  27 -8.425826E+05 -6.782245E+04 -6.801637E+04  1.775309E+04  1.950340E+03  1.209567E+04
       435   1 -3.218897E+05  5.964363E+04  5.202951E+04  1.984570E+04 -4.074749E+03 -1.097441E+04
       435   2 -3.582227E+05  5.093600E+04  4.528885E+04  1.054256E+04 -3.114863E+03 -9.167804E+03
       435   3 -3.948706E+05  4.204633E+04  3.784477E+04  1.975708E+04 -2.155708E+03 -7.329872E+03
       435   4 -5.651323E+05 -1.374573E+02 -3.502550E+03  1.921174E+04 -2.744653E+03 -1.096999E+04
       435   5 -5.649701E+05  1.072228E+02 -1.989638E+03  9.952167E+03 -1.761846E+03 -9.163106E+03
       435   6 -5.651278E+05  1.660004E+02 -1.196106E+03  1.921063E+04 -7.797160E+02 -7.324890E+03
       435   7 -8.083200E+05 -5.992265E+04 -5.903848E+04  1.857798E+04 -1.415073E+03 -1.096557E+04
       435   8 -7.716780E+05 -5.072453E+04 -4.927092E+04  9.361932E+03 -4.092769E+02 -9.158409E+03
       435   9 -7.353581E+05 -4.171635E+04 -4.023888E+04  1.866430E+04  5.959018E+02 -7.319909E+03
       435  10 -3.218897E+05  5.964350E+04  5.202926E+04  1.984566E+04 -7.818488E-09 -7.267901E-09
       435  11 -3.582227E+05  5.093591E+04  4.528868E+04  1.054254E+04  7.042206E-10 -1.202307E-08
       435  12 -3.948706E+05  4.204627E+04  3.784466E+04  1.975707E+04  1.106552E-08 -9.145904E-09
       435  13 -5.651323E+05 -1.375885E+02 -3.502791E+03  1.921171E+04  1.845278E-09 -2.774784E-09
       435  14 -5.649702E+05  1.071318E+02 -1.989801E+03  9.952154E+03 -6.649186E-10 -1.404188E-08
       435  15 -5.651278E+05  1.659426E+02 -1.196208E+03  1.921062E+04  4.891218E-09 -3.474801E-09
       435  16 -8.083200E+05 -5.992278E+04 -5.903870E+04  1.857796E+04  8.949180E-09 -7.157352E-09
       435  17 -7.716780E+05 -5.072462E+04 -4.927108E+04  9.361929E+03 -2.188189E-09  2.063172E-09
       435  18 -7.353581E+05 -4.171640E+04 -4.023898E+04  1.866430E+04 -1.079371E-08  1.181436E-08
       435  19 -3.218897E+05  5.964363E+04  5.202951E+04  1.984570E+04  4.074749E+03  1.097441E+04
       435  20 -3.582227E+05  5.093600E+04  4.528885E+04  1.054256E+04  3.114863E+03  9.167804E+03
       435  21 -3.948706E+05  4.204633E+04  3.784477E+04  1.975708E+04  2.155708E+03  7.329872E+03
       435  22 -5.651323E+05 -1.374573E+02 -3.502550E+03  1.921174E+04  2.744653E+03  1.096999E+04
       435  23 -5.649701E+05  1.072228E+02 -1.989638E+03  9.952167E+03  1.761846E+03  9.163106E+03
       435  24 -5.651278E+05  1.660004E+02 -1.196106E+03  1.921063E+04  7.797160E+02  7.324890E+03
       435  25 -8.083200E+05 -5.992265E+04 -5.903848E+04  1.857798E+04  1.415073E+03  1.096557E+04
       435  26 -7.716780E+05 -5.072453E+04 -4.927092E+04  9.361932E+03  4.092769E+02  9.158409E+03
       435  27 -7.353581E+05 -4.171635E+04 -4.023888E+04  1.866430E+04 -5.959018E+02  7.319909E+03
       436   1 -4.290507E+05  3.356046E+04  3.004966E+04  1.963361E+04 -1.960316E+03 -6.253519E+03
       436   2 -4.656414E+05  2.451876E+04  2.205814E+04  1.021653E+04 -1.641011E+03 -4.408311E+03
       436   3 -5.024148E+05  1.559021E+04  1.384841E+04  1.941431E+04 -1.322020E+03 -2.559690E+03
       436   4 -5.650952E+05  1.338101E+02 -9.550763E+02  1.923254E+04 -5.903048E+02 -6.248465E+03
       436   5 -5.650019E+05  8.947921E+01 -6.642253E+02  9.924971E+03 -2.685593E+02 -4.403156E+03
       436   6 -5.650931E+05  1.579433E+02 -5.932552E+02  1.923244E+04  5.289173E+01 -2.554428E+03
       436   7 -7.011224E+05 -3.329412E+04 -3.196101E+04  1.883154E+04  7.794086E+02 -6.243413E+03
       436   8 -6.643533E+05 -2.434049E+04 -2.338723E+04  9.633447E+03  1.103675E+03 -4.398002E+03
       436   9 -6.277678E+05 -1.527459E+04 -1.503517E+04  1.905058E+04  1.427666E+03 -2.549167E+03
       436  10 -4.290507E+05  3.356041E+04  3.004958E+04  1.963360E+04  8.328147E-09 -1.111125E-08
       436  11 -4.656414E+05  2.451874E+04  2.205810E+04  1.021653E+04 -2.627206E-09  5.646393E-10
       436  12 -5.024148E+05  1.559020E+04  1.384839E+04  1.941431E+04 -9.148717E-09  5.018273E-10
       436  13 -5.650952E+05  1.337681E+02 -9.551503E+02  1.923254E+04  1.978044E-09  4.211305E-09
       436  14 -5.650019E+05  8.945837E+01 -6.642618E+02  9.924970E+03 -6.503559E-10 -1.284075E-08
       436  15 -5.650931E+05  1.579363E+02 -5.932675E+02  1.923244E+04  4.926742E-09 -2.163964E-09
       436  16 -7.011224E+05 -3.329416E+04 -3.196109E+04  1.883155E+04 -7.157295E-09  7.700943E-09
       436  17 -6.643533E+05 -2.434051E+04 -2.338727E+04  9.633451E+03  6.878204E-10  1.274979E-08
       436  18 -6.277678E+05 -1.527460E+04 -1.503519E+04  1.905058E+04  9.532948E-09  1.221399E-09
       436  19 -4.290507E+05  3.356046E+04  3.004966E+04  1.963361E+04  1.960316E+03  6.253519E+03
       436  20 -4.656414E+05  2.451876E+04  2.205814E+04  1.021653E+04  1.641011E+03  4.408311E+03
       436  21 -5.024148E+05  1.559021E+04  1.384841E+04  1.941431E+04  1.322020E+03  2.559690E+03
       436  22 -5.650952E+05  1.338101E+02 -9.550763E+02  1.923254E+04  5.903048E+02  6.248465E+03
       436  23 -5.650019E+05  8.947921E+01 -6.642253E+02  9.924971E+03  2.685593E+02  4.403156E+03
       436  24 -5.650931E+05  1.579433E+02 -5.932552E+02  1.923244E+04 -5.289173E+01  2.554428E+03
       436  25 -7.011224E+05 -3.329412E+04 -3.196101E+04  1.883154E+04 -7.794086E+02  6.243413E+03
       436  26 -6.643533E+05 -2.434049E+04 -2.338723E+04  9.633447E+03 -1.103675E+03  4.398002E+03
       436  27 -6.277678E+05 -1.527459E+04 -1.503517E+04  1.905058E+04 -1.427666E+03  2.549167E+03
       437   1 -5.367452E+05  7.107961E+03  5.749143E+03  1.931159E+04 -1.216364E+03 -1.482668E+03
       437   2 -5.733799E+05 -1.967051E+03 -2.764187E+03  9.873958E+03 -8.038458E+02  3.683579E+02
       437   3 -6.102192E+05 -1.093914E+04 -1.156075E+04  1.908054E+04 -3.913302E+02  2.218231E+03
       437   4 -5.650972E+05  1.584849E+02 -6.273810E+02  1.923890E+04  1.591227E+02 -1.477375E+03
       437   5 -5.649942E+05  9.501923E+01 -8.462872E+02  9.916853E+03  5.707410E+02  3.736361E+02
       437   6 -5.650975E+05  1.345786E+02 -1.347872E+03  1.923900E+04  9.823811E+02  2.223501E+03
       437   7 -5.934484E+05 -6.791045E+03 -7.003949E+03  1.916622E+04  1.534547E+03 -1.472083E+03
       437   8 -5.566084E+05  2.157085E+03  1.071616E+03  9.959749E+03  1.945346E+03  3.789144E+02
       437   9 -5.199739E+05  1.120816E+04  8.864880E+03  1.939746E+04  2.356191E+03  2.228770E+03
       437  10 -5.367452E+05  7.107958E+03  5.749136E+03  1.931159E+04  7.817981E-11 -1.937322E-09
       437  11 -5.733799E+05 -1.967051E+03 -2.764189E+03  9.873958E+03  2.156103E-09 -6.772892E-09
       437  12 -6.102192E+05 -1.093915E+04 -1.156076E+04  1.908054E+04 -2.582493E-09 -6.424172E-09
       437  13 -5.650972E+05  1.584825E+02 -6.273852E+02  1.923890E+04  1.502891E-09  7.934056E-09
       437  14 -5.649942E+05  9.501900E+01 -8.462881E+02  9.916853E+03 -1.196139E-09 -1.240410E-08
       437  15 -5.650975E+05  1.345731E+02 -1.347883E+03  1.923899E+04  4.758506E-09 -3.739800E-09
       437  16 -5.934484E+05 -6.791048E+03 -7.003958E+03  1.916622E+04  6.754681E-10 -3.752656E-09
       437  17 -5.566084E+05  2.157084E+03  1.071608E+03  9.959749E+03 -2.281525E-09 -1.804826E-08
       437  18 -5.199739E+05  1.120816E+04  8.864860E+03  1.939745E+04  3.589573E-09 -8.623983E-09
       437  19 -5.367452E+05  7.107961E+03  5.749143E+03  1.931159E+04  1.216364E+03  1.482668E+03
       437  20 -5.733799E+05 -1.967051E+03 -2.764187E+03  9.873958E+03  8.038458E+02 -3.683579E+02
       437  21 -6.102192E+05 -1.093914E+04 -1.156075E+04  1.908054E+04  3.913302E+02 -2.218231E+03
       437  22 -5.650972E+05  1.584849E+02 -6.273810E+02  1.923890E+04 -1.591227E+02  1.477375E+03
       437  23 -5.649942E+05  9.501923E+01 -8.462872E+02  9.916853E+03 -5.707410E+02 -3.736361E+02
       437  24 -5.650975E+05  1.345786E+02 -1.347872E+03  1.923900E+04 -9.823811E+02 -2.223501E+03
       437  25 -5.934484E+05 -6.791045E+03 -7.003949E+03  1.916622E+04 -1.534547E+03  1.472083E+03
       437  26 -5.566084E+05  2.157085E+03  1.071616E+03  9.959749E+03 -1.945346E+03 -3.789144E+02
       437  27 -5.199739E+05  1.120816E+04  8.864880E+03  1.939746E+04 -2.356191E+03 -2.228770E+03
       438   1 -6.445864E+05 -1.937232E+04 -2.000743E+04  1.889435E+04 -1.242644E+02  3.297834E+03
       438   2 -6.810201E+05 -2.841201E+04 -2.950144E+04  9.557681E+03  1.352458E+03  5.146746E+03
       438   3 -7.179003E+05 -3.779823E+04 -4.008249E+04  1.882410E+04  2.829531E+03  6.971356E+03
       438   4 -5.651513E+05  1.825230E+02 -1.732343E+03  1.922926E+04  1.255172E+03  3.303087E+03
       438   5 -5.649308E+05  1.345044E+02 -2.948800E+03  9.928658E+03  2.714051E+03  5.151818E+03
       438   6 -5.651543E+05 -2.566256E+02 -5.239497E+03  1.923092E+04  4.173368E+03  6.976254E+03
       438   7 -4.857104E+05  1.973692E+04  1.654233E+04  1.956420E+04  2.634783E+03  3.308341E+03
       438   8 -4.488290E+05  2.868009E+04  2.360297E+04  1.029969E+04  4.075898E+03  5.156891E+03
       438   9 -4.123866E+05  3.728336E+04  2.960198E+04  1.963783E+04  5.517533E+03  6.981153E+03
       438  10 -6.445864E+05 -1.937233E+04 -2.000745E+04  1.889435E+04 -1.414049E-08 -3.574602E-09
       438  11 -6.810201E+05 -2.841204E+04 -2.950150E+04  9.557675E+03 -5.000881E-09 -1.075912E-08
       438  12 -7.179003E+05 -3.779829E+04 -4.008260E+04  1.882408E+04  4.911044E-09 -2.967828E-09
       438  13 -5.651513E+05  1.825109E+02 -1.732366E+03  1.922925E+04  1.620114E-09 -2.453605E-09
       438  14 -5.649309E+05  1.344740E+02 -2.948864E+03  9.928646E+03 -1.360228E-09 -3.275919E-09
       438  15 -5.651543E+05 -2.566825E+02 -5.239621E+03  1.923090E+04  4.549957E-09  2.028347E-10
       438  16 -4.857104E+05  1.973691E+04  1.654230E+04  1.956420E+04  1.465822E-08  1.001664E-08
       438  17 -4.488291E+05  2.868005E+04  2.360288E+04  1.029968E+04  4.882408E-09 -5.479130E-09
       438  18 -4.123866E+05  3.728330E+04  2.960183E+04  1.963780E+04 -4.171720E-09  6.366168E-09
       438  19 -6.445864E+05 -1.937232E+04 -2.000743E+04  1.889435E+04  1.242644E+02 -3.297834E+03
       438  20 -6.810201E+05 -2.841201E+04 -2.950144E+04  9.557681E+03 -1.352458E+03 -5.146746E+03
       438  21 -7.179003E+05 -3.779823E+04 -4.008249E+04  1.882410E+04 -2.829531E+03 -6.971356E+03
       438  22 -5.651513E+05  1.825230E+02 -1.732343E+03  1.922926E+04 -1.255172E+03 -3.303087E+03
       438  23 -5.649308E+05  1.345044E+02 -2.948800E+03  9.928658E+03 -2.714051E+03 -5.151818E+03
       438  24 -5.651543E+05 -2.566256E+02 -5.239497E+03  1.923092E+04 -4.173368E+03 -6.976254E+03
       438  25 -4.857104E+05  1.973692E+04  1.654233E+04  1.956420E+04 -2.634783E+03 -3.308341E+03
       438  26 -4.488290E+05  2.868009E+04  2.360297E+04  1.029969E+04 -4.075898E+03 -5.156891E+03
       438  27 -4.123866E+05  3.728336E+04  2.960198E+04  1.963783E+04 -5.517533E+03 -6.981153E+03
       439   1 -7.525322E+05 -4.550587E+04 -4.963749E+04  1.765094E+04  3.746418E+03  8.097815E+03
       439   2 -7.877073E+05 -5.440056E+04 -6.276697E+04  9.865580E+03  9.968127E+03  9.881964E+03
       439   3 -8.254437E+05 -6.973872E+04 -8.159344E+04  2.057274E+04  1.619163E+04  1.120947E+04
       439   4 -5.656143E+05  4.871245E+02 -6.786347E+03  1.919883E+04  5.226433E+03  8.103118E+03
       439   5 -5.643668E+05  5.216117E+02 -1.165831E+04  9.963986E+03  1.111061E+04  9.885815E+03
       439   6 -5.656220E+05 -5.827175E+03 -2.199104E+04  1.922133E+04  1.699695E+04  1.121192E+04
       439   7 -3.786641E+05  4.647769E+04  3.606250E+04  2.074715E+04  6.706891E+03  8.108427E+03
       439   8 -3.409801E+05  5.544031E+04  3.944708E+04  1.006239E+04  1.225351E+04  9.889666E+03
       439   9 -3.057377E+05  5.807967E+04  3.760691E+04  1.786931E+04  1.780260E+04  1.121436E+04
       439  10 -7.525322E+05 -4.550594E+04 -4.963764E+04  1.765092E+04  1.544202E-08 -6.999761E-10
       439  11 -7.877075E+05 -5.440069E+04 -6.276734E+04  9.865500E+03  3.883113E-10  1.050929E-08
       439  12 -8.254440E+05 -6.973892E+04 -8.159417E+04  2.057259E+04 -1.012583E-08 -4.093897E-11
       439  13 -5.656144E+05  4.870467E+02 -6.786522E+03  1.919879E+04  2.234365E-09 -9.546140E-09
       439  14 -5.643670E+05  5.214736E+02 -1.165872E+04  9.963897E+03 -1.557722E-09  1.244377E-08
       439  15 -5.656223E+05 -5.827388E+03 -2.199182E+04  1.922118E+04  4.539756E-09  5.610552E-09
       439  16 -3.786641E+05  4.647761E+04  3.606229E+04  2.074711E+04 -1.448870E-08 -3.575618E-09
       439  17 -3.409803E+05  5.544017E+04  3.944661E+04  1.006229E+04 -1.582663E-09 -1.201634E-08
       439  18 -3.057380E+05  5.807945E+04  3.760608E+04  1.786914E+04  1.082278E-08  3.914512E-09
       439  19 -7.525322E+05 -4.550587E+04 -4.963749E+04  1.765094E+04 -3.746418E+03 -8.097815E+03
       439  20 -7.877073E+05 -5.440056E+04 -6.276697E+04  9.865580E+03 -9.968127E+03 -9.881964E+03
       439  21 -8.254437E+05 -6.973872E+04 -8.159344E+04  2.057274E+04 -1.619163E+04 -1.120947E+04
       439  22 -5.656143E+05  4.871245E+02 -6.786347E+03  1.919883E+04 -5.226433E+03 -8.103118E+03
       439  23 -5.643668E+05  5.216117E+02 -1.165831E+04  9.963986E+03 -1.111061E+04 -9.885815E+03
       439  24 -5.656220E+05 -5.827175E+03 -2.199104E+04  1.922133E+04 -1.699695E+04 -1.121192E+04
       439  25 -3.786641E+05  4.647769E+04  3.606250E+04  2.074715E+04 -6.706891E+03 -8.108427E+03
       439  26 -3.409801E+05  5.544031E+04  3.944708E+04  1.006239E+04 -1.225351E+04 -9.889666E+03
       439  27 -3.057377E+05  5.807967E+04  3.760691E+04  1.786931E+04 -1.780260E+04 -1.121436E+04
       440   1 -8.644787E+05 -6.768186E+04 -9.445076E+04  6.070091E+03  1.732590E+04  1.334276E+04
       440   2 -8.875638E+05 -7.596870E+04 -1.213670E+05  2.052166E+04  4.857424E+04  1.370045E+04
       440   3 -9.371795E+05 -1.736800E+05 -1.910222E+05  5.313001E+04  7.984983E+04  4.673998E+03
       440   4 -5.706895E+05  4.646450E+03 -2.735497E+04  1.905226E+04  2.100664E+04  1.335534E+04
       440   5 -5.580505E+05  5.076127E+03 -4.549543E+04  1.011489E+04  4.529082E+04  1.368823E+04
       440   6 -5.707201E+05 -8.268483E+04 -1.015205E+05  1.933599E+04  6.960456E+04  4.636826E+03
       440   7 -2.768198E+05  7.696937E+04  3.973530E+04  3.204056E+04  2.468910E+04  1.336807E+04
       440   8 -2.284364E+05  8.611380E+04  3.036906E+04 -2.975457E+02  4.200566E+04  1.367611E+04
       440   9 -2.041354E+05  8.304901E+03 -1.202761E+04 -1.447813E+04  5.935323E+04  4.600782E+03
       440  10 -8.644791E+05 -6.768213E+04 -9.445166E+04  6.069905E+03  6.315573E-09  3.037138E-09
       440  11 -8.875663E+05 -7.596954E+04 -1.213718E+05  2.052112E+04  6.399130E-09 -4.738008E-09
       440  12 -9.371863E+05 -1.736818E+05 -1.910342E+05  5.312971E+04  2.270443E-09  7.625607E-09
       440  13 -5.706900E+05  4.646140E+03 -2.735614E+04  1.905203E+04  1.812074E-09  5.185049E-09
       440  14 -5.580528E+05  5.075375E+03 -4.549964E+04  1.011439E+04 -9.572104E-10  6.503879E-10
       440  15 -5.707253E+05 -8.268615E+04 -1.015297E+05  1.933573E+04  3.821032E-09  9.892352E-10
       440  16 -2.768206E+05  7.696902E+04  3.973382E+04  3.204030E+04 -5.059444E-09  7.069469E-09
       440  17 -2.284384E+05  8.611313E+04  3.036539E+04 -2.980084E+02 -7.181023E-09  8.880970E-09
       440  18 -2.041392E+05  8.303932E+03 -1.203427E+04 -1.447835E+04 -1.945914E-09 -1.890163E-09
       440  19 -8.644787E+05 -6.768186E+04 -9.445076E+04  6.070091E+03 -1.732590E+04 -1.334276E+04
       440  20 -8.875638E+05 -7.596870E+04 -1.213670E+05  2.052166E+04 -4.857424E+04 -1.370045E+04
       440  21 -9.371795E+05 -1.736800E+05 -1.910222E+05  5.313001E+04 -7.984983E+04 -4.673998E+03
       440  22 -5.706895E+05  4.646450E+03 -2.735497E+04  1.905226E+04 -2.100664E+04 -1.335534E+04
       440  23 -5.580505E+05  5.076127E+03 -4.549543E+04  1.011489E+04 -4.529082E+04 -1.368823E+04
       440  24 -5.707201E+05 -8.268483E+04 -1.015205E+05  1.933599E+04 -6.960456E+04 -4.636826E+03
       440  25 -2.768198E+05  7.696937E+04  3.973530E+04  3.204056E+04 -2.468910E+04 -1.336807E+04
       440  26 -2.284364E+05  8.611380E+04  3.036906E+04 -2.975457E+02 -4.200566E+04 -1.367611E+04
       440  27 -2.041354E+05  8.304901E+03 -1.202761E+04 -1.447813E+04 -5.935323E+04 -4.600782E+03
