    1C
    1UUSER                                                              
    1UDATE              11.october.2022                                 
    1UTIME              17:32:58                                        
    1UHOST                                                              
    1UPGM               CalculiX                                        
    1UVERSION           Version 2.20                             
    1UCOMPILETIME       Sun Jul 31 18:08:37 CEST 2022                    
    1UDIR                                                               
    1UDBN                                                               
    1UMAT    1MESH_MATERIAL                                             
    2C                           841                                     1
 -1         1 0.00000E+00 0.00000E+00 0.00000E+00
 -1         2 1.66667E-02 0.00000E+00 0.00000E+00
 -1         3 3.33333E-02 0.00000E+00 0.00000E+00
 -1         4 5.00000E-02 0.00000E+00 0.00000E+00
 -1         5 6.66667E-02 0.00000E+00 0.00000E+00
 -1         8 0.00000E+00 6.25000E-03 0.00000E+00
 -1         9 1.66667E-02 6.25000E-03 0.00000E+00
 -1        10 3.33333E-02 6.25000E-03 0.00000E+00
 -1        11 5.00000E-02 6.25000E-03 0.00000E+00
 -1        12 6.66667E-02 6.25000E-03 0.00000E+00
 -1        15 0.00000E+00 1.25000E-02 0.00000E+00
 -1        16 1.66667E-02 1.25000E-02 0.00000E+00
 -1        17 3.33333E-02 1.25000E-02 0.00000E+00
 -1        18 5.00000E-02 1.25000E-02 0.00000E+00
 -1        19 6.66667E-02 1.25000E-02 0.00000E+00
 -1        20 8.33333E-02 1.25000E-02 0.00000E+00
 -1        21 1.00000E-01 1.25000E-02 0.00000E+00
 -1        22 0.00000E+00 1.87500E-02 0.00000E+00
 -1        23 1.66667E-02 1.87500E-02 0.00000E+00
 -1        24 3.33333E-02 1.87500E-02 0.00000E+00
 -1        25 5.00000E-02 1.87500E-02 0.00000E+00
 -1        26 6.66667E-02 1.87500E-02 0.00000E+00
 -1        27 8.33333E-02 1.87500E-02 0.00000E+00
 -1        28 1.00000E-01 1.87500E-02 0.00000E+00
 -1        29 0.00000E+00 2.50000E-02 0.00000E+00
 -1        30 1.66667E-02 2.50000E-02 0.00000E+00
 -1        31 3.33333E-02 2.50000E-02 0.00000E+00
 -1        32 5.00000E-02 2.50000E-02 0.00000E+00
 -1        33 6.66667E-02 2.50000E-02 0.00000E+00
 -1        34 8.33333E-02 2.50000E-02 0.00000E+00
 -1        35 1.00000E-01 2.50000E-02 0.00000E+00
 -1        36 1.04167E-03 0.00000E+00 0.00000E+00
 -1        37 2.08333E-03 0.00000E+00 0.00000E+00
 -1        38 3.12500E-03 0.00000E+00 0.00000E+00
 -1        39 4.16667E-03 0.00000E+00 0.00000E+00
 -1        40 5.20833E-03 0.00000E+00 0.00000E+00
 -1        41 6.25000E-03 0.00000E+00 0.00000E+00
 -1        42 7.29167E-03 0.00000E+00 0.00000E+00
 -1        43 8.33333E-03 0.00000E+00 0.00000E+00
 -1        44 9.37500E-03 0.00000E+00 0.00000E+00
 -1        45 1.04167E-02 0.00000E+00 0.00000E+00
 -1        46 1.14583E-02 0.00000E+00 0.00000E+00
 -1        47 1.25000E-02 0.00000E+00 0.00000E+00
 -1        48 1.35417E-02 0.00000E+00 0.00000E+00
 -1        49 1.45833E-02 0.00000E+00 0.00000E+00
 -1        50 1.56250E-02 0.00000E+00 0.00000E+00
 -1        51 0.00000E+00 1.04167E-03 0.00000E+00
 -1        52 0.00000E+00 2.08333E-03 0.00000E+00
 -1        53 0.00000E+00 3.12500E-03 0.00000E+00
 -1        54 0.00000E+00 4.16667E-03 0.00000E+00
 -1        55 0.00000E+00 5.20833E-03 0.00000E+00
 -1        56 1.04167E-03 3.90630E-04 0.00000E+00
 -1        57 2.08333E-03 7.81250E-04 0.00000E+00
 -1        58 3.12500E-03 1.17188E-03 0.00000E+00
 -1        59 4.16667E-03 1.56250E-03 0.00000E+00
 -1        60 5.20833E-03 1.95312E-03 0.00000E+00
 -1        61 6.25000E-03 2.34375E-03 0.00000E+00
 -1        62 7.29167E-03 2.73438E-03 0.00000E+00
 -1        63 8.33333E-03 3.12500E-03 0.00000E+00
 -1        64 9.37500E-03 3.51563E-03 0.00000E+00
 -1        65 1.04167E-02 3.90625E-03 0.00000E+00
 -1        66 1.14583E-02 4.29688E-03 0.00000E+00
 -1        67 1.25000E-02 4.68750E-03 0.00000E+00
 -1        68 1.35417E-02 5.07813E-03 0.00000E+00
 -1        69 1.45833E-02 5.46875E-03 0.00000E+00
 -1        70 1.56250E-02 5.85938E-03 0.00000E+00
 -1        71 1.77083E-02 0.00000E+00 0.00000E+00
 -1        72 1.87500E-02 0.00000E+00 0.00000E+00
 -1        73 1.97917E-02 0.00000E+00 0.00000E+00
 -1        74 2.08333E-02 0.00000E+00 0.00000E+00
 -1        75 2.18750E-02 0.00000E+00 0.00000E+00
 -1        76 2.29167E-02 0.00000E+00 0.00000E+00
 -1        77 2.39583E-02 0.00000E+00 0.00000E+00
 -1        78 2.50000E-02 0.00000E+00 0.00000E+00
 -1        79 2.60417E-02 0.00000E+00 0.00000E+00
 -1        80 2.70833E-02 0.00000E+00 0.00000E+00
 -1        81 2.81250E-02 0.00000E+00 0.00000E+00
 -1        82 2.91667E-02 0.00000E+00 0.00000E+00
 -1        83 3.02083E-02 0.00000E+00 0.00000E+00
 -1        84 3.12500E-02 0.00000E+00 0.00000E+00
 -1        85 3.22917E-02 0.00000E+00 0.00000E+00
 -1        86 1.66667E-02 1.04167E-03 0.00000E+00
 -1        87 1.66667E-02 2.08333E-03 0.00000E+00
 -1        88 1.66667E-02 3.12500E-03 0.00000E+00
 -1        89 1.66667E-02 4.16667E-03 0.00000E+00
 -1        90 1.66667E-02 5.20833E-03 0.00000E+00
 -1        91 1.77083E-02 3.90630E-04 0.00000E+00
 -1        92 1.87500E-02 7.81250E-04 0.00000E+00
 -1        93 1.97917E-02 1.17188E-03 0.00000E+00
 -1        94 2.08333E-02 1.56250E-03 0.00000E+00
 -1        95 2.18750E-02 1.95312E-03 0.00000E+00
 -1        96 2.29167E-02 2.34375E-03 0.00000E+00
 -1        97 2.39583E-02 2.73438E-03 0.00000E+00
 -1        98 2.50000E-02 3.12500E-03 0.00000E+00
 -1        99 2.60417E-02 3.51563E-03 0.00000E+00
 -1       100 2.70833E-02 3.90625E-03 0.00000E+00
 -1       101 2.81250E-02 4.29688E-03 0.00000E+00
 -1       102 2.91667E-02 4.68750E-03 0.00000E+00
 -1       103 3.02083E-02 5.07813E-03 0.00000E+00
 -1       104 3.12500E-02 5.46875E-03 0.00000E+00
 -1       105 3.22917E-02 5.85938E-03 0.00000E+00
 -1       106 3.43750E-02 0.00000E+00 0.00000E+00
 -1       107 3.54167E-02 0.00000E+00 0.00000E+00
 -1       108 3.64583E-02 0.00000E+00 0.00000E+00
 -1       109 3.75000E-02 0.00000E+00 0.00000E+00
 -1       110 3.85417E-02 0.00000E+00 0.00000E+00
 -1       111 3.95833E-02 0.00000E+00 0.00000E+00
 -1       112 4.06250E-02 0.00000E+00 0.00000E+00
 -1       113 4.16667E-02 0.00000E+00 0.00000E+00
 -1       114 4.27083E-02 0.00000E+00 0.00000E+00
 -1       115 4.37500E-02 0.00000E+00 0.00000E+00
 -1       116 4.47917E-02 0.00000E+00 0.00000E+00
 -1       117 4.58333E-02 0.00000E+00 0.00000E+00
 -1       118 4.68750E-02 0.00000E+00 0.00000E+00
 -1       119 4.79167E-02 0.00000E+00 0.00000E+00
 -1       120 4.89583E-02 0.00000E+00 0.00000E+00
 -1       121 3.33333E-02 1.04167E-03 0.00000E+00
 -1       122 3.33333E-02 2.08333E-03 0.00000E+00
 -1       123 3.33333E-02 3.12500E-03 0.00000E+00
 -1       124 3.33333E-02 4.16667E-03 0.00000E+00
 -1       125 3.33333E-02 5.20833E-03 0.00000E+00
 -1       126 3.43750E-02 3.90630E-04 0.00000E+00
 -1       127 3.54167E-02 7.81250E-04 0.00000E+00
 -1       128 3.64583E-02 1.17188E-03 0.00000E+00
 -1       129 3.75000E-02 1.56250E-03 0.00000E+00
 -1       130 3.85417E-02 1.95312E-03 0.00000E+00
 -1       131 3.95833E-02 2.34375E-03 0.00000E+00
 -1       132 4.06250E-02 2.73438E-03 0.00000E+00
 -1       133 4.16667E-02 3.12500E-03 0.00000E+00
 -1       134 4.27083E-02 3.51563E-03 0.00000E+00
 -1       135 4.37500E-02 3.90625E-03 0.00000E+00
 -1       136 4.47917E-02 4.29688E-03 0.00000E+00
 -1       137 4.58333E-02 4.68750E-03 0.00000E+00
 -1       138 4.68750E-02 5.07813E-03 0.00000E+00
 -1       139 4.79167E-02 5.46875E-03 0.00000E+00
 -1       140 4.89583E-02 5.85938E-03 0.00000E+00
 -1       141 5.10417E-02 0.00000E+00 0.00000E+00
 -1       142 5.20833E-02 0.00000E+00 0.00000E+00
 -1       143 5.31250E-02 0.00000E+00 0.00000E+00
 -1       144 5.41667E-02 0.00000E+00 0.00000E+00
 -1       145 5.52083E-02 0.00000E+00 0.00000E+00
 -1       146 5.62500E-02 0.00000E+00 0.00000E+00
 -1       147 5.72917E-02 0.00000E+00 0.00000E+00
 -1       148 5.83333E-02 0.00000E+00 0.00000E+00
 -1       149 5.93750E-02 0.00000E+00 0.00000E+00
 -1       150 6.04167E-02 0.00000E+00 0.00000E+00
 -1       151 6.14583E-02 0.00000E+00 0.00000E+00
 -1       152 6.25000E-02 0.00000E+00 0.00000E+00
 -1       153 6.35417E-02 0.00000E+00 0.00000E+00
 -1       154 6.45833E-02 0.00000E+00 0.00000E+00
 -1       155 6.56250E-02 0.00000E+00 0.00000E+00
 -1       156 5.00000E-02 1.04167E-03 0.00000E+00
 -1       157 5.00000E-02 2.08333E-03 0.00000E+00
 -1       158 5.00000E-02 3.12500E-03 0.00000E+00
 -1       159 5.00000E-02 4.16667E-03 0.00000E+00
 -1       160 5.00000E-02 5.20833E-03 0.00000E+00
 -1       161 5.10417E-02 3.90630E-04 0.00000E+00
 -1       162 5.20833E-02 7.81250E-04 0.00000E+00
 -1       163 5.31250E-02 1.17188E-03 0.00000E+00
 -1       164 5.41667E-02 1.56250E-03 0.00000E+00
 -1       165 5.52083E-02 1.95312E-03 0.00000E+00
 -1       166 5.62500E-02 2.34375E-03 0.00000E+00
 -1       167 5.72917E-02 2.73438E-03 0.00000E+00
 -1       168 5.83333E-02 3.12500E-03 0.00000E+00
 -1       169 5.93750E-02 3.51563E-03 0.00000E+00
 -1       170 6.04167E-02 3.90625E-03 0.00000E+00
 -1       171 6.14583E-02 4.29688E-03 0.00000E+00
 -1       172 6.25000E-02 4.68750E-03 0.00000E+00
 -1       173 6.35417E-02 5.07813E-03 0.00000E+00
 -1       174 6.45833E-02 5.46875E-03 0.00000E+00
 -1       175 6.56250E-02 5.85938E-03 0.00000E+00
 -1       191 6.66667E-02 1.04167E-03 0.00000E+00
 -1       192 6.66667E-02 2.08333E-03 0.00000E+00
 -1       193 6.66667E-02 3.12500E-03 0.00000E+00
 -1       194 6.66667E-02 4.16667E-03 0.00000E+00
 -1       195 6.66667E-02 5.20833E-03 0.00000E+00
 -1       251 1.04167E-03 6.25000E-03 0.00000E+00
 -1       252 2.08333E-03 6.25000E-03 0.00000E+00
 -1       253 3.12500E-03 6.25000E-03 0.00000E+00
 -1       254 4.16667E-03 6.25000E-03 0.00000E+00
 -1       255 5.20833E-03 6.25000E-03 0.00000E+00
 -1       256 6.25000E-03 6.25000E-03 0.00000E+00
 -1       257 7.29167E-03 6.25000E-03 0.00000E+00
 -1       258 8.33333E-03 6.25000E-03 0.00000E+00
 -1       259 9.37500E-03 6.25000E-03 0.00000E+00
 -1       260 1.04167E-02 6.25000E-03 0.00000E+00
 -1       261 1.14583E-02 6.25000E-03 0.00000E+00
 -1       262 1.25000E-02 6.25000E-03 0.00000E+00
 -1       263 1.35417E-02 6.25000E-03 0.00000E+00
 -1       264 1.45833E-02 6.25000E-03 0.00000E+00
 -1       265 1.56250E-02 6.25000E-03 0.00000E+00
 -1       266 0.00000E+00 7.29167E-03 0.00000E+00
 -1       267 0.00000E+00 8.33333E-03 0.00000E+00
 -1       268 0.00000E+00 9.37500E-03 0.00000E+00
 -1       269 0.00000E+00 1.04167E-02 0.00000E+00
 -1       270 0.00000E+00 1.14583E-02 0.00000E+00
 -1       271 1.04167E-03 6.64063E-03 0.00000E+00
 -1       272 2.08333E-03 7.03125E-03 0.00000E+00
 -1       273 3.12500E-03 7.42188E-03 0.00000E+00
 -1       274 4.16667E-03 7.81250E-03 0.00000E+00
 -1       275 5.20833E-03 8.20313E-03 0.00000E+00
 -1       276 6.25000E-03 8.59375E-03 0.00000E+00
 -1       277 7.29167E-03 8.98438E-03 0.00000E+00
 -1       278 8.33333E-03 9.37500E-03 0.00000E+00
 -1       279 9.37500E-03 9.76562E-03 0.00000E+00
 -1       280 1.04167E-02 1.01562E-02 0.00000E+00
 -1       281 1.14583E-02 1.05469E-02 0.00000E+00
 -1       282 1.25000E-02 1.09375E-02 0.00000E+00
 -1       283 1.35417E-02 1.13281E-02 0.00000E+00
 -1       284 1.45833E-02 1.17188E-02 0.00000E+00
 -1       285 1.56250E-02 1.21094E-02 0.00000E+00
 -1       286 1.77083E-02 6.25000E-03 0.00000E+00
 -1       287 1.87500E-02 6.25000E-03 0.00000E+00
 -1       288 1.97917E-02 6.25000E-03 0.00000E+00
 -1       289 2.08333E-02 6.25000E-03 0.00000E+00
 -1       290 2.18750E-02 6.25000E-03 0.00000E+00
 -1       291 2.29167E-02 6.25000E-03 0.00000E+00
 -1       292 2.39583E-02 6.25000E-03 0.00000E+00
 -1       293 2.50000E-02 6.25000E-03 0.00000E+00
 -1       294 2.60417E-02 6.25000E-03 0.00000E+00
 -1       295 2.70833E-02 6.25000E-03 0.00000E+00
 -1       296 2.81250E-02 6.25000E-03 0.00000E+00
 -1       297 2.91667E-02 6.25000E-03 0.00000E+00
 -1       298 3.02083E-02 6.25000E-03 0.00000E+00
 -1       299 3.12500E-02 6.25000E-03 0.00000E+00
 -1       300 3.22917E-02 6.25000E-03 0.00000E+00
 -1       301 1.66667E-02 7.29167E-03 0.00000E+00
 -1       302 1.66667E-02 8.33333E-03 0.00000E+00
 -1       303 1.66667E-02 9.37500E-03 0.00000E+00
 -1       304 1.66667E-02 1.04167E-02 0.00000E+00
 -1       305 1.66667E-02 1.14583E-02 0.00000E+00
 -1       306 1.77083E-02 6.64063E-03 0.00000E+00
 -1       307 1.87500E-02 7.03125E-03 0.00000E+00
 -1       308 1.97917E-02 7.42188E-03 0.00000E+00
 -1       309 2.08333E-02 7.81250E-03 0.00000E+00
 -1       310 2.18750E-02 8.20313E-03 0.00000E+00
 -1       311 2.29167E-02 8.59375E-03 0.00000E+00
 -1       312 2.39583E-02 8.98438E-03 0.00000E+00
 -1       313 2.50000E-02 9.37500E-03 0.00000E+00
 -1       314 2.60417E-02 9.76562E-03 0.00000E+00
 -1       315 2.70833E-02 1.01562E-02 0.00000E+00
 -1       316 2.81250E-02 1.05469E-02 0.00000E+00
 -1       317 2.91667E-02 1.09375E-02 0.00000E+00
 -1       318 3.02083E-02 1.13281E-02 0.00000E+00
 -1       319 3.12500E-02 1.17188E-02 0.00000E+00
 -1       320 3.22917E-02 1.21094E-02 0.00000E+00
 -1       321 3.43750E-02 6.25000E-03 0.00000E+00
 -1       322 3.54167E-02 6.25000E-03 0.00000E+00
 -1       323 3.64583E-02 6.25000E-03 0.00000E+00
 -1       324 3.75000E-02 6.25000E-03 0.00000E+00
 -1       325 3.85417E-02 6.25000E-03 0.00000E+00
 -1       326 3.95833E-02 6.25000E-03 0.00000E+00
 -1       327 4.06250E-02 6.25000E-03 0.00000E+00
 -1       328 4.16667E-02 6.25000E-03 0.00000E+00
 -1       329 4.27083E-02 6.25000E-03 0.00000E+00
 -1       330 4.37500E-02 6.25000E-03 0.00000E+00
 -1       331 4.47917E-02 6.25000E-03 0.00000E+00
 -1       332 4.58333E-02 6.25000E-03 0.00000E+00
 -1       333 4.68750E-02 6.25000E-03 0.00000E+00
 -1       334 4.79167E-02 6.25000E-03 0.00000E+00
 -1       335 4.89583E-02 6.25000E-03 0.00000E+00
 -1       336 3.33333E-02 7.29167E-03 0.00000E+00
 -1       337 3.33333E-02 8.33333E-03 0.00000E+00
 -1       338 3.33333E-02 9.37500E-03 0.00000E+00
 -1       339 3.33333E-02 1.04167E-02 0.00000E+00
 -1       340 3.33333E-02 1.14583E-02 0.00000E+00
 -1       341 3.43750E-02 6.64063E-03 0.00000E+00
 -1       342 3.54167E-02 7.03125E-03 0.00000E+00
 -1       343 3.64583E-02 7.42188E-03 0.00000E+00
 -1       344 3.75000E-02 7.81250E-03 0.00000E+00
 -1       345 3.85417E-02 8.20313E-03 0.00000E+00
 -1       346 3.95833E-02 8.59375E-03 0.00000E+00
 -1       347 4.06250E-02 8.98438E-03 0.00000E+00
 -1       348 4.16667E-02 9.37500E-03 0.00000E+00
 -1       349 4.27083E-02 9.76562E-03 0.00000E+00
 -1       350 4.37500E-02 1.01562E-02 0.00000E+00
 -1       351 4.47917E-02 1.05469E-02 0.00000E+00
 -1       352 4.58333E-02 1.09375E-02 0.00000E+00
 -1       353 4.68750E-02 1.13281E-02 0.00000E+00
 -1       354 4.79167E-02 1.17188E-02 0.00000E+00
 -1       355 4.89583E-02 1.21094E-02 0.00000E+00
 -1       356 5.10417E-02 6.25000E-03 0.00000E+00
 -1       357 5.20833E-02 6.25000E-03 0.00000E+00
 -1       358 5.31250E-02 6.25000E-03 0.00000E+00
 -1       359 5.41667E-02 6.25000E-03 0.00000E+00
 -1       360 5.52083E-02 6.25000E-03 0.00000E+00
 -1       361 5.62500E-02 6.25000E-03 0.00000E+00
 -1       362 5.72917E-02 6.25000E-03 0.00000E+00
 -1       363 5.83333E-02 6.25000E-03 0.00000E+00
 -1       364 5.93750E-02 6.25000E-03 0.00000E+00
 -1       365 6.04167E-02 6.25000E-03 0.00000E+00
 -1       366 6.14583E-02 6.25000E-03 0.00000E+00
 -1       367 6.25000E-02 6.25000E-03 0.00000E+00
 -1       368 6.35417E-02 6.25000E-03 0.00000E+00
 -1       369 6.45833E-02 6.25000E-03 0.00000E+00
 -1       370 6.56250E-02 6.25000E-03 0.00000E+00
 -1       371 5.00000E-02 7.29167E-03 0.00000E+00
 -1       372 5.00000E-02 8.33333E-03 0.00000E+00
 -1       373 5.00000E-02 9.37500E-03 0.00000E+00
 -1       374 5.00000E-02 1.04167E-02 0.00000E+00
 -1       375 5.00000E-02 1.14583E-02 0.00000E+00
 -1       376 5.10417E-02 6.64063E-03 0.00000E+00
 -1       377 5.20833E-02 7.03125E-03 0.00000E+00
 -1       378 5.31250E-02 7.42188E-03 0.00000E+00
 -1       379 5.41667E-02 7.81250E-03 0.00000E+00
 -1       380 5.52083E-02 8.20313E-03 0.00000E+00
 -1       381 5.62500E-02 8.59375E-03 0.00000E+00
 -1       382 5.72917E-02 8.98438E-03 0.00000E+00
 -1       383 5.83333E-02 9.37500E-03 0.00000E+00
 -1       384 5.93750E-02 9.76562E-03 0.00000E+00
 -1       385 6.04167E-02 1.01562E-02 0.00000E+00
 -1       386 6.14583E-02 1.05469E-02 0.00000E+00
 -1       387 6.25000E-02 1.09375E-02 0.00000E+00
 -1       388 6.35417E-02 1.13281E-02 0.00000E+00
 -1       389 6.45833E-02 1.17188E-02 0.00000E+00
 -1       390 6.56250E-02 1.21094E-02 0.00000E+00
 -1       406 6.66667E-02 7.29167E-03 0.00000E+00
 -1       407 6.66667E-02 8.33333E-03 0.00000E+00
 -1       408 6.66667E-02 9.37500E-03 0.00000E+00
 -1       409 6.66667E-02 1.04167E-02 0.00000E+00
 -1       410 6.66667E-02 1.14583E-02 0.00000E+00
 -1       466 1.04167E-03 1.25000E-02 0.00000E+00
 -1       467 2.08333E-03 1.25000E-02 0.00000E+00
 -1       468 3.12500E-03 1.25000E-02 0.00000E+00
 -1       469 4.16667E-03 1.25000E-02 0.00000E+00
 -1       470 5.20833E-03 1.25000E-02 0.00000E+00
 -1       471 6.25000E-03 1.25000E-02 0.00000E+00
 -1       472 7.29167E-03 1.25000E-02 0.00000E+00
 -1       473 8.33333E-03 1.25000E-02 0.00000E+00
 -1       474 9.37500E-03 1.25000E-02 0.00000E+00
 -1       475 1.04167E-02 1.25000E-02 0.00000E+00
 -1       476 1.14583E-02 1.25000E-02 0.00000E+00
 -1       477 1.25000E-02 1.25000E-02 0.00000E+00
 -1       478 1.35417E-02 1.25000E-02 0.00000E+00
 -1       479 1.45833E-02 1.25000E-02 0.00000E+00
 -1       480 1.56250E-02 1.25000E-02 0.00000E+00
 -1       481 0.00000E+00 1.35417E-02 0.00000E+00
 -1       482 0.00000E+00 1.45833E-02 0.00000E+00
 -1       483 0.00000E+00 1.56250E-02 0.00000E+00
 -1       484 0.00000E+00 1.66667E-02 0.00000E+00
 -1       485 0.00000E+00 1.77083E-02 0.00000E+00
 -1       486 1.04167E-03 1.28906E-02 0.00000E+00
 -1       487 2.08333E-03 1.32813E-02 0.00000E+00
 -1       488 3.12500E-03 1.36719E-02 0.00000E+00
 -1       489 4.16667E-03 1.40625E-02 0.00000E+00
 -1       490 5.20833E-03 1.44531E-02 0.00000E+00
 -1       491 6.25000E-03 1.48437E-02 0.00000E+00
 -1       492 7.29167E-03 1.52344E-02 0.00000E+00
 -1       493 8.33333E-03 1.56250E-02 0.00000E+00
 -1       494 9.37500E-03 1.60156E-02 0.00000E+00
 -1       495 1.04167E-02 1.64062E-02 0.00000E+00
 -1       496 1.14583E-02 1.67969E-02 0.00000E+00
 -1       497 1.25000E-02 1.71875E-02 0.00000E+00
 -1       498 1.35417E-02 1.75781E-02 0.00000E+00
 -1       499 1.45833E-02 1.79687E-02 0.00000E+00
 -1       500 1.56250E-02 1.83594E-02 0.00000E+00
 -1       501 1.77083E-02 1.25000E-02 0.00000E+00
 -1       502 1.87500E-02 1.25000E-02 0.00000E+00
 -1       503 1.97917E-02 1.25000E-02 0.00000E+00
 -1       504 2.08333E-02 1.25000E-02 0.00000E+00
 -1       505 2.18750E-02 1.25000E-02 0.00000E+00
 -1       506 2.29167E-02 1.25000E-02 0.00000E+00
 -1       507 2.39583E-02 1.25000E-02 0.00000E+00
 -1       508 2.50000E-02 1.25000E-02 0.00000E+00
 -1       509 2.60417E-02 1.25000E-02 0.00000E+00
 -1       510 2.70833E-02 1.25000E-02 0.00000E+00
 -1       511 2.81250E-02 1.25000E-02 0.00000E+00
 -1       512 2.91667E-02 1.25000E-02 0.00000E+00
 -1       513 3.02083E-02 1.25000E-02 0.00000E+00
 -1       514 3.12500E-02 1.25000E-02 0.00000E+00
 -1       515 3.22917E-02 1.25000E-02 0.00000E+00
 -1       516 1.66667E-02 1.35417E-02 0.00000E+00
 -1       517 1.66667E-02 1.45833E-02 0.00000E+00
 -1       518 1.66667E-02 1.56250E-02 0.00000E+00
 -1       519 1.66667E-02 1.66667E-02 0.00000E+00
 -1       520 1.66667E-02 1.77083E-02 0.00000E+00
 -1       521 1.77083E-02 1.28906E-02 0.00000E+00
 -1       522 1.87500E-02 1.32813E-02 0.00000E+00
 -1       523 1.97917E-02 1.36719E-02 0.00000E+00
 -1       524 2.08333E-02 1.40625E-02 0.00000E+00
 -1       525 2.18750E-02 1.44531E-02 0.00000E+00
 -1       526 2.29167E-02 1.48437E-02 0.00000E+00
 -1       527 2.39583E-02 1.52344E-02 0.00000E+00
 -1       528 2.50000E-02 1.56250E-02 0.00000E+00
 -1       529 2.60417E-02 1.60156E-02 0.00000E+00
 -1       530 2.70833E-02 1.64062E-02 0.00000E+00
 -1       531 2.81250E-02 1.67969E-02 0.00000E+00
 -1       532 2.91667E-02 1.71875E-02 0.00000E+00
 -1       533 3.02083E-02 1.75781E-02 0.00000E+00
 -1       534 3.12500E-02 1.79687E-02 0.00000E+00
 -1       535 3.22917E-02 1.83594E-02 0.00000E+00
 -1       536 3.43750E-02 1.25000E-02 0.00000E+00
 -1       537 3.54167E-02 1.25000E-02 0.00000E+00
 -1       538 3.64583E-02 1.25000E-02 0.00000E+00
 -1       539 3.75000E-02 1.25000E-02 0.00000E+00
 -1       540 3.85417E-02 1.25000E-02 0.00000E+00
 -1       541 3.95833E-02 1.25000E-02 0.00000E+00
 -1       542 4.06250E-02 1.25000E-02 0.00000E+00
 -1       543 4.16667E-02 1.25000E-02 0.00000E+00
 -1       544 4.27083E-02 1.25000E-02 0.00000E+00
 -1       545 4.37500E-02 1.25000E-02 0.00000E+00
 -1       546 4.47917E-02 1.25000E-02 0.00000E+00
 -1       547 4.58333E-02 1.25000E-02 0.00000E+00
 -1       548 4.68750E-02 1.25000E-02 0.00000E+00
 -1       549 4.79167E-02 1.25000E-02 0.00000E+00
 -1       550 4.89583E-02 1.25000E-02 0.00000E+00
 -1       551 3.33333E-02 1.35417E-02 0.00000E+00
 -1       552 3.33333E-02 1.45833E-02 0.00000E+00
 -1       553 3.33333E-02 1.56250E-02 0.00000E+00
 -1       554 3.33333E-02 1.66667E-02 0.00000E+00
 -1       555 3.33333E-02 1.77083E-02 0.00000E+00
 -1       556 3.43750E-02 1.28906E-02 0.00000E+00
 -1       557 3.54167E-02 1.32813E-02 0.00000E+00
 -1       558 3.64583E-02 1.36719E-02 0.00000E+00
 -1       559 3.75000E-02 1.40625E-02 0.00000E+00
 -1       560 3.85417E-02 1.44531E-02 0.00000E+00
 -1       561 3.95833E-02 1.48437E-02 0.00000E+00
 -1       562 4.06250E-02 1.52344E-02 0.00000E+00
 -1       563 4.16667E-02 1.56250E-02 0.00000E+00
 -1       564 4.27083E-02 1.60156E-02 0.00000E+00
 -1       565 4.37500E-02 1.64062E-02 0.00000E+00
 -1       566 4.47917E-02 1.67969E-02 0.00000E+00
 -1       567 4.58333E-02 1.71875E-02 0.00000E+00
 -1       568 4.68750E-02 1.75781E-02 0.00000E+00
 -1       569 4.79167E-02 1.79687E-02 0.00000E+00
 -1       570 4.89583E-02 1.83594E-02 0.00000E+00
 -1       571 5.10417E-02 1.25000E-02 0.00000E+00
 -1       572 5.20833E-02 1.25000E-02 0.00000E+00
 -1       573 5.31250E-02 1.25000E-02 0.00000E+00
 -1       574 5.41667E-02 1.25000E-02 0.00000E+00
 -1       575 5.52083E-02 1.25000E-02 0.00000E+00
 -1       576 5.62500E-02 1.25000E-02 0.00000E+00
 -1       577 5.72917E-02 1.25000E-02 0.00000E+00
 -1       578 5.83333E-02 1.25000E-02 0.00000E+00
 -1       579 5.93750E-02 1.25000E-02 0.00000E+00
 -1       580 6.04167E-02 1.25000E-02 0.00000E+00
 -1       581 6.14583E-02 1.25000E-02 0.00000E+00
 -1       582 6.25000E-02 1.25000E-02 0.00000E+00
 -1       583 6.35417E-02 1.25000E-02 0.00000E+00
 -1       584 6.45833E-02 1.25000E-02 0.00000E+00
 -1       585 6.56250E-02 1.25000E-02 0.00000E+00
 -1       586 5.00000E-02 1.35417E-02 0.00000E+00
 -1       587 5.00000E-02 1.45833E-02 0.00000E+00
 -1       588 5.00000E-02 1.56250E-02 0.00000E+00
 -1       589 5.00000E-02 1.66667E-02 0.00000E+00
 -1       590 5.00000E-02 1.77083E-02 0.00000E+00
 -1       591 5.10417E-02 1.28906E-02 0.00000E+00
 -1       592 5.20833E-02 1.32813E-02 0.00000E+00
 -1       593 5.31250E-02 1.36719E-02 0.00000E+00
 -1       594 5.41667E-02 1.40625E-02 0.00000E+00
 -1       595 5.52083E-02 1.44531E-02 0.00000E+00
 -1       596 5.62500E-02 1.48437E-02 0.00000E+00
 -1       597 5.72917E-02 1.52344E-02 0.00000E+00
 -1       598 5.83333E-02 1.56250E-02 0.00000E+00
 -1       599 5.93750E-02 1.60156E-02 0.00000E+00
 -1       600 6.04167E-02 1.64062E-02 0.00000E+00
 -1       601 6.14583E-02 1.67969E-02 0.00000E+00
 -1       602 6.25000E-02 1.71875E-02 0.00000E+00
 -1       603 6.35417E-02 1.75781E-02 0.00000E+00
 -1       604 6.45833E-02 1.79687E-02 0.00000E+00
 -1       605 6.56250E-02 1.83594E-02 0.00000E+00
 -1       606 6.77083E-02 1.25000E-02 0.00000E+00
 -1       607 6.87500E-02 1.25000E-02 0.00000E+00
 -1       608 6.97917E-02 1.25000E-02 0.00000E+00
 -1       609 7.08333E-02 1.25000E-02 0.00000E+00
 -1       610 7.18750E-02 1.25000E-02 0.00000E+00
 -1       611 7.29167E-02 1.25000E-02 0.00000E+00
 -1       612 7.39583E-02 1.25000E-02 0.00000E+00
 -1       613 7.50000E-02 1.25000E-02 0.00000E+00
 -1       614 7.60417E-02 1.25000E-02 0.00000E+00
 -1       615 7.70833E-02 1.25000E-02 0.00000E+00
 -1       616 7.81250E-02 1.25000E-02 0.00000E+00
 -1       617 7.91667E-02 1.25000E-02 0.00000E+00
 -1       618 8.02083E-02 1.25000E-02 0.00000E+00
 -1       619 8.12500E-02 1.25000E-02 0.00000E+00
 -1       620 8.22917E-02 1.25000E-02 0.00000E+00
 -1       621 6.66667E-02 1.35417E-02 0.00000E+00
 -1       622 6.66667E-02 1.45833E-02 0.00000E+00
 -1       623 6.66667E-02 1.56250E-02 0.00000E+00
 -1       624 6.66667E-02 1.66667E-02 0.00000E+00
 -1       625 6.66667E-02 1.77083E-02 0.00000E+00
 -1       626 6.77083E-02 1.28906E-02 0.00000E+00
 -1       627 6.87500E-02 1.32813E-02 0.00000E+00
 -1       628 6.97917E-02 1.36719E-02 0.00000E+00
 -1       629 7.08333E-02 1.40625E-02 0.00000E+00
 -1       630 7.18750E-02 1.44531E-02 0.00000E+00
 -1       631 7.29167E-02 1.48437E-02 0.00000E+00
 -1       632 7.39583E-02 1.52344E-02 0.00000E+00
 -1       633 7.50000E-02 1.56250E-02 0.00000E+00
 -1       634 7.60417E-02 1.60156E-02 0.00000E+00
 -1       635 7.70833E-02 1.64062E-02 0.00000E+00
 -1       636 7.81250E-02 1.67969E-02 0.00000E+00
 -1       637 7.91667E-02 1.71875E-02 0.00000E+00
 -1       638 8.02083E-02 1.75781E-02 0.00000E+00
 -1       639 8.12500E-02 1.79687E-02 0.00000E+00
 -1       640 8.22917E-02 1.83594E-02 0.00000E+00
 -1       641 8.43750E-02 1.25000E-02 0.00000E+00
 -1       642 8.54167E-02 1.25000E-02 0.00000E+00
 -1       643 8.64583E-02 1.25000E-02 0.00000E+00
 -1       644 8.75000E-02 1.25000E-02 0.00000E+00
 -1       645 8.85417E-02 1.25000E-02 0.00000E+00
 -1       646 8.95833E-02 1.25000E-02 0.00000E+00
 -1       647 9.06250E-02 1.25000E-02 0.00000E+00
 -1       648 9.16667E-02 1.25000E-02 0.00000E+00
 -1       649 9.27083E-02 1.25000E-02 0.00000E+00
 -1       650 9.37500E-02 1.25000E-02 0.00000E+00
 -1       651 9.47917E-02 1.25000E-02 0.00000E+00
 -1       652 9.58333E-02 1.25000E-02 0.00000E+00
 -1       653 9.68750E-02 1.25000E-02 0.00000E+00
 -1       654 9.79167E-02 1.25000E-02 0.00000E+00
 -1       655 9.89583E-02 1.25000E-02 0.00000E+00
 -1       656 8.33333E-02 1.35417E-02 0.00000E+00
 -1       657 8.33333E-02 1.45833E-02 0.00000E+00
 -1       658 8.33333E-02 1.56250E-02 0.00000E+00
 -1       659 8.33333E-02 1.66667E-02 0.00000E+00
 -1       660 8.33333E-02 1.77083E-02 0.00000E+00
 -1       661 8.43750E-02 1.28906E-02 0.00000E+00
 -1       662 8.54167E-02 1.32813E-02 0.00000E+00
 -1       663 8.64583E-02 1.36719E-02 0.00000E+00
 -1       664 8.75000E-02 1.40625E-02 0.00000E+00
 -1       665 8.85417E-02 1.44531E-02 0.00000E+00
 -1       666 8.95833E-02 1.48437E-02 0.00000E+00
 -1       667 9.06250E-02 1.52344E-02 0.00000E+00
 -1       668 9.16667E-02 1.56250E-02 0.00000E+00
 -1       669 9.27083E-02 1.60156E-02 0.00000E+00
 -1       670 9.37500E-02 1.64062E-02 0.00000E+00
 -1       671 9.47917E-02 1.67969E-02 0.00000E+00
 -1       672 9.58333E-02 1.71875E-02 0.00000E+00
 -1       673 9.68750E-02 1.75781E-02 0.00000E+00
 -1       674 9.79167E-02 1.79687E-02 0.00000E+00
 -1       675 9.89583E-02 1.83594E-02 0.00000E+00
 -1       676 1.00000E-01 1.35417E-02 0.00000E+00
 -1       677 1.00000E-01 1.45833E-02 0.00000E+00
 -1       678 1.00000E-01 1.56250E-02 0.00000E+00
 -1       679 1.00000E-01 1.66667E-02 0.00000E+00
 -1       680 1.00000E-01 1.77083E-02 0.00000E+00
 -1       681 1.04167E-03 1.87500E-02 0.00000E+00
 -1       682 2.08333E-03 1.87500E-02 0.00000E+00
 -1       683 3.12500E-03 1.87500E-02 0.00000E+00
 -1       684 4.16667E-03 1.87500E-02 0.00000E+00
 -1       685 5.20833E-03 1.87500E-02 0.00000E+00
 -1       686 6.25000E-03 1.87500E-02 0.00000E+00
 -1       687 7.29167E-03 1.87500E-02 0.00000E+00
 -1       688 8.33333E-03 1.87500E-02 0.00000E+00
 -1       689 9.37500E-03 1.87500E-02 0.00000E+00
 -1       690 1.04167E-02 1.87500E-02 0.00000E+00
 -1       691 1.14583E-02 1.87500E-02 0.00000E+00
 -1       692 1.25000E-02 1.87500E-02 0.00000E+00
 -1       693 1.35417E-02 1.87500E-02 0.00000E+00
 -1       694 1.45833E-02 1.87500E-02 0.00000E+00
 -1       695 1.56250E-02 1.87500E-02 0.00000E+00
 -1       696 0.00000E+00 1.97917E-02 0.00000E+00
 -1       697 0.00000E+00 2.08333E-02 0.00000E+00
 -1       698 0.00000E+00 2.18750E-02 0.00000E+00
 -1       699 0.00000E+00 2.29167E-02 0.00000E+00
 -1       700 0.00000E+00 2.39583E-02 0.00000E+00
 -1       701 1.04167E-03 1.91406E-02 0.00000E+00
 -1       702 2.08333E-03 1.95312E-02 0.00000E+00
 -1       703 3.12500E-03 1.99219E-02 0.00000E+00
 -1       704 4.16667E-03 2.03125E-02 0.00000E+00
 -1       705 5.20833E-03 2.07031E-02 0.00000E+00
 -1       706 6.25000E-03 2.10938E-02 0.00000E+00
 -1       707 7.29167E-03 2.14844E-02 0.00000E+00
 -1       708 8.33333E-03 2.18750E-02 0.00000E+00
 -1       709 9.37500E-03 2.22656E-02 0.00000E+00
 -1       710 1.04167E-02 2.26563E-02 0.00000E+00
 -1       711 1.14583E-02 2.30469E-02 0.00000E+00
 -1       712 1.25000E-02 2.34375E-02 0.00000E+00
 -1       713 1.35417E-02 2.38281E-02 0.00000E+00
 -1       714 1.45833E-02 2.42187E-02 0.00000E+00
 -1       715 1.56250E-02 2.46094E-02 0.00000E+00
 -1       716 1.77083E-02 1.87500E-02 0.00000E+00
 -1       717 1.87500E-02 1.87500E-02 0.00000E+00
 -1       718 1.97917E-02 1.87500E-02 0.00000E+00
 -1       719 2.08333E-02 1.87500E-02 0.00000E+00
 -1       720 2.18750E-02 1.87500E-02 0.00000E+00
 -1       721 2.29167E-02 1.87500E-02 0.00000E+00
 -1       722 2.39583E-02 1.87500E-02 0.00000E+00
 -1       723 2.50000E-02 1.87500E-02 0.00000E+00
 -1       724 2.60417E-02 1.87500E-02 0.00000E+00
 -1       725 2.70833E-02 1.87500E-02 0.00000E+00
 -1       726 2.81250E-02 1.87500E-02 0.00000E+00
 -1       727 2.91667E-02 1.87500E-02 0.00000E+00
 -1       728 3.02083E-02 1.87500E-02 0.00000E+00
 -1       729 3.12500E-02 1.87500E-02 0.00000E+00
 -1       730 3.22917E-02 1.87500E-02 0.00000E+00
 -1       731 1.66667E-02 1.97917E-02 0.00000E+00
 -1       732 1.66667E-02 2.08333E-02 0.00000E+00
 -1       733 1.66667E-02 2.18750E-02 0.00000E+00
 -1       734 1.66667E-02 2.29167E-02 0.00000E+00
 -1       735 1.66667E-02 2.39583E-02 0.00000E+00
 -1       736 1.77083E-02 1.91406E-02 0.00000E+00
 -1       737 1.87500E-02 1.95312E-02 0.00000E+00
 -1       738 1.97917E-02 1.99219E-02 0.00000E+00
 -1       739 2.08333E-02 2.03125E-02 0.00000E+00
 -1       740 2.18750E-02 2.07031E-02 0.00000E+00
 -1       741 2.29167E-02 2.10938E-02 0.00000E+00
 -1       742 2.39583E-02 2.14844E-02 0.00000E+00
 -1       743 2.50000E-02 2.18750E-02 0.00000E+00
 -1       744 2.60417E-02 2.22656E-02 0.00000E+00
 -1       745 2.70833E-02 2.26563E-02 0.00000E+00
 -1       746 2.81250E-02 2.30469E-02 0.00000E+00
 -1       747 2.91667E-02 2.34375E-02 0.00000E+00
 -1       748 3.02083E-02 2.38281E-02 0.00000E+00
 -1       749 3.12500E-02 2.42187E-02 0.00000E+00
 -1       750 3.22917E-02 2.46094E-02 0.00000E+00
 -1       751 3.43750E-02 1.87500E-02 0.00000E+00
 -1       752 3.54167E-02 1.87500E-02 0.00000E+00
 -1       753 3.64583E-02 1.87500E-02 0.00000E+00
 -1       754 3.75000E-02 1.87500E-02 0.00000E+00
 -1       755 3.85417E-02 1.87500E-02 0.00000E+00
 -1       756 3.95833E-02 1.87500E-02 0.00000E+00
 -1       757 4.06250E-02 1.87500E-02 0.00000E+00
 -1       758 4.16667E-02 1.87500E-02 0.00000E+00
 -1       759 4.27083E-02 1.87500E-02 0.00000E+00
 -1       760 4.37500E-02 1.87500E-02 0.00000E+00
 -1       761 4.47917E-02 1.87500E-02 0.00000E+00
 -1       762 4.58333E-02 1.87500E-02 0.00000E+00
 -1       763 4.68750E-02 1.87500E-02 0.00000E+00
 -1       764 4.79167E-02 1.87500E-02 0.00000E+00
 -1       765 4.89583E-02 1.87500E-02 0.00000E+00
 -1       766 3.33333E-02 1.97917E-02 0.00000E+00
 -1       767 3.33333E-02 2.08333E-02 0.00000E+00
 -1       768 3.33333E-02 2.18750E-02 0.00000E+00
 -1       769 3.33333E-02 2.29167E-02 0.00000E+00
 -1       770 3.33333E-02 2.39583E-02 0.00000E+00
 -1       771 3.43750E-02 1.91406E-02 0.00000E+00
 -1       772 3.54167E-02 1.95312E-02 0.00000E+00
 -1       773 3.64583E-02 1.99219E-02 0.00000E+00
 -1       774 3.75000E-02 2.03125E-02 0.00000E+00
 -1       775 3.85417E-02 2.07031E-02 0.00000E+00
 -1       776 3.95833E-02 2.10938E-02 0.00000E+00
 -1       777 4.06250E-02 2.14844E-02 0.00000E+00
 -1       778 4.16667E-02 2.18750E-02 0.00000E+00
 -1       779 4.27083E-02 2.22656E-02 0.00000E+00
 -1       780 4.37500E-02 2.26563E-02 0.00000E+00
 -1       781 4.47917E-02 2.30469E-02 0.00000E+00
 -1       782 4.58333E-02 2.34375E-02 0.00000E+00
 -1       783 4.68750E-02 2.38281E-02 0.00000E+00
 -1       784 4.79167E-02 2.42187E-02 0.00000E+00
 -1       785 4.89583E-02 2.46094E-02 0.00000E+00
 -1       786 5.10417E-02 1.87500E-02 0.00000E+00
 -1       787 5.20833E-02 1.87500E-02 0.00000E+00
 -1       788 5.31250E-02 1.87500E-02 0.00000E+00
 -1       789 5.41667E-02 1.87500E-02 0.00000E+00
 -1       790 5.52083E-02 1.87500E-02 0.00000E+00
 -1       791 5.62500E-02 1.87500E-02 0.00000E+00
 -1       792 5.72917E-02 1.87500E-02 0.00000E+00
 -1       793 5.83333E-02 1.87500E-02 0.00000E+00
 -1       794 5.93750E-02 1.87500E-02 0.00000E+00
 -1       795 6.04167E-02 1.87500E-02 0.00000E+00
 -1       796 6.14583E-02 1.87500E-02 0.00000E+00
 -1       797 6.25000E-02 1.87500E-02 0.00000E+00
 -1       798 6.35417E-02 1.87500E-02 0.00000E+00
 -1       799 6.45833E-02 1.87500E-02 0.00000E+00
 -1       800 6.56250E-02 1.87500E-02 0.00000E+00
 -1       801 5.00000E-02 1.97917E-02 0.00000E+00
 -1       802 5.00000E-02 2.08333E-02 0.00000E+00
 -1       803 5.00000E-02 2.18750E-02 0.00000E+00
 -1       804 5.00000E-02 2.29167E-02 0.00000E+00
 -1       805 5.00000E-02 2.39583E-02 0.00000E+00
 -1       806 5.10417E-02 1.91406E-02 0.00000E+00
 -1       807 5.20833E-02 1.95312E-02 0.00000E+00
 -1       808 5.31250E-02 1.99219E-02 0.00000E+00
 -1       809 5.41667E-02 2.03125E-02 0.00000E+00
 -1       810 5.52083E-02 2.07031E-02 0.00000E+00
 -1       811 5.62500E-02 2.10938E-02 0.00000E+00
 -1       812 5.72917E-02 2.14844E-02 0.00000E+00
 -1       813 5.83333E-02 2.18750E-02 0.00000E+00
 -1       814 5.93750E-02 2.22656E-02 0.00000E+00
 -1       815 6.04167E-02 2.26563E-02 0.00000E+00
 -1       816 6.14583E-02 2.30469E-02 0.00000E+00
 -1       817 6.25000E-02 2.34375E-02 0.00000E+00
 -1       818 6.35417E-02 2.38281E-02 0.00000E+00
 -1       819 6.45833E-02 2.42187E-02 0.00000E+00
 -1       820 6.56250E-02 2.46094E-02 0.00000E+00
 -1       821 6.77083E-02 1.87500E-02 0.00000E+00
 -1       822 6.87500E-02 1.87500E-02 0.00000E+00
 -1       823 6.97917E-02 1.87500E-02 0.00000E+00
 -1       824 7.08333E-02 1.87500E-02 0.00000E+00
 -1       825 7.18750E-02 1.87500E-02 0.00000E+00
 -1       826 7.29167E-02 1.87500E-02 0.00000E+00
 -1       827 7.39583E-02 1.87500E-02 0.00000E+00
 -1       828 7.50000E-02 1.87500E-02 0.00000E+00
 -1       829 7.60417E-02 1.87500E-02 0.00000E+00
 -1       830 7.70833E-02 1.87500E-02 0.00000E+00
 -1       831 7.81250E-02 1.87500E-02 0.00000E+00
 -1       832 7.91667E-02 1.87500E-02 0.00000E+00
 -1       833 8.02083E-02 1.87500E-02 0.00000E+00
 -1       834 8.12500E-02 1.87500E-02 0.00000E+00
 -1       835 8.22917E-02 1.87500E-02 0.00000E+00
 -1       836 6.66667E-02 1.97917E-02 0.00000E+00
 -1       837 6.66667E-02 2.08333E-02 0.00000E+00
 -1       838 6.66667E-02 2.18750E-02 0.00000E+00
 -1       839 6.66667E-02 2.29167E-02 0.00000E+00
 -1       840 6.66667E-02 2.39583E-02 0.00000E+00
 -1       841 6.77083E-02 1.91406E-02 0.00000E+00
 -1       842 6.87500E-02 1.95312E-02 0.00000E+00
 -1       843 6.97917E-02 1.99219E-02 0.00000E+00
 -1       844 7.08333E-02 2.03125E-02 0.00000E+00
 -1       845 7.18750E-02 2.07031E-02 0.00000E+00
 -1       846 7.29167E-02 2.10938E-02 0.00000E+00
 -1       847 7.39583E-02 2.14844E-02 0.00000E+00
 -1       848 7.50000E-02 2.18750E-02 0.00000E+00
 -1       849 7.60417E-02 2.22656E-02 0.00000E+00
 -1       850 7.70833E-02 2.26563E-02 0.00000E+00
 -1       851 7.81250E-02 2.30469E-02 0.00000E+00
 -1       852 7.91667E-02 2.34375E-02 0.00000E+00
 -1       853 8.02083E-02 2.38281E-02 0.00000E+00
 -1       854 8.12500E-02 2.42187E-02 0.00000E+00
 -1       855 8.22917E-02 2.46094E-02 0.00000E+00
 -1       856 8.43750E-02 1.87500E-02 0.00000E+00
 -1       857 8.54167E-02 1.87500E-02 0.00000E+00
 -1       858 8.64583E-02 1.87500E-02 0.00000E+00
 -1       859 8.75000E-02 1.87500E-02 0.00000E+00
 -1       860 8.85417E-02 1.87500E-02 0.00000E+00
 -1       861 8.95833E-02 1.87500E-02 0.00000E+00
 -1       862 9.06250E-02 1.87500E-02 0.00000E+00
 -1       863 9.16667E-02 1.87500E-02 0.00000E+00
 -1       864 9.27083E-02 1.87500E-02 0.00000E+00
 -1       865 9.37500E-02 1.87500E-02 0.00000E+00
 -1       866 9.47917E-02 1.87500E-02 0.00000E+00
 -1       867 9.58333E-02 1.87500E-02 0.00000E+00
 -1       868 9.68750E-02 1.87500E-02 0.00000E+00
 -1       869 9.79167E-02 1.87500E-02 0.00000E+00
 -1       870 9.89583E-02 1.87500E-02 0.00000E+00
 -1       871 8.33333E-02 1.97917E-02 0.00000E+00
 -1       872 8.33333E-02 2.08333E-02 0.00000E+00
 -1       873 8.33333E-02 2.18750E-02 0.00000E+00
 -1       874 8.33333E-02 2.29167E-02 0.00000E+00
 -1       875 8.33333E-02 2.39583E-02 0.00000E+00
 -1       876 8.43750E-02 1.91406E-02 0.00000E+00
 -1       877 8.54167E-02 1.95312E-02 0.00000E+00
 -1       878 8.64583E-02 1.99219E-02 0.00000E+00
 -1       879 8.75000E-02 2.03125E-02 0.00000E+00
 -1       880 8.85417E-02 2.07031E-02 0.00000E+00
 -1       881 8.95833E-02 2.10938E-02 0.00000E+00
 -1       882 9.06250E-02 2.14844E-02 0.00000E+00
 -1       883 9.16667E-02 2.18750E-02 0.00000E+00
 -1       884 9.27083E-02 2.22656E-02 0.00000E+00
 -1       885 9.37500E-02 2.26563E-02 0.00000E+00
 -1       886 9.47917E-02 2.30469E-02 0.00000E+00
 -1       887 9.58333E-02 2.34375E-02 0.00000E+00
 -1       888 9.68750E-02 2.38281E-02 0.00000E+00
 -1       889 9.79167E-02 2.42187E-02 0.00000E+00
 -1       890 9.89583E-02 2.46094E-02 0.00000E+00
 -1       891 1.00000E-01 1.97917E-02 0.00000E+00
 -1       892 1.00000E-01 2.08333E-02 0.00000E+00
 -1       893 1.00000E-01 2.18750E-02 0.00000E+00
 -1       894 1.00000E-01 2.29167E-02 0.00000E+00
 -1       895 1.00000E-01 2.39583E-02 0.00000E+00
 -1       896 1.04167E-03 2.50000E-02 0.00000E+00
 -1       897 2.08333E-03 2.50000E-02 0.00000E+00
 -1       898 3.12500E-03 2.50000E-02 0.00000E+00
 -1       899 4.16667E-03 2.50000E-02 0.00000E+00
 -1       900 5.20833E-03 2.50000E-02 0.00000E+00
 -1       901 6.25000E-03 2.50000E-02 0.00000E+00
 -1       902 7.29167E-03 2.50000E-02 0.00000E+00
 -1       903 8.33333E-03 2.50000E-02 0.00000E+00
 -1       904 9.37500E-03 2.50000E-02 0.00000E+00
 -1       905 1.04167E-02 2.50000E-02 0.00000E+00
 -1       906 1.14583E-02 2.50000E-02 0.00000E+00
 -1       907 1.25000E-02 2.50000E-02 0.00000E+00
 -1       908 1.35417E-02 2.50000E-02 0.00000E+00
 -1       909 1.45833E-02 2.50000E-02 0.00000E+00
 -1       910 1.56250E-02 2.50000E-02 0.00000E+00
 -1       911 1.77083E-02 2.50000E-02 0.00000E+00
 -1       912 1.87500E-02 2.50000E-02 0.00000E+00
 -1       913 1.97917E-02 2.50000E-02 0.00000E+00
 -1       914 2.08333E-02 2.50000E-02 0.00000E+00
 -1       915 2.18750E-02 2.50000E-02 0.00000E+00
 -1       916 2.29167E-02 2.50000E-02 0.00000E+00
 -1       917 2.39583E-02 2.50000E-02 0.00000E+00
 -1       918 2.50000E-02 2.50000E-02 0.00000E+00
 -1       919 2.60417E-02 2.50000E-02 0.00000E+00
 -1       920 2.70833E-02 2.50000E-02 0.00000E+00
 -1       921 2.81250E-02 2.50000E-02 0.00000E+00
 -1       922 2.91667E-02 2.50000E-02 0.00000E+00
 -1       923 3.02083E-02 2.50000E-02 0.00000E+00
 -1       924 3.12500E-02 2.50000E-02 0.00000E+00
 -1       925 3.22917E-02 2.50000E-02 0.00000E+00
 -1       926 3.43750E-02 2.50000E-02 0.00000E+00
 -1       927 3.54167E-02 2.50000E-02 0.00000E+00
 -1       928 3.64583E-02 2.50000E-02 0.00000E+00
 -1       929 3.75000E-02 2.50000E-02 0.00000E+00
 -1       930 3.85417E-02 2.50000E-02 0.00000E+00
 -1       931 3.95833E-02 2.50000E-02 0.00000E+00
 -1       932 4.06250E-02 2.50000E-02 0.00000E+00
 -1       933 4.16667E-02 2.50000E-02 0.00000E+00
 -1       934 4.27083E-02 2.50000E-02 0.00000E+00
 -1       935 4.37500E-02 2.50000E-02 0.00000E+00
 -1       936 4.47917E-02 2.50000E-02 0.00000E+00
 -1       937 4.58333E-02 2.50000E-02 0.00000E+00
 -1       938 4.68750E-02 2.50000E-02 0.00000E+00
 -1       939 4.79167E-02 2.50000E-02 0.00000E+00
 -1       940 4.89583E-02 2.50000E-02 0.00000E+00
 -1       941 5.10417E-02 2.50000E-02 0.00000E+00
 -1       942 5.20833E-02 2.50000E-02 0.00000E+00
 -1       943 5.31250E-02 2.50000E-02 0.00000E+00
 -1       944 5.41667E-02 2.50000E-02 0.00000E+00
 -1       945 5.52083E-02 2.50000E-02 0.00000E+00
 -1       946 5.62500E-02 2.50000E-02 0.00000E+00
 -1       947 5.72917E-02 2.50000E-02 0.00000E+00
 -1       948 5.83333E-02 2.50000E-02 0.00000E+00
 -1       949 5.93750E-02 2.50000E-02 0.00000E+00
 -1       950 6.04167E-02 2.50000E-02 0.00000E+00
 -1       951 6.14583E-02 2.50000E-02 0.00000E+00
 -1       952 6.25000E-02 2.50000E-02 0.00000E+00
 -1       953 6.35417E-02 2.50000E-02 0.00000E+00
 -1       954 6.45833E-02 2.50000E-02 0.00000E+00
 -1       955 6.56250E-02 2.50000E-02 0.00000E+00
 -1       956 6.77083E-02 2.50000E-02 0.00000E+00
 -1       957 6.87500E-02 2.50000E-02 0.00000E+00
 -1       958 6.97917E-02 2.50000E-02 0.00000E+00
 -1       959 7.08333E-02 2.50000E-02 0.00000E+00
 -1       960 7.18750E-02 2.50000E-02 0.00000E+00
 -1       961 7.29167E-02 2.50000E-02 0.00000E+00
 -1       962 7.39583E-02 2.50000E-02 0.00000E+00
 -1       963 7.50000E-02 2.50000E-02 0.00000E+00
 -1       964 7.60417E-02 2.50000E-02 0.00000E+00
 -1       965 7.70833E-02 2.50000E-02 0.00000E+00
 -1       966 7.81250E-02 2.50000E-02 0.00000E+00
 -1       967 7.91667E-02 2.50000E-02 0.00000E+00
 -1       968 8.02083E-02 2.50000E-02 0.00000E+00
 -1       969 8.12500E-02 2.50000E-02 0.00000E+00
 -1       970 8.22917E-02 2.50000E-02 0.00000E+00
 -1       971 8.43750E-02 2.50000E-02 0.00000E+00
 -1       972 8.54167E-02 2.50000E-02 0.00000E+00
 -1       973 8.64583E-02 2.50000E-02 0.00000E+00
 -1       974 8.75000E-02 2.50000E-02 0.00000E+00
 -1       975 8.85417E-02 2.50000E-02 0.00000E+00
 -1       976 8.95833E-02 2.50000E-02 0.00000E+00
 -1       977 9.06250E-02 2.50000E-02 0.00000E+00
 -1       978 9.16667E-02 2.50000E-02 0.00000E+00
 -1       979 9.27083E-02 2.50000E-02 0.00000E+00
 -1       980 9.37500E-02 2.50000E-02 0.00000E+00
 -1       981 9.47917E-02 2.50000E-02 0.00000E+00
 -1       982 9.58333E-02 2.50000E-02 0.00000E+00
 -1       983 9.68750E-02 2.50000E-02 0.00000E+00
 -1       984 9.79167E-02 2.50000E-02 0.00000E+00
 -1       985 9.89583E-02 2.50000E-02 0.00000E+00
 -3
    3C                           440                                     1
 -1         1   12    0    1
 -2         1        37        36
 -1         2   12    0    1
 -2        37        39        38
 -1         3   12    0    1
 -2        39        41        40
 -1         4   12    0    1
 -2        41        43        42
 -1         5   12    0    1
 -2        43        45        44
 -1         6   12    0    1
 -2        45        47        46
 -1         7   12    0    1
 -2        47        49        48
 -1         8   12    0    1
 -2        49         2        50
 -1         9   12    0    1
 -2         1        52        51
 -1        10   12    0    1
 -2        52        54        53
 -1        11   12    0    1
 -2        54         8        55
 -1        12   12    0    1
 -2         1        57        56
 -1        13   12    0    1
 -2        57        59        58
 -1        14   12    0    1
 -2        59        61        60
 -1        15   12    0    1
 -2        61        63        62
 -1        16   12    0    1
 -2        63        65        64
 -1        17   12    0    1
 -2        65        67        66
 -1        18   12    0    1
 -2        67        69        68
 -1        19   12    0    1
 -2        69         9        70
 -1        20   12    0    1
 -2         2        72        71
 -1        21   12    0    1
 -2        72        74        73
 -1        22   12    0    1
 -2        74        76        75
 -1        23   12    0    1
 -2        76        78        77
 -1        24   12    0    1
 -2        78        80        79
 -1        25   12    0    1
 -2        80        82        81
 -1        26   12    0    1
 -2        82        84        83
 -1        27   12    0    1
 -2        84         3        85
 -1        28   12    0    1
 -2         2        87        86
 -1        29   12    0    1
 -2        87        89        88
 -1        30   12    0    1
 -2        89         9        90
 -1        31   12    0    1
 -2         2        92        91
 -1        32   12    0    1
 -2        92        94        93
 -1        33   12    0    1
 -2        94        96        95
 -1        34   12    0    1
 -2        96        98        97
 -1        35   12    0    1
 -2        98       100        99
 -1        36   12    0    1
 -2       100       102       101
 -1        37   12    0    1
 -2       102       104       103
 -1        38   12    0    1
 -2       104        10       105
 -1        39   12    0    1
 -2         3       107       106
 -1        40   12    0    1
 -2       107       109       108
 -1        41   12    0    1
 -2       109       111       110
 -1        42   12    0    1
 -2       111       113       112
 -1        43   12    0    1
 -2       113       115       114
 -1        44   12    0    1
 -2       115       117       116
 -1        45   12    0    1
 -2       117       119       118
 -1        46   12    0    1
 -2       119         4       120
 -1        47   12    0    1
 -2         3       122       121
 -1        48   12    0    1
 -2       122       124       123
 -1        49   12    0    1
 -2       124        10       125
 -1        50   12    0    1
 -2         3       127       126
 -1        51   12    0    1
 -2       127       129       128
 -1        52   12    0    1
 -2       129       131       130
 -1        53   12    0    1
 -2       131       133       132
 -1        54   12    0    1
 -2       133       135       134
 -1        55   12    0    1
 -2       135       137       136
 -1        56   12    0    1
 -2       137       139       138
 -1        57   12    0    1
 -2       139        11       140
 -1        58   12    0    1
 -2         4       142       141
 -1        59   12    0    1
 -2       142       144       143
 -1        60   12    0    1
 -2       144       146       145
 -1        61   12    0    1
 -2       146       148       147
 -1        62   12    0    1
 -2       148       150       149
 -1        63   12    0    1
 -2       150       152       151
 -1        64   12    0    1
 -2       152       154       153
 -1        65   12    0    1
 -2       154         5       155
 -1        66   12    0    1
 -2         4       157       156
 -1        67   12    0    1
 -2       157       159       158
 -1        68   12    0    1
 -2       159        11       160
 -1        69   12    0    1
 -2         4       162       161
 -1        70   12    0    1
 -2       162       164       163
 -1        71   12    0    1
 -2       164       166       165
 -1        72   12    0    1
 -2       166       168       167
 -1        73   12    0    1
 -2       168       170       169
 -1        74   12    0    1
 -2       170       172       171
 -1        75   12    0    1
 -2       172       174       173
 -1        76   12    0    1
 -2       174        12       175
 -1        77   12    0    1
 -2         5       192       191
 -1        78   12    0    1
 -2       192       194       193
 -1        79   12    0    1
 -2       194        12       195
 -1        80   12    0    1
 -2         8       252       251
 -1        81   12    0    1
 -2       252       254       253
 -1        82   12    0    1
 -2       254       256       255
 -1        83   12    0    1
 -2       256       258       257
 -1        84   12    0    1
 -2       258       260       259
 -1        85   12    0    1
 -2       260       262       261
 -1        86   12    0    1
 -2       262       264       263
 -1        87   12    0    1
 -2       264         9       265
 -1        88   12    0    1
 -2         8       267       266
 -1        89   12    0    1
 -2       267       269       268
 -1        90   12    0    1
 -2       269        15       270
 -1        91   12    0    1
 -2         8       272       271
 -1        92   12    0    1
 -2       272       274       273
 -1        93   12    0    1
 -2       274       276       275
 -1        94   12    0    1
 -2       276       278       277
 -1        95   12    0    1
 -2       278       280       279
 -1        96   12    0    1
 -2       280       282       281
 -1        97   12    0    1
 -2       282       284       283
 -1        98   12    0    1
 -2       284        16       285
 -1        99   12    0    1
 -2         9       287       286
 -1       100   12    0    1
 -2       287       289       288
 -1       101   12    0    1
 -2       289       291       290
 -1       102   12    0    1
 -2       291       293       292
 -1       103   12    0    1
 -2       293       295       294
 -1       104   12    0    1
 -2       295       297       296
 -1       105   12    0    1
 -2       297       299       298
 -1       106   12    0    1
 -2       299        10       300
 -1       107   12    0    1
 -2         9       302       301
 -1       108   12    0    1
 -2       302       304       303
 -1       109   12    0    1
 -2       304        16       305
 -1       110   12    0    1
 -2         9       307       306
 -1       111   12    0    1
 -2       307       309       308
 -1       112   12    0    1
 -2       309       311       310
 -1       113   12    0    1
 -2       311       313       312
 -1       114   12    0    1
 -2       313       315       314
 -1       115   12    0    1
 -2       315       317       316
 -1       116   12    0    1
 -2       317       319       318
 -1       117   12    0    1
 -2       319        17       320
 -1       118   12    0    1
 -2        10       322       321
 -1       119   12    0    1
 -2       322       324       323
 -1       120   12    0    1
 -2       324       326       325
 -1       121   12    0    1
 -2       326       328       327
 -1       122   12    0    1
 -2       328       330       329
 -1       123   12    0    1
 -2       330       332       331
 -1       124   12    0    1
 -2       332       334       333
 -1       125   12    0    1
 -2       334        11       335
 -1       126   12    0    1
 -2        10       337       336
 -1       127   12    0    1
 -2       337       339       338
 -1       128   12    0    1
 -2       339        17       340
 -1       129   12    0    1
 -2        10       342       341
 -1       130   12    0    1
 -2       342       344       343
 -1       131   12    0    1
 -2       344       346       345
 -1       132   12    0    1
 -2       346       348       347
 -1       133   12    0    1
 -2       348       350       349
 -1       134   12    0    1
 -2       350       352       351
 -1       135   12    0    1
 -2       352       354       353
 -1       136   12    0    1
 -2       354        18       355
 -1       137   12    0    1
 -2        11       357       356
 -1       138   12    0    1
 -2       357       359       358
 -1       139   12    0    1
 -2       359       361       360
 -1       140   12    0    1
 -2       361       363       362
 -1       141   12    0    1
 -2       363       365       364
 -1       142   12    0    1
 -2       365       367       366
 -1       143   12    0    1
 -2       367       369       368
 -1       144   12    0    1
 -2       369        12       370
 -1       145   12    0    1
 -2        11       372       371
 -1       146   12    0    1
 -2       372       374       373
 -1       147   12    0    1
 -2       374        18       375
 -1       148   12    0    1
 -2        11       377       376
 -1       149   12    0    1
 -2       377       379       378
 -1       150   12    0    1
 -2       379       381       380
 -1       151   12    0    1
 -2       381       383       382
 -1       152   12    0    1
 -2       383       385       384
 -1       153   12    0    1
 -2       385       387       386
 -1       154   12    0    1
 -2       387       389       388
 -1       155   12    0    1
 -2       389        19       390
 -1       156   12    0    1
 -2        12       407       406
 -1       157   12    0    1
 -2       407       409       408
 -1       158   12    0    1
 -2       409        19       410
 -1       159   12    0    1
 -2        15       467       466
 -1       160   12    0    1
 -2       467       469       468
 -1       161   12    0    1
 -2       469       471       470
 -1       162   12    0    1
 -2       471       473       472
 -1       163   12    0    1
 -2       473       475       474
 -1       164   12    0    1
 -2       475       477       476
 -1       165   12    0    1
 -2       477       479       478
 -1       166   12    0    1
 -2       479        16       480
 -1       167   12    0    1
 -2        15       482       481
 -1       168   12    0    1
 -2       482       484       483
 -1       169   12    0    1
 -2       484        22       485
 -1       170   12    0    1
 -2        15       487       486
 -1       171   12    0    1
 -2       487       489       488
 -1       172   12    0    1
 -2       489       491       490
 -1       173   12    0    1
 -2       491       493       492
 -1       174   12    0    1
 -2       493       495       494
 -1       175   12    0    1
 -2       495       497       496
 -1       176   12    0    1
 -2       497       499       498
 -1       177   12    0    1
 -2       499        23       500
 -1       178   12    0    1
 -2        16       502       501
 -1       179   12    0    1
 -2       502       504       503
 -1       180   12    0    1
 -2       504       506       505
 -1       181   12    0    1
 -2       506       508       507
 -1       182   12    0    1
 -2       508       510       509
 -1       183   12    0    1
 -2       510       512       511
 -1       184   12    0    1
 -2       512       514       513
 -1       185   12    0    1
 -2       514        17       515
 -1       186   12    0    1
 -2        16       517       516
 -1       187   12    0    1
 -2       517       519       518
 -1       188   12    0    1
 -2       519        23       520
 -1       189   12    0    1
 -2        16       522       521
 -1       190   12    0    1
 -2       522       524       523
 -1       191   12    0    1
 -2       524       526       525
 -1       192   12    0    1
 -2       526       528       527
 -1       193   12    0    1
 -2       528       530       529
 -1       194   12    0    1
 -2       530       532       531
 -1       195   12    0    1
 -2       532       534       533
 -1       196   12    0    1
 -2       534        24       535
 -1       197   12    0    1
 -2        17       537       536
 -1       198   12    0    1
 -2       537       539       538
 -1       199   12    0    1
 -2       539       541       540
 -1       200   12    0    1
 -2       541       543       542
 -1       201   12    0    1
 -2       543       545       544
 -1       202   12    0    1
 -2       545       547       546
 -1       203   12    0    1
 -2       547       549       548
 -1       204   12    0    1
 -2       549        18       550
 -1       205   12    0    1
 -2        17       552       551
 -1       206   12    0    1
 -2       552       554       553
 -1       207   12    0    1
 -2       554        24       555
 -1       208   12    0    1
 -2        17       557       556
 -1       209   12    0    1
 -2       557       559       558
 -1       210   12    0    1
 -2       559       561       560
 -1       211   12    0    1
 -2       561       563       562
 -1       212   12    0    1
 -2       563       565       564
 -1       213   12    0    1
 -2       565       567       566
 -1       214   12    0    1
 -2       567       569       568
 -1       215   12    0    1
 -2       569        25       570
 -1       216   12    0    1
 -2        18       572       571
 -1       217   12    0    1
 -2       572       574       573
 -1       218   12    0    1
 -2       574       576       575
 -1       219   12    0    1
 -2       576       578       577
 -1       220   12    0    1
 -2       578       580       579
 -1       221   12    0    1
 -2       580       582       581
 -1       222   12    0    1
 -2       582       584       583
 -1       223   12    0    1
 -2       584        19       585
 -1       224   12    0    1
 -2        18       587       586
 -1       225   12    0    1
 -2       587       589       588
 -1       226   12    0    1
 -2       589        25       590
 -1       227   12    0    1
 -2        18       592       591
 -1       228   12    0    1
 -2       592       594       593
 -1       229   12    0    1
 -2       594       596       595
 -1       230   12    0    1
 -2       596       598       597
 -1       231   12    0    1
 -2       598       600       599
 -1       232   12    0    1
 -2       600       602       601
 -1       233   12    0    1
 -2       602       604       603
 -1       234   12    0    1
 -2       604        26       605
 -1       235   12    0    1
 -2        19       607       606
 -1       236   12    0    1
 -2       607       609       608
 -1       237   12    0    1
 -2       609       611       610
 -1       238   12    0    1
 -2       611       613       612
 -1       239   12    0    1
 -2       613       615       614
 -1       240   12    0    1
 -2       615       617       616
 -1       241   12    0    1
 -2       617       619       618
 -1       242   12    0    1
 -2       619        20       620
 -1       243   12    0    1
 -2        19       622       621
 -1       244   12    0    1
 -2       622       624       623
 -1       245   12    0    1
 -2       624        26       625
 -1       246   12    0    1
 -2        19       627       626
 -1       247   12    0    1
 -2       627       629       628
 -1       248   12    0    1
 -2       629       631       630
 -1       249   12    0    1
 -2       631       633       632
 -1       250   12    0    1
 -2       633       635       634
 -1       251   12    0    1
 -2       635       637       636
 -1       252   12    0    1
 -2       637       639       638
 -1       253   12    0    1
 -2       639        27       640
 -1       254   12    0    1
 -2        20       642       641
 -1       255   12    0    1
 -2       642       644       643
 -1       256   12    0    1
 -2       644       646       645
 -1       257   12    0    1
 -2       646       648       647
 -1       258   12    0    1
 -2       648       650       649
 -1       259   12    0    1
 -2       650       652       651
 -1       260   12    0    1
 -2       652       654       653
 -1       261   12    0    1
 -2       654        21       655
 -1       262   12    0    1
 -2        20       657       656
 -1       263   12    0    1
 -2       657       659       658
 -1       264   12    0    1
 -2       659        27       660
 -1       265   12    0    1
 -2        20       662       661
 -1       266   12    0    1
 -2       662       664       663
 -1       267   12    0    1
 -2       664       666       665
 -1       268   12    0    1
 -2       666       668       667
 -1       269   12    0    1
 -2       668       670       669
 -1       270   12    0    1
 -2       670       672       671
 -1       271   12    0    1
 -2       672       674       673
 -1       272   12    0    1
 -2       674        28       675
 -1       273   12    0    1
 -2        21       677       676
 -1       274   12    0    1
 -2       677       679       678
 -1       275   12    0    1
 -2       679        28       680
 -1       276   12    0    1
 -2        22       682       681
 -1       277   12    0    1
 -2       682       684       683
 -1       278   12    0    1
 -2       684       686       685
 -1       279   12    0    1
 -2       686       688       687
 -1       280   12    0    1
 -2       688       690       689
 -1       281   12    0    1
 -2       690       692       691
 -1       282   12    0    1
 -2       692       694       693
 -1       283   12    0    1
 -2       694        23       695
 -1       284   12    0    1
 -2        22       697       696
 -1       285   12    0    1
 -2       697       699       698
 -1       286   12    0    1
 -2       699        29       700
 -1       287   12    0    1
 -2        22       702       701
 -1       288   12    0    1
 -2       702       704       703
 -1       289   12    0    1
 -2       704       706       705
 -1       290   12    0    1
 -2       706       708       707
 -1       291   12    0    1
 -2       708       710       709
 -1       292   12    0    1
 -2       710       712       711
 -1       293   12    0    1
 -2       712       714       713
 -1       294   12    0    1
 -2       714        30       715
 -1       295   12    0    1
 -2        23       717       716
 -1       296   12    0    1
 -2       717       719       718
 -1       297   12    0    1
 -2       719       721       720
 -1       298   12    0    1
 -2       721       723       722
 -1       299   12    0    1
 -2       723       725       724
 -1       300   12    0    1
 -2       725       727       726
 -1       301   12    0    1
 -2       727       729       728
 -1       302   12    0    1
 -2       729        24       730
 -1       303   12    0    1
 -2        23       732       731
 -1       304   12    0    1
 -2       732       734       733
 -1       305   12    0    1
 -2       734        30       735
 -1       306   12    0    1
 -2        23       737       736
 -1       307   12    0    1
 -2       737       739       738
 -1       308   12    0    1
 -2       739       741       740
 -1       309   12    0    1
 -2       741       743       742
 -1       310   12    0    1
 -2       743       745       744
 -1       311   12    0    1
 -2       745       747       746
 -1       312   12    0    1
 -2       747       749       748
 -1       313   12    0    1
 -2       749        31       750
 -1       314   12    0    1
 -2        24       752       751
 -1       315   12    0    1
 -2       752       754       753
 -1       316   12    0    1
 -2       754       756       755
 -1       317   12    0    1
 -2       756       758       757
 -1       318   12    0    1
 -2       758       760       759
 -1       319   12    0    1
 -2       760       762       761
 -1       320   12    0    1
 -2       762       764       763
 -1       321   12    0    1
 -2       764        25       765
 -1       322   12    0    1
 -2        24       767       766
 -1       323   12    0    1
 -2       767       769       768
 -1       324   12    0    1
 -2       769        31       770
 -1       325   12    0    1
 -2        24       772       771
 -1       326   12    0    1
 -2       772       774       773
 -1       327   12    0    1
 -2       774       776       775
 -1       328   12    0    1
 -2       776       778       777
 -1       329   12    0    1
 -2       778       780       779
 -1       330   12    0    1
 -2       780       782       781
 -1       331   12    0    1
 -2       782       784       783
 -1       332   12    0    1
 -2       784        32       785
 -1       333   12    0    1
 -2        25       787       786
 -1       334   12    0    1
 -2       787       789       788
 -1       335   12    0    1
 -2       789       791       790
 -1       336   12    0    1
 -2       791       793       792
 -1       337   12    0    1
 -2       793       795       794
 -1       338   12    0    1
 -2       795       797       796
 -1       339   12    0    1
 -2       797       799       798
 -1       340   12    0    1
 -2       799        26       800
 -1       341   12    0    1
 -2        25       802       801
 -1       342   12    0    1
 -2       802       804       803
 -1       343   12    0    1
 -2       804        32       805
 -1       344   12    0    1
 -2        25       807       806
 -1       345   12    0    1
 -2       807       809       808
 -1       346   12    0    1
 -2       809       811       810
 -1       347   12    0    1
 -2       811       813       812
 -1       348   12    0    1
 -2       813       815       814
 -1       349   12    0    1
 -2       815       817       816
 -1       350   12    0    1
 -2       817       819       818
 -1       351   12    0    1
 -2       819        33       820
 -1       352   12    0    1
 -2        26       822       821
 -1       353   12    0    1
 -2       822       824       823
 -1       354   12    0    1
 -2       824       826       825
 -1       355   12    0    1
 -2       826       828       827
 -1       356   12    0    1
 -2       828       830       829
 -1       357   12    0    1
 -2       830       832       831
 -1       358   12    0    1
 -2       832       834       833
 -1       359   12    0    1
 -2       834        27       835
 -1       360   12    0    1
 -2        26       837       836
 -1       361   12    0    1
 -2       837       839       838
 -1       362   12    0    1
 -2       839        33       840
 -1       363   12    0    1
 -2        26       842       841
 -1       364   12    0    1
 -2       842       844       843
 -1       365   12    0    1
 -2       844       846       845
 -1       366   12    0    1
 -2       846       848       847
 -1       367   12    0    1
 -2       848       850       849
 -1       368   12    0    1
 -2       850       852       851
 -1       369   12    0    1
 -2       852       854       853
 -1       370   12    0    1
 -2       854        34       855
 -1       371   12    0    1
 -2        27       857       856
 -1       372   12    0    1
 -2       857       859       858
 -1       373   12    0    1
 -2       859       861       860
 -1       374   12    0    1
 -2       861       863       862
 -1       375   12    0    1
 -2       863       865       864
 -1       376   12    0    1
 -2       865       867       866
 -1       377   12    0    1
 -2       867       869       868
 -1       378   12    0    1
 -2       869        28       870
 -1       379   12    0    1
 -2        27       872       871
 -1       380   12    0    1
 -2       872       874       873
 -1       381   12    0    1
 -2       874        34       875
 -1       382   12    0    1
 -2        27       877       876
 -1       383   12    0    1
 -2       877       879       878
 -1       384   12    0    1
 -2       879       881       880
 -1       385   12    0    1
 -2       881       883       882
 -1       386   12    0    1
 -2       883       885       884
 -1       387   12    0    1
 -2       885       887       886
 -1       388   12    0    1
 -2       887       889       888
 -1       389   12    0    1
 -2       889        35       890
 -1       390   12    0    1
 -2        28       892       891
 -1       391   12    0    1
 -2       892       894       893
 -1       392   12    0    1
 -2       894        35       895
 -1       393   12    0    1
 -2        29       897       896
 -1       394   12    0    1
 -2       897       899       898
 -1       395   12    0    1
 -2       899       901       900
 -1       396   12    0    1
 -2       901       903       902
 -1       397   12    0    1
 -2       903       905       904
 -1       398   12    0    1
 -2       905       907       906
 -1       399   12    0    1
 -2       907       909       908
 -1       400   12    0    1
 -2       909        30       910
 -1       401   12    0    1
 -2        30       912       911
 -1       402   12    0    1
 -2       912       914       913
 -1       403   12    0    1
 -2       914       916       915
 -1       404   12    0    1
 -2       916       918       917
 -1       405   12    0    1
 -2       918       920       919
 -1       406   12    0    1
 -2       920       922       921
 -1       407   12    0    1
 -2       922       924       923
 -1       408   12    0    1
 -2       924        31       925
 -1       409   12    0    1
 -2        31       927       926
 -1       410   12    0    1
 -2       927       929       928
 -1       411   12    0    1
 -2       929       931       930
 -1       412   12    0    1
 -2       931       933       932
 -1       413   12    0    1
 -2       933       935       934
 -1       414   12    0    1
 -2       935       937       936
 -1       415   12    0    1
 -2       937       939       938
 -1       416   12    0    1
 -2       939        32       940
 -1       417   12    0    1
 -2        32       942       941
 -1       418   12    0    1
 -2       942       944       943
 -1       419   12    0    1
 -2       944       946       945
 -1       420   12    0    1
 -2       946       948       947
 -1       421   12    0    1
 -2       948       950       949
 -1       422   12    0    1
 -2       950       952       951
 -1       423   12    0    1
 -2       952       954       953
 -1       424   12    0    1
 -2       954        33       955
 -1       425   12    0    1
 -2        33       957       956
 -1       426   12    0    1
 -2       957       959       958
 -1       427   12    0    1
 -2       959       961       960
 -1       428   12    0    1
 -2       961       963       962
 -1       429   12    0    1
 -2       963       965       964
 -1       430   12    0    1
 -2       965       967       966
 -1       431   12    0    1
 -2       967       969       968
 -1       432   12    0    1
 -2       969        34       970
 -1       433   12    0    1
 -2        34       972       971
 -1       434   12    0    1
 -2       972       974       973
 -1       435   12    0    1
 -2       974       976       975
 -1       436   12    0    1
 -2       976       978       977
 -1       437   12    0    1
 -2       978       980       979
 -1       438   12    0    1
 -2       980       982       981
 -1       439   12    0    1
 -2       982       984       983
 -1       440   12    0    1
 -2       984        35       985
 -3
    1PSTEP                         1           1           1          
  100CL  101 1.000000000         841                     0    1           1
 -4  DISP        4    1
 -5  D1          1    2    1    0
 -5  D2          1    2    2    0
 -5  D3          1    2    3    0
 -5  ALL         1    2    0    0    1ALL
 -1         1 6.87775E-05 0.00000E+00 0.00000E+00
 -1         2 5.48493E-05 0.00000E+00 0.00000E+00
 -1         3 4.97917E-05 0.00000E+00 0.00000E+00
 -1         4 4.87419E-05 0.00000E+00 0.00000E+00
 -1         5 4.88043E-05 0.00000E+00 0.00000E+00
 -1         8 4.37263E-05-1.26870E-06 0.00000E+00
 -1         9 4.51482E-05 1.22801E-06 0.00000E+00
 -1        10 4.48258E-05-1.12492E-06 0.00000E+00
 -1        11 4.53864E-05-2.89584E-07 0.00000E+00
 -1        12 4.64899E-05 3.11109E-06 0.00000E+00
 -1        15 2.05916E-05-1.73487E-06 0.00000E+00
 -1        16 2.66962E-05 1.43663E-06 0.00000E+00
 -1        17 2.91039E-05-2.30767E-06 0.00000E+00
 -1        18 3.42266E-05-5.98890E-07 0.00000E+00
 -1        19 3.86986E-05 6.13096E-06 0.00000E+00
 -1        20 3.99166E-05 5.73867E-05 0.00000E+00
 -1        21 3.98704E-05 1.16347E-04 0.00000E+00
 -1        22 8.86973E-06-1.10461E-06 0.00000E+00
 -1        23 1.15020E-05 1.81276E-06 0.00000E+00
 -1        24 1.36773E-05-2.76189E-06 0.00000E+00
 -1        25 2.12927E-05-3.73225E-07 0.00000E+00
 -1        26 2.63627E-05 8.00093E-06 0.00000E+00
 -1        27 2.30000E-05 5.64404E-05 0.00000E+00
 -1        28 2.08756E-05 1.15496E-04 0.00000E+00
 -1        29 0.00000E+00 0.00000E+00 0.00000E+00
 -1        30 4.31802E-06 2.20985E-06 0.00000E+00
 -1        31 5.39115E-06-1.90233E-06 0.00000E+00
 -1        32 0.00000E+00 0.00000E+00 0.00000E+00
 -1        33 9.67510E-06 1.05381E-05 0.00000E+00
 -1        34 7.54172E-06 5.63217E-05 0.00000E+00
 -1        35 4.29880E-06 1.15026E-04 0.00000E+00
 -1        36 6.79190E-05 3.69915E-21 0.00000E+00
 -1        37 6.70475E-05 6.13437E-21 0.00000E+00
 -1        38 6.61758E-05 2.27640E-21-2.64698E-23
 -1        39 6.53024E-05 1.62127E-21-1.32349E-23
 -1        40 6.44287E-05-6.22702E-21 0.00000E+00
 -1        41 6.35546E-05-1.79333E-20 0.00000E+00
 -1        42 6.26804E-05-1.49025E-20-2.64698E-23
 -1        43 6.18062E-05-1.13820E-20 1.32349E-23
 -1        44 6.09320E-05-1.16269E-20 0.00000E+00
 -1        45 6.00579E-05-1.55642E-20 0.00000E+00
 -1        46 5.91840E-05-9.82029E-21-2.64698E-23
 -1        47 5.83106E-05-1.60804E-21 1.32349E-23
 -1        48 5.74378E-05-4.26825E-21 0.00000E+00
 -1        49 5.65677E-05-1.99185E-21-1.32349E-23
 -1        50 5.56981E-05 1.78671E-22 0.00000E+00
 -1        51 6.71298E-05-2.22894E-07 0.00000E+00
 -1        52 6.40239E-05-4.30750E-07 0.00000E+00
 -1        53 5.97899E-05-6.38169E-07 0.00000E+00
 -1        54 5.47686E-05-8.46582E-07-1.65436E-24
 -1        55 4.93006E-05-1.05647E-06-3.30872E-24
 -1        56 6.75627E-05-5.34609E-07-2.64698E-23
 -1        57 6.63500E-05-1.16707E-06 1.32349E-23
 -1        58 6.51557E-05-1.84904E-06 0.00000E+00
 -1        59 6.39619E-05-2.54436E-06-1.32349E-23
 -1        60 6.27577E-05-3.21413E-06 5.29396E-23
 -1        61 6.15291E-05-3.82089E-06-2.64698E-23
 -1        62 6.02628E-05-4.32740E-06 5.29396E-23
 -1        63 5.89451E-05-4.69739E-06 0.00000E+00
 -1        64 5.75629E-05-4.89534E-06-5.29396E-23
 -1        65 5.61035E-05-4.88708E-06 2.64698E-23
 -1        66 5.45546E-05-4.63969E-06-2.64698E-23
 -1        67 5.29051E-05-4.12192E-06 0.00000E+00
 -1        68 5.11440E-05-3.30434E-06 0.00000E+00
 -1        69 4.92657E-05-2.15813E-06 0.00000E+00
 -1        70 4.72551E-05-6.60193E-07 0.00000E+00
 -1        71 5.45291E-05-3.12509E-21 0.00000E+00
 -1        72 5.42122E-05-7.72752E-21 6.61744E-24
 -1        73 5.38952E-05-9.26608E-21 0.00000E+00
 -1        74 5.35787E-05-8.48522E-21 0.00000E+00
 -1        75 5.32623E-05-4.32450E-21 1.32349E-23
 -1        76 5.29459E-05-4.44361E-21 0.00000E+00
 -1        77 5.26296E-05-6.04669E-21 0.00000E+00
 -1        78 5.23133E-05-1.00701E-20-6.61744E-24
 -1        79 5.19971E-05-1.71905E-20 1.32349E-23
 -1        80 5.16808E-05-2.62332E-20 6.61744E-24
 -1        81 5.13646E-05-3.35405E-20 0.00000E+00
 -1        82 5.10485E-05-2.92706E-20 3.30872E-24
 -1        83 5.07326E-05-2.36921E-20 6.61744E-24
 -1        84 5.04173E-05-1.59414E-20 3.30872E-24
 -1        85 5.01021E-05-4.62725E-21 6.61744E-24
 -1        86 5.44600E-05 1.87423E-07 0.00000E+00
 -1        87 5.34479E-05 4.00011E-07 0.00000E+00
 -1        88 5.19118E-05 6.11891E-07 0.00000E+00
 -1        89 4.99508E-05 8.23929E-07 1.65436E-24
 -1        90 4.76634E-05 1.03576E-06-6.20385E-25
 -1        91 5.42985E-05-2.50094E-07-1.32349E-23
 -1        92 5.37597E-05-5.56160E-07 0.00000E+00
 -1        93 5.32344E-05-8.98687E-07 0.00000E+00
 -1        94 5.27155E-05-1.26130E-06 0.00000E+00
 -1        95 5.21975E-05-1.62688E-06-1.32349E-23
 -1        96 5.16741E-05-1.97863E-06-6.61744E-24
 -1        97 5.11392E-05-2.29973E-06 0.00000E+00
 -1        98 5.05865E-05-2.57355E-06 0.00000E+00
 -1        99 5.00099E-05-2.78353E-06 1.32349E-23
 -1       100 4.94033E-05-2.91336E-06 0.00000E+00
 -1       101 4.87606E-05-2.94695E-06 1.32349E-23
 -1       102 4.80763E-05-2.86845E-06-6.61744E-24
 -1       103 4.73445E-05-2.66243E-06 0.00000E+00
 -1       104 4.65610E-05-2.31334E-06 0.00000E+00
 -1       105 4.57185E-05-1.80717E-06 1.32349E-23
 -1       106 4.97193E-05-3.57094E-21 0.00000E+00
 -1       107 4.96529E-05-1.70565E-21-1.65436E-24
 -1       108 4.95867E-05-4.48001E-21-3.30872E-24
 -1       109 4.95212E-05 4.32285E-21 8.27181E-25
 -1       110 4.94559E-05-1.14813E-21 1.65436E-24
 -1       111 4.93907E-05-7.43884E-21-8.27181E-25
 -1       112 4.93256E-05-7.42064E-21-1.65436E-24
 -1       113 4.92605E-05-7.39334E-21-8.27181E-25
 -1       114 4.91955E-05-8.00049E-21 0.00000E+00
 -1       115 4.91304E-05-7.00250E-21 0.00000E+00
 -1       116 4.90654E-05-4.72610E-21 0.00000E+00
 -1       117 4.90004E-05-3.12716E-21 0.00000E+00
 -1       118 4.89354E-05-4.77200E-21 0.00000E+00
 -1       119 4.88706E-05 1.46825E-21 8.27181E-25
 -1       120 4.88058E-05 4.32202E-22 0.00000E+00
 -1       121 4.95374E-05-1.87102E-07 0.00000E+00
 -1       122 4.89248E-05-3.73626E-07 0.00000E+00
 -1       123 4.80502E-05-5.60390E-07 0.00000E+00
 -1       124 4.70107E-05-7.47572E-07 0.00000E+00
 -1       125 4.59035E-05-9.34847E-07 0.00000E+00
 -1       126 4.95594E-05-1.28826E-07 0.00000E+00
 -1       127 4.93449E-05-3.10991E-07 3.30872E-24
 -1       128 4.91448E-05-5.31419E-07 0.00000E+00
 -1       129 4.89533E-05-7.75685E-07 3.30872E-24
 -1       130 4.87653E-05-1.02917E-06 0.00000E+00
 -1       131 4.85752E-05-1.27732E-06 0.00000E+00
 -1       132 4.83776E-05-1.50558E-06-6.61744E-24
 -1       133 4.81671E-05-1.69944E-06-3.30872E-24
 -1       134 4.79383E-05-1.84441E-06-6.61744E-24
 -1       135 4.76858E-05-1.92610E-06 0.00000E+00
 -1       136 4.74043E-05-1.93017E-06 0.00000E+00
 -1       137 4.70885E-05-1.84237E-06 0.00000E+00
 -1       138 4.67331E-05-1.64860E-06 6.61744E-24
 -1       139 4.63336E-05-1.33464E-06 0.00000E+00
 -1       140 4.58840E-05-8.87001E-07 0.00000E+00
 -1       141 4.87418E-05 1.63260E-21-8.27181E-25
 -1       142 4.87436E-05 6.54937E-21 0.00000E+00
 -1       143 4.87455E-05 8.65104E-21 0.00000E+00
 -1       144 4.87477E-05 1.27034E-20 0.00000E+00
 -1       145 4.87499E-05 1.43102E-20 0.00000E+00
 -1       146 4.87522E-05 1.28570E-20 2.58494E-26
 -1       147 4.87545E-05 1.02112E-20 1.03398E-25
 -1       148 4.87568E-05 1.02437E-20 5.16988E-26
 -1       149 4.87592E-05 6.33394E-21 2.06795E-25
 -1       150 4.87617E-05 2.13541E-21 0.00000E+00
 -1       151 4.87643E-05-5.30464E-21 0.00000E+00
 -1       152 4.87673E-05-8.69014E-21 4.13590E-25
 -1       153 4.87708E-05-1.87693E-20 1.65436E-24
 -1       154 4.87764E-05-2.05059E-20-1.65436E-24
 -1       155 4.87823E-05-1.07480E-20 0.00000E+00
 -1       156 4.85880E-05-4.75394E-08 1.65436E-24
 -1       157 4.82048E-05-9.53651E-08 4.13590E-25
 -1       158 4.76425E-05-1.43312E-07-1.65436E-24
 -1       159 4.69517E-05-1.91544E-07 8.27181E-25
 -1       160 4.61828E-05-2.39859E-07 0.00000E+00
 -1       161 4.86850E-05-3.23984E-08 0.00000E+00
 -1       162 4.86301E-05-7.28112E-08 0.00000E+00
 -1       163 4.85752E-05-1.12817E-07-1.65436E-24
 -1       164 4.85169E-05-1.44300E-07 8.27181E-25
 -1       165 4.84523E-05-1.59083E-07 0.00000E+00
 -1       166 4.83784E-05-1.49024E-07 8.27181E-25
 -1       167 4.82922E-05-1.05986E-07 0.00000E+00
 -1       168 4.81905E-05-2.18458E-08 8.27181E-25
 -1       169 4.80704E-05 1.11511E-07 0.00000E+00
 -1       170 4.79289E-05 3.02191E-07 8.27181E-25
 -1       171 4.77630E-05 5.58281E-07 0.00000E+00
 -1       172 4.75700E-05 8.87939E-07 0.00000E+00
 -1       173 4.73468E-05 1.29919E-06 2.06795E-25
 -1       174 4.70924E-05 1.80078E-06 8.27181E-25
 -1       175 4.68016E-05 2.39982E-06-3.30872E-24
 -1       191 4.87436E-05 5.14235E-07 0.00000E+00
 -1       192 4.85549E-05 1.03466E-06 0.00000E+00
 -1       193 4.82363E-05 1.55599E-06 0.00000E+00
 -1       194 4.77867E-05 2.07725E-06 0.00000E+00
 -1       195 4.72047E-05 2.59744E-06-1.32349E-23
 -1       251 4.37939E-05 2.68321E-06 0.00000E+00
 -1       252 4.38802E-05 5.38441E-06 0.00000E+00
 -1       253 4.39693E-05 6.99399E-06-8.27181E-25
 -1       254 4.40613E-05 7.67254E-06 4.13590E-25
 -1       255 4.41542E-05 7.57998E-06 0.00000E+00
 -1       256 4.42472E-05 6.87597E-06 0.00000E+00
 -1       257 4.43400E-05 5.71992E-06-1.65436E-24
 -1       258 4.44325E-05 4.27101E-06 0.00000E+00
 -1       259 4.45248E-05 2.68828E-06 0.00000E+00
 -1       260 4.46171E-05 1.13076E-06 0.00000E+00
 -1       261 4.47096E-05-2.42529E-07 3.30872E-24
 -1       262 4.48020E-05-1.27252E-06 0.00000E+00
 -1       263 4.48943E-05-1.79995E-06 0.00000E+00
 -1       264 4.49848E-05-1.66540E-06 0.00000E+00
 -1       265 4.50744E-05-7.08968E-07-1.65436E-24
 -1       266 3.89752E-05-1.35758E-06 0.00000E+00
 -1       267 3.43724E-05-1.43808E-06-1.65436E-24
 -1       268 3.00753E-05-1.51708E-06-3.30872E-24
 -1       269 2.62414E-05-1.59291E-06 0.00000E+00
 -1       270 2.30283E-05-1.66644E-06 0.00000E+00
 -1       271 4.13511E-05 2.45508E-06 2.64698E-23
 -1       272 3.93755E-05 5.04134E-06-1.32349E-23
 -1       273 3.77773E-05 6.62845E-06 0.00000E+00
 -1       274 3.65008E-05 7.35061E-06 1.32349E-23
 -1       275 3.54961E-05 7.34775E-06-2.64698E-23
 -1       276 3.47091E-05 6.76286E-06 1.32349E-23
 -1       277 3.40854E-05 5.74149E-06 0.00000E+00
 -1       278 3.35696E-05 4.43154E-06-1.32349E-23
 -1       279 3.31059E-05 2.98208E-06-2.64698E-23
 -1       280 3.26385E-05 1.54305E-06 0.00000E+00
 -1       281 3.21114E-05 2.64263E-07 2.64698E-23
 -1       282 3.14694E-05-7.05227E-07 1.32349E-23
 -1       283 3.06569E-05-1.21778E-06 2.64698E-23
 -1       284 2.96231E-05-1.12711E-06 1.32349E-23
 -1       285 2.83094E-05-2.92021E-07 0.00000E+00
 -1       286 4.51166E-05 3.35512E-06-6.61744E-24
 -1       287 4.50958E-05 4.76914E-06-1.65436E-24
 -1       288 4.50760E-05 5.55690E-06 0.00000E+00
 -1       289 4.50578E-05 5.80648E-06 0.00000E+00
 -1       290 4.50399E-05 5.60584E-06-1.65436E-24
 -1       291 4.50221E-05 5.04302E-06 0.00000E+00
 -1       292 4.50042E-05 4.20609E-06 0.00000E+00
 -1       293 4.49862E-05 3.18314E-06 0.00000E+00
 -1       294 4.49681E-05 2.06229E-06-8.27181E-25
 -1       295 4.49500E-05 9.31648E-07 2.06795E-25
 -1       296 4.49318E-05-1.20677E-07 4.13590E-25
 -1       297 4.49136E-05-1.00657E-06-2.06795E-25
 -1       298 4.48952E-05-1.63792E-06 1.65436E-24
 -1       299 4.48756E-05-1.92671E-06 0.00000E+00
 -1       300 4.48558E-05-1.78477E-06 3.30872E-24
 -1       301 4.22432E-05 1.25268E-06 1.24077E-24
 -1       302 3.91450E-05 1.28935E-06 4.13590E-25
 -1       303 3.59468E-05 1.32783E-06-2.06795E-25
 -1       304 3.27430E-05 1.36686E-06 0.00000E+00
 -1       305 2.96285E-05 1.40519E-06 0.00000E+00
 -1       306 4.34171E-05 3.03512E-06 0.00000E+00
 -1       307 4.19117E-05 4.14981E-06-1.32349E-23
 -1       308 4.06322E-05 4.66425E-06 0.00000E+00
 -1       309 3.95420E-05 4.66234E-06-1.32349E-23
 -1       310 3.86115E-05 4.23283E-06 0.00000E+00
 -1       311 3.78067E-05 3.46583E-06-1.32349E-23
 -1       312 3.70937E-05 2.45314E-06 0.00000E+00
 -1       313 3.64377E-05 1.28786E-06 0.00000E+00
 -1       314 3.58037E-05 6.38522E-08 0.00000E+00
 -1       315 3.51565E-05-1.12469E-06 0.00000E+00
 -1       316 3.44612E-05-2.18381E-06-2.64698E-23
 -1       317 3.36832E-05-3.02012E-06 1.32349E-23
 -1       318 3.27880E-05-3.54139E-06 0.00000E+00
 -1       319 3.17451E-05-3.65609E-06 0.00000E+00
 -1       320 3.05170E-05-3.27711E-06-1.32349E-23
 -1       321 4.48473E-05-3.06874E-07 3.30872E-24
 -1       322 4.48814E-05 2.32015E-07 0.00000E+00
 -1       323 4.49159E-05 5.29428E-07 0.00000E+00
 -1       324 4.49521E-05 6.23470E-07-1.03398E-25
 -1       325 4.49886E-05 5.52141E-07 0.00000E+00
 -1       326 4.50254E-05 3.53433E-07 0.00000E+00
 -1       327 4.50623E-05 6.53093E-08 8.27181E-25
 -1       328 4.50993E-05-2.74276E-07 0.00000E+00
 -1       329 4.51363E-05-6.27377E-07 0.00000E+00
 -1       330 4.51733E-05-9.56059E-07 0.00000E+00
 -1       331 4.52102E-05-1.22237E-06 0.00000E+00
 -1       332 4.52471E-05-1.38837E-06 0.00000E+00
 -1       333 4.52838E-05-1.41606E-06 0.00000E+00
 -1       334 4.53198E-05-1.26748E-06 0.00000E+00
 -1       335 4.53557E-05-9.04549E-07 4.13590E-25
 -1       336 4.31142E-05-1.32251E-06 6.61744E-24
 -1       337 4.05385E-05-1.51911E-06 0.00000E+00
 -1       338 3.74731E-05-1.71685E-06 6.61744E-24
 -1       339 3.42947E-05-1.91463E-06 3.30872E-24
 -1       340 3.13800E-05-2.11165E-06 0.00000E+00
 -1       341 4.39549E-05-4.99012E-07-1.32349E-23
 -1       342 4.31653E-05-1.31270E-07 6.61744E-24
 -1       343 4.24571E-05 1.92408E-08 0.00000E+00
 -1       344 4.18148E-05-1.11789E-08 6.61744E-24
 -1       345 4.12258E-05-1.84607E-07-1.32349E-23
 -1       346 4.06758E-05-4.63140E-07 6.61744E-24
 -1       347 4.01508E-05-8.08535E-07 0.00000E+00
 -1       348 3.96365E-05-1.18236E-06 0.00000E+00
 -1       349 3.91184E-05-1.54609E-06-1.32349E-23
 -1       350 3.85821E-05-1.86125E-06 6.61744E-24
 -1       351 3.80135E-05-2.08949E-06 1.32349E-23
 -1       352 3.73986E-05-2.19268E-06-6.61744E-24
 -1       353 3.67232E-05-2.13313E-06 1.32349E-23
 -1       354 3.59760E-05-1.87278E-06-6.61744E-24
 -1       355 3.51402E-05-1.37616E-06 0.00000E+00
 -1       356 4.54467E-05 3.70392E-07-4.13590E-25
 -1       357 4.55134E-05 8.49698E-07-4.13590E-25
 -1       358 4.55803E-05 1.17414E-06 1.65436E-24
 -1       359 4.56481E-05 1.36978E-06 0.00000E+00
 -1       360 4.57161E-05 1.46259E-06 0.00000E+00
 -1       361 4.57842E-05 1.47851E-06-8.27181E-25
 -1       362 4.58524E-05 1.44347E-06 1.65436E-24
 -1       363 4.59207E-05 1.38338E-06 8.27181E-25
 -1       364 4.59890E-05 1.32415E-06-1.65436E-24
 -1       365 4.60574E-05 1.29167E-06 8.27181E-25
 -1       366 4.61259E-05 1.31186E-06 3.30872E-24
 -1       367 4.61947E-05 1.41065E-06 0.00000E+00
 -1       368 4.62639E-05 1.61398E-06 3.30872E-24
 -1       369 4.63348E-05 1.94783E-06 0.00000E+00
 -1       370 4.64059E-05 2.43827E-06 0.00000E+00
 -1       371 4.41184E-05-3.41962E-07-8.27181E-25
 -1       372 4.22646E-05-3.93775E-07-8.27181E-25
 -1       373 4.00861E-05-4.46068E-07 0.00000E+00
 -1       374 3.78454E-05-4.98093E-07 0.00000E+00
 -1       375 3.58051E-05-5.49679E-07 0.00000E+00
 -1       376 4.49161E-05 2.67089E-07 0.00000E+00
 -1       377 4.45146E-05 6.20199E-07 3.30872E-24
 -1       378 4.41741E-05 8.10408E-07 0.00000E+00
 -1       379 4.38794E-05 8.76111E-07 0.00000E+00
 -1       380 4.36165E-05 8.56385E-07-6.61744E-24
 -1       381 4.33709E-05 7.90177E-07 3.30872E-24
 -1       382 4.31281E-05 7.16524E-07 0.00000E+00
 -1       383 4.28734E-05 6.74445E-07 0.00000E+00
 -1       384 4.25923E-05 7.02928E-07 0.00000E+00
 -1       385 4.22702E-05 8.40864E-07 0.00000E+00
 -1       386 4.18926E-05 1.12701E-06 6.61744E-24
 -1       387 4.14453E-05 1.60000E-06 0.00000E+00
 -1       388 4.09140E-05 2.29816E-06 0.00000E+00
 -1       389 4.02865E-05 3.26024E-06 1.65436E-24
 -1       390 3.95458E-05 4.52305E-06 0.00000E+00
 -1       406 4.56386E-05 3.61267E-06 0.00000E+00
 -1       407 4.46179E-05 4.11985E-06 6.61744E-24
 -1       408 4.34202E-05 4.62751E-06 0.00000E+00
 -1       409 4.20386E-05 5.13426E-06-6.61744E-24
 -1       410 4.04667E-05 5.63870E-06 1.32349E-23
 -1       466 2.09563E-05-1.93979E-07 3.30872E-24
 -1       467 2.13384E-05 7.26341E-07-3.30872E-24
 -1       468 2.17212E-05 1.12178E-06 0.00000E+00
 -1       469 2.21064E-05 1.08795E-06 0.00000E+00
 -1       470 2.24919E-05 7.19659E-07 0.00000E+00
 -1       471 2.28778E-05 1.11057E-07 0.00000E+00
 -1       472 2.32638E-05-6.44072E-07-1.32349E-23
 -1       473 2.36497E-05-1.45225E-06 6.61744E-24
 -1       474 2.40357E-05-2.22010E-06 1.32349E-23
 -1       475 2.44217E-05-2.85414E-06 6.61744E-24
 -1       476 2.48076E-05-3.26068E-06 1.32349E-23
 -1       477 2.51929E-05-3.34557E-06-6.61744E-24
 -1       478 2.55776E-05-3.01416E-06-1.32349E-23
 -1       479 2.59590E-05-2.17096E-06 0.00000E+00
 -1       480 2.63393E-05-7.19546E-07 6.61744E-24
 -1       481 1.85411E-05-1.63393E-06 0.00000E+00
 -1       482 1.63977E-05-1.52844E-06 1.65436E-24
 -1       483 1.42600E-05-1.42290E-06 3.30872E-24
 -1       484 1.22268E-05-1.31675E-06 8.27181E-25
 -1       485 1.03972E-05-1.21012E-06 0.00000E+00
 -1       486 1.95462E-05-1.88335E-07 6.61744E-24
 -1       487 1.86296E-05 9.60709E-07-6.61744E-24
 -1       488 1.78434E-05 1.76287E-06-1.32349E-23
 -1       489 1.71682E-05 2.26255E-06-6.61744E-24
 -1       490 1.65886E-05 2.50630E-06 0.00000E+00
 -1       491 1.60872E-05 2.54063E-06 0.00000E+00
 -1       492 1.56466E-05 2.41256E-06 0.00000E+00
 -1       493 1.52490E-05 2.16948E-06 0.00000E+00
 -1       494 1.48767E-05 1.85902E-06 0.00000E+00
 -1       495 1.45118E-05 1.52896E-06 0.00000E+00
 -1       496 1.41364E-05 1.22715E-06 0.00000E+00
 -1       497 1.37329E-05 1.00141E-06 0.00000E+00
 -1       498 1.32834E-05 8.99338E-07 1.32349E-23
 -1       499 1.27719E-05 9.68799E-07 6.61744E-24
 -1       500 1.21787E-05 1.25603E-06 6.61744E-24
 -1       501 2.68332E-05 3.52758E-06 0.00000E+00
 -1       502 2.69837E-05 4.80220E-06-1.24077E-24
 -1       503 2.71352E-05 5.36908E-06-1.65436E-24
 -1       504 2.72884E-05 5.33755E-06-1.65436E-24
 -1       505 2.74419E-05 4.81643E-06 0.00000E+00
 -1       506 2.75955E-05 3.91415E-06 1.65436E-24
 -1       507 2.77489E-05 2.73892E-06-3.30872E-24
 -1       508 2.79022E-05 1.39871E-06 1.65436E-24
 -1       509 2.80554E-05 1.39413E-09 0.00000E+00
 -1       510 2.82086E-05-1.34518E-06 0.00000E+00
 -1       511 2.83619E-05-2.53319E-06 0.00000E+00
 -1       512 2.85150E-05-3.45463E-06 3.30872E-24
 -1       513 2.86680E-05-4.00133E-06 0.00000E+00
 -1       514 2.88189E-05-4.06488E-06 0.00000E+00
 -1       515 2.89694E-05-3.53639E-06-8.27181E-25
 -1       516 2.38393E-05 1.49246E-06 0.00000E+00
 -1       517 2.08021E-05 1.55617E-06 2.06795E-25
 -1       518 1.78169E-05 1.62000E-06-4.13590E-25
 -1       519 1.51165E-05 1.68491E-06 2.06795E-25
 -1       520 1.29343E-05 1.75109E-06 0.00000E+00
 -1       521 2.51151E-05 3.30324E-06-1.32349E-23
 -1       522 2.37797E-05 4.42998E-06-1.32349E-23
 -1       523 2.26850E-05 4.91644E-06 2.64698E-23
 -1       524 2.17920E-05 4.85444E-06-1.32349E-23
 -1       525 2.10679E-05 4.34019E-06 2.64698E-23
 -1       526 2.04760E-05 3.47109E-06 0.00000E+00
 -1       527 1.99797E-05 2.34604E-06 0.00000E+00
 -1       528 1.95416E-05 1.06509E-06 0.00000E+00
 -1       529 1.91241E-05-2.71101E-07 0.00000E+00
 -1       530 1.86897E-05-1.56158E-06 0.00000E+00
 -1       531 1.82007E-05-2.70562E-06 2.64698E-23
 -1       532 1.76199E-05-3.60309E-06 0.00000E+00
 -1       533 1.69104E-05-4.15490E-06 0.00000E+00
 -1       534 1.60381E-05-4.26281E-06-1.32349E-23
 -1       535 1.49637E-05-3.83224E-06 0.00000E+00
 -1       536 2.93997E-05-9.16727E-07 0.00000E+00
 -1       537 2.97186E-05 2.35353E-08 0.00000E+00
 -1       538 3.00383E-05 5.73715E-07 0.00000E+00
 -1       539 3.03612E-05 7.94476E-07 0.00000E+00
 -1       540 3.06847E-05 7.45939E-07-6.61744E-24
 -1       541 3.10088E-05 4.87790E-07 0.00000E+00
 -1       542 3.13331E-05 7.94340E-08 1.32349E-23
 -1       543 3.16574E-05-4.19983E-07 0.00000E+00
 -1       544 3.19817E-05-9.51427E-07 1.32349E-23
 -1       545 3.23059E-05-1.45594E-06 6.61744E-24
 -1       546 3.26301E-05-1.87450E-06-1.32349E-23
 -1       547 3.29540E-05-2.14796E-06 0.00000E+00
 -1       548 3.32775E-05-2.21698E-06-6.61744E-24
 -1       549 3.35990E-05-2.02187E-06 3.30872E-24
 -1       550 3.39202E-05-1.50252E-06 0.00000E+00
 -1       551 2.68338E-05-2.38673E-06 5.36375E-25
 -1       552 2.42291E-05-2.46059E-06 2.06795E-25
 -1       553 2.14494E-05-2.53393E-06 0.00000E+00
 -1       554 1.86565E-05-2.60740E-06-6.61744E-24
 -1       555 1.60126E-05-2.68161E-06 6.61744E-24
 -1       556 2.82193E-05-1.10665E-06 0.00000E+00
 -1       557 2.74725E-05-2.96872E-07-6.61744E-24
 -1       558 2.68516E-05 1.74150E-07 1.32349E-23
 -1       559 2.63371E-05 3.59236E-07-6.61744E-24
 -1       560 2.59098E-05 3.11344E-07 0.00000E+00
 -1       561 2.55498E-05 8.35993E-08 0.00000E+00
 -1       562 2.52373E-05-2.70828E-07-1.32349E-23
 -1       563 2.49522E-05-6.98688E-07 0.00000E+00
 -1       564 2.46748E-05-1.14671E-06 1.32349E-23
 -1       565 2.43849E-05-1.56160E-06 0.00000E+00
 -1       566 2.40628E-05-1.89010E-06 1.32349E-23
 -1       567 2.36885E-05-2.07894E-06-3.30872E-24
 -1       568 2.32423E-05-2.07493E-06 6.61744E-24
 -1       569 2.27053E-05-1.82486E-06 3.30872E-24
 -1       570 2.20582E-05-1.27571E-06 0.00000E+00
 -1       571 3.44900E-05 2.81631E-07-2.06795E-24
 -1       572 3.47666E-05 8.86875E-07-1.65436E-24
 -1       573 3.50458E-05 1.26125E-06-3.30872E-24
 -1       574 3.53265E-05 1.45087E-06 0.00000E+00
 -1       575 3.56077E-05 1.50185E-06 0.00000E+00
 -1       576 3.58891E-05 1.46042E-06 0.00000E+00
 -1       577 3.61707E-05 1.37280E-06 0.00000E+00
 -1       578 3.64524E-05 1.28519E-06 6.61744E-24
 -1       579 3.67341E-05 1.24381E-06 0.00000E+00
 -1       580 3.70158E-05 1.29489E-06-6.61744E-24
 -1       581 3.72974E-05 1.48467E-06 0.00000E+00
 -1       582 3.75789E-05 1.85943E-06 0.00000E+00
 -1       583 3.78602E-05 2.46547E-06-1.32349E-23
 -1       584 3.81410E-05 3.34898E-06-6.61744E-24
 -1       585 3.84211E-05 4.55616E-06 0.00000E+00
 -1       586 3.24365E-05-5.61120E-07 0.00000E+00
 -1       587 3.02753E-05-5.21577E-07 0.00000E+00
 -1       588 2.79104E-05-4.82151E-07-1.65436E-24
 -1       589 2.55120E-05-4.43244E-07 0.00000E+00
 -1       590 2.32501E-05-4.05240E-07 0.00000E+00
 -1       591 3.36229E-05 2.71716E-07 6.61744E-24
 -1       592 3.30837E-05 9.37785E-07 0.00000E+00
 -1       593 3.26059E-05 1.43506E-06 0.00000E+00
 -1       594 3.21775E-05 1.79750E-06 3.30872E-24
 -1       595 3.17865E-05 2.05917E-06 0.00000E+00
 -1       596 3.14204E-05 2.25403E-06 0.00000E+00
 -1       597 3.10666E-05 2.41606E-06-6.61744E-24
 -1       598 3.07123E-05 2.57922E-06 0.00000E+00
 -1       599 3.03449E-05 2.77747E-06 6.61744E-24
 -1       600 2.99515E-05 3.04475E-06 3.30872E-24
 -1       601 2.95197E-05 3.41500E-06-6.61744E-24
 -1       602 2.90366E-05 3.92215E-06-1.65436E-24
 -1       603 2.84899E-05 4.60011E-06-3.30872E-24
 -1       604 2.78679E-05 5.48288E-06 2.48154E-24
 -1       605 2.71588E-05 6.60438E-06 8.27181E-25
 -1       606 3.87864E-05 8.18455E-06 0.00000E+00
 -1       607 3.88670E-05 1.04773E-05 0.00000E+00
 -1       608 3.89457E-05 1.29921E-05 0.00000E+00
 -1       609 3.90232E-05 1.57102E-05 0.00000E+00
 -1       610 3.90999E-05 1.86132E-05 0.00000E+00
 -1       611 3.91761E-05 2.16822E-05 0.00000E+00
 -1       612 3.92517E-05 2.48984E-05 0.00000E+00
 -1       613 3.93269E-05 2.82433E-05 6.61744E-24
 -1       614 3.94017E-05 3.16980E-05 3.30872E-24
 -1       615 3.94762E-05 3.52439E-05 1.65436E-24
 -1       616 3.95505E-05 3.88622E-05 3.30872E-24
 -1       617 3.96245E-05 4.25343E-05-1.65436E-24
 -1       618 3.96983E-05 4.62414E-05-3.30872E-24
 -1       619 3.97719E-05 4.99650E-05 0.00000E+00
 -1       620 3.98451E-05 5.36862E-05 1.65436E-24
 -1       621 3.66478E-05 6.44253E-06-6.61744E-24
 -1       622 3.45301E-05 6.75731E-06 0.00000E+00
 -1       623 3.23938E-05 7.07230E-06 0.00000E+00
 -1       624 3.02879E-05 7.38653E-06-3.30872E-24
 -1       625 2.82615E-05 7.69900E-06 0.00000E+00
 -1       626 3.80963E-05 8.28442E-06 0.00000E+00
 -1       627 3.73915E-05 1.07022E-05 6.61744E-24
 -1       628 3.65962E-05 1.33578E-05 0.00000E+00
 -1       629 3.57217E-05 1.62227E-05 0.00000E+00
 -1       630 3.47788E-05 1.92680E-05 1.32349E-23
 -1       631 3.37786E-05 2.24649E-05-3.30872E-24
 -1       632 3.27318E-05 2.57847E-05 1.32349E-23
 -1       633 3.16494E-05 2.91986E-05 3.30872E-24
 -1       634 3.05423E-05 3.26777E-05-6.61744E-24
 -1       635 2.94213E-05 3.61933E-05 3.30872E-24
 -1       636 2.82973E-05 3.97167E-05 0.00000E+00
 -1       637 2.71811E-05 4.32191E-05 0.00000E+00
 -1       638 2.60835E-05 4.66716E-05 6.61744E-24
 -1       639 2.50149E-05 5.00455E-05 1.65436E-24
 -1       640 2.39856E-05 5.33118E-05 0.00000E+00
 -1       641 3.99158E-05 6.10549E-05 8.27181E-25
 -1       642 3.99134E-05 6.47667E-05 0.00000E+00
 -1       643 3.99108E-05 6.85134E-05 0.00000E+00
 -1       644 3.99078E-05 7.22861E-05-1.03398E-25
 -1       645 3.99048E-05 7.60759E-05 0.00000E+00
 -1       646 3.99017E-05 7.98739E-05 0.00000E+00
 -1       647 3.98986E-05 8.36712E-05 1.03398E-25
 -1       648 3.98955E-05 8.74589E-05 5.16988E-26
 -1       649 3.98925E-05 9.12280E-05-1.03398E-25
 -1       650 3.98896E-05 9.49698E-05 3.87741E-26
 -1       651 3.98867E-05 9.86754E-05-5.16988E-26
 -1       652 3.98840E-05 1.02336E-04 0.00000E+00
 -1       653 3.98813E-05 1.05942E-04-4.13590E-25
 -1       654 3.98785E-05 1.09485E-04 0.00000E+00
 -1       655 3.98758E-05 1.12957E-04 0.00000E+00
 -1       656 3.65765E-05 5.72332E-05 3.30872E-24
 -1       657 3.36242E-05 5.70726E-05 1.65436E-24
 -1       658 3.09254E-05 5.69128E-05 0.00000E+00
 -1       659 2.83451E-05 5.67532E-05 0.00000E+00
 -1       660 2.57482E-05 5.65934E-05 0.00000E+00
 -1       661 3.86889E-05 6.11038E-05 0.00000E+00
 -1       662 3.74544E-05 6.48546E-05 1.65436E-24
 -1       663 3.62113E-05 6.86279E-05 3.30872E-24
 -1       664 3.49639E-05 7.24147E-05-1.65436E-24
 -1       665 3.37150E-05 7.62055E-05 6.61744E-24
 -1       666 3.24683E-05 7.99910E-05 3.30872E-24
 -1       667 3.12272E-05 8.37620E-05 0.00000E+00
 -1       668 2.99952E-05 8.75091E-05 0.00000E+00
 -1       669 2.87756E-05 9.12229E-05 3.30872E-24
 -1       670 2.75722E-05 9.48943E-05 3.30872E-24
 -1       671 2.63884E-05 9.85138E-05-3.30872E-24
 -1       672 2.52276E-05 1.02072E-04-1.65436E-24
 -1       673 2.40934E-05 1.05559E-04 3.30872E-24
 -1       674 2.29885E-05 1.08966E-04 0.00000E+00
 -1       675 2.19176E-05 1.12282E-04 0.00000E+00
 -1       676 3.65767E-05 1.16207E-04-3.30872E-24
 -1       677 3.33562E-05 1.16063E-04 0.00000E+00
 -1       678 3.01925E-05 1.15920E-04 3.30872E-24
 -1       679 2.70688E-05 1.15778E-04 0.00000E+00
 -1       680 2.39687E-05 1.15635E-04 3.30872E-24
 -1       681 9.03020E-06 2.73315E-09 0.00000E+00
 -1       682 9.19516E-06 7.92360E-07 1.65436E-24
 -1       683 9.36038E-06 1.30600E-06 0.00000E+00
 -1       684 9.52626E-06 1.58565E-06 0.00000E+00
 -1       685 9.69230E-06 1.67310E-06-3.30872E-24
 -1       686 9.85844E-06 1.60995E-06 0.00000E+00
 -1       687 1.00246E-05 1.43774E-06 6.61744E-24
 -1       688 1.01908E-05 1.19789E-06 0.00000E+00
 -1       689 1.03569E-05 9.31783E-07 0.00000E+00
 -1       690 1.05230E-05 6.80765E-07-3.30872E-24
 -1       691 1.06890E-05 4.86208E-07 0.00000E+00
 -1       692 1.08548E-05 3.89526E-07 3.30872E-24
 -1       693 1.10203E-05 4.32202E-07-3.30872E-24
 -1       694 1.11845E-05 6.55824E-07 0.00000E+00
 -1       695 1.13483E-05 1.10217E-06 0.00000E+00
 -1       696 7.44403E-06-9.25631E-07 0.00000E+00
 -1       697 5.89068E-06-7.41723E-07 0.00000E+00
 -1       698 4.28951E-06-5.57730E-07-6.61744E-24
 -1       699 2.72063E-06-3.72771E-07 3.30872E-24
 -1       700 1.26418E-06-1.87467E-07-6.61744E-24
 -1       701 8.26348E-06-8.48915E-09 3.30872E-24
 -1       702 7.73684E-06 8.43031E-07 0.00000E+00
 -1       703 7.29099E-06 1.47948E-06-6.61744E-24
 -1       704 6.91471E-06 1.92643E-06-3.30872E-24
 -1       705 6.59930E-06 2.21053E-06-6.61744E-24
 -1       706 6.33485E-06 2.35817E-06 3.30872E-24
 -1       707 6.11153E-06 2.39593E-06-6.61744E-24
 -1       708 5.91939E-06 2.35049E-06-3.30872E-24
 -1       709 5.74842E-06 2.24856E-06 0.00000E+00
 -1       710 5.58863E-06 2.11694E-06 3.30872E-24
 -1       711 5.42998E-06 1.98247E-06-6.61744E-24
 -1       712 5.26259E-06 1.87200E-06 0.00000E+00
 -1       713 5.07641E-06 1.81234E-06 6.61744E-24
 -1       714 4.86252E-06 1.83063E-06 0.00000E+00
 -1       715 4.60961E-06 1.95307E-06 1.65436E-24
 -1       716 1.16299E-05 2.40160E-06-7.75482E-26
 -1       717 1.17669E-05 2.53235E-06-8.27181E-25
 -1       718 1.19040E-05 2.27807E-06 0.00000E+00
 -1       719 1.20423E-05 1.71232E-06 0.00000E+00
 -1       720 1.21806E-05 9.08332E-07 3.30872E-24
 -1       721 1.23190E-05-6.07613E-08 0.00000E+00
 -1       722 1.24574E-05-1.12193E-06 0.00000E+00
 -1       723 1.25959E-05-2.20225E-06-1.65436E-24
 -1       724 1.27343E-05-3.22876E-06 0.00000E+00
 -1       725 1.28728E-05-4.12847E-06 1.65436E-24
 -1       726 1.30113E-05-4.82835E-06 3.30872E-24
 -1       727 1.31496E-05-5.25519E-06-1.65436E-24
 -1       728 1.32874E-05-5.33563E-06 3.30872E-24
 -1       729 1.34232E-05-4.99609E-06 0.00000E+00
 -1       730 1.35583E-05-4.16263E-06-6.20385E-25
 -1       731 1.03779E-05 1.87375E-06 0.00000E+00
 -1       732 9.00928E-06 1.94034E-06 8.27181E-25
 -1       733 7.55726E-06 2.00693E-06 0.00000E+00
 -1       734 6.18362E-06 2.07432E-06-8.27181E-25
 -1       735 5.05019E-06 2.14214E-06 0.00000E+00
 -1       736 1.08322E-05 2.39305E-06 0.00000E+00
 -1       737 1.02417E-05 2.71700E-06 0.00000E+00
 -1       738 9.73423E-06 2.81942E-06 0.00000E+00
 -1       739 9.29661E-06 2.72988E-06 6.61744E-24
 -1       740 8.91891E-06 2.47951E-06 0.00000E+00
 -1       741 8.58951E-06 2.09930E-06 6.61744E-24
 -1       742 8.29692E-06 1.62058E-06-1.32349E-23
 -1       743 8.02937E-06 1.07484E-06 0.00000E+00
 -1       744 7.77508E-06 4.93713E-07 1.32349E-23
 -1       745 7.52219E-06-9.10641E-08 6.61744E-24
 -1       746 7.25888E-06-6.47779E-07 0.00000E+00
 -1       747 6.97347E-06-1.14471E-06 0.00000E+00
 -1       748 6.65416E-06-1.55034E-06 1.32349E-23
 -1       749 6.29051E-06-1.83289E-06 0.00000E+00
 -1       750 5.86931E-06-1.96184E-06 6.61744E-24
 -1       751 1.41216E-05-1.30904E-06 0.00000E+00
 -1       752 1.45967E-05-3.31035E-07 3.30872E-24
 -1       753 1.50727E-05 2.38012E-07-1.32349E-23
 -1       754 1.55529E-05 4.63678E-07-6.61744E-24
 -1       755 1.60340E-05 4.10774E-07-1.32349E-23
 -1       756 1.65158E-05 1.43414E-07-6.61744E-24
 -1       757 1.69979E-05-2.74702E-07-1.32349E-23
 -1       758 1.74800E-05-7.80268E-07 6.61744E-24
 -1       759 1.79621E-05-1.31014E-06 0.00000E+00
 -1       760 1.84442E-05-1.80125E-06 6.61744E-24
 -1       761 1.89261E-05-2.19045E-06 0.00000E+00
 -1       762 1.94074E-05-2.41432E-06 0.00000E+00
 -1       763 1.98880E-05-2.40913E-06-1.32349E-23
 -1       764 2.03652E-05-2.11056E-06 0.00000E+00
 -1       765 2.08417E-05-1.45367E-06 0.00000E+00
 -1       766 1.18733E-05-2.63059E-06-1.65436E-24
 -1       767 1.01040E-05-2.48348E-06 4.13590E-25
 -1       768 8.47004E-06-2.33624E-06 1.65436E-24
 -1       769 7.07251E-06-2.18817E-06 4.13590E-25
 -1       770 6.01263E-06-2.03947E-06 0.00000E+00
 -1       771 1.24382E-05-1.49734E-06-1.32349E-23
 -1       772 1.12895E-05-5.36958E-07 1.32349E-23
 -1       773 1.02375E-05 1.56284E-07 0.00000E+00
 -1       774 9.27107E-06 6.15432E-07-1.32349E-23
 -1       775 8.37932E-06 8.73752E-07-2.64698E-23
 -1       776 7.55013E-06 9.64416E-07 1.32349E-23
 -1       777 6.77124E-06 9.20667E-07 2.64698E-23
 -1       778 6.03022E-06 7.75838E-07 0.00000E+00
 -1       779 5.31459E-06 5.63320E-07-2.64698E-23
 -1       780 4.61186E-06 3.16563E-07-1.32349E-23
 -1       781 3.90956E-06 6.90500E-08 2.64698E-23
 -1       782 3.19536E-06-1.45689E-07 0.00000E+00
 -1       783 2.45696E-06-2.94128E-07-1.32349E-23
 -1       784 1.68326E-06-3.42473E-07 6.61744E-24
 -1       785 8.62900E-07-2.57088E-07 1.32349E-23
 -1       786 2.15900E-05 7.84598E-07 3.30872E-24
 -1       787 2.19059E-05 1.64350E-06 0.00000E+00
 -1       788 2.22224E-05 2.24978E-06 0.00000E+00
 -1       789 2.25414E-05 2.64977E-06 3.30872E-24
 -1       790 2.28609E-05 2.88948E-06 0.00000E+00
 -1       791 2.31809E-05 3.01466E-06-3.30872E-24
 -1       792 2.35011E-05 3.07092E-06-1.32349E-23
 -1       793 2.38214E-05 3.10373E-06 6.61744E-24
 -1       794 2.41417E-05 3.15857E-06-1.32349E-23
 -1       795 2.44619E-05 3.28091E-06-6.61744E-24
 -1       796 2.47821E-05 3.51634E-06-1.32349E-23
 -1       797 2.51019E-05 3.91063E-06-6.61744E-24
 -1       798 2.54213E-05 4.50977E-06 0.00000E+00
 -1       799 2.57392E-05 5.36006E-06 0.00000E+00
 -1       800 2.60565E-05 6.50823E-06 0.00000E+00
 -1       801 1.86918E-05-3.11302E-07 0.00000E+00
 -1       802 1.47297E-05-2.45688E-07 0.00000E+00
 -1       803 1.01416E-05-1.82552E-07-3.10193E-25
 -1       804 5.66572E-06-1.19901E-07 0.00000E+00
 -1       805 2.04010E-06-5.45264E-08 6.61744E-24
 -1       806 2.04577E-05 6.42830E-07 0.00000E+00
 -1       807 1.96833E-05 1.45619E-06 6.61744E-24
 -1       808 1.89690E-05 2.10287E-06 0.00000E+00
 -1       809 1.83032E-05 2.61625E-06 6.61744E-24
 -1       810 1.76744E-05 3.02984E-06 0.00000E+00
 -1       811 1.70703E-05 3.37703E-06 6.61744E-24
 -1       812 1.64785E-05 3.69119E-06-1.32349E-23
 -1       813 1.58865E-05 4.00570E-06 0.00000E+00
 -1       814 1.52818E-05 4.35394E-06 1.32349E-23
 -1       815 1.46520E-05 4.76925E-06 0.00000E+00
 -1       816 1.39846E-05 5.28497E-06-1.32349E-23
 -1       817 1.32672E-05 5.93440E-06 3.30872E-24
 -1       818 1.24877E-05 6.75082E-06 6.61744E-24
 -1       819 1.16346E-05 7.76760E-06 6.61744E-24
 -1       820 1.06965E-05 9.01799E-06 0.00000E+00
 -1       821 2.61675E-05 9.87853E-06 0.00000E+00
 -1       822 2.59598E-05 1.20603E-05 1.65436E-24
 -1       823 2.57513E-05 1.45148E-05 6.61744E-24
 -1       824 2.55406E-05 1.72101E-05 0.00000E+00
 -1       825 2.53290E-05 2.01138E-05 0.00000E+00
 -1       826 2.51166E-05 2.31936E-05 0.00000E+00
 -1       827 2.49036E-05 2.64166E-05 6.61744E-24
 -1       828 2.46903E-05 2.97501E-05-3.30872E-24
 -1       829 2.44767E-05 3.31613E-05-6.61744E-24
 -1       830 2.42630E-05 3.66170E-05 3.30872E-24
 -1       831 2.40493E-05 4.00844E-05 0.00000E+00
 -1       832 2.38360E-05 4.35303E-05 0.00000E+00
 -1       833 2.36230E-05 4.69218E-05 6.61744E-24
 -1       834 2.34117E-05 5.02258E-05-3.30872E-24
 -1       835 2.32009E-05 5.34095E-05 0.00000E+00
 -1       836 2.41333E-05 8.41650E-06 0.00000E+00
 -1       837 2.13009E-05 8.84581E-06-6.61744E-24
 -1       838 1.81520E-05 9.27394E-06 0.00000E+00
 -1       839 1.49735E-05 9.70125E-06 0.00000E+00
 -1       840 1.20524E-05 1.01293E-05 3.30872E-24
 -1       841 2.56253E-05 9.87481E-06 0.00000E+00
 -1       842 2.47635E-05 1.20645E-05 0.00000E+00
 -1       843 2.37950E-05 1.45370E-05-2.06795E-25
 -1       844 2.27324E-05 1.72566E-05-2.06795E-25
 -1       845 2.15895E-05 2.01884E-05-4.13590E-25
 -1       846 2.03796E-05 2.32970E-05 0.00000E+00
 -1       847 1.91162E-05 2.65470E-05 0.00000E+00
 -1       848 1.78125E-05 2.99031E-05 0.00000E+00
 -1       849 1.64821E-05 3.33299E-05-8.27181E-25
 -1       850 1.51383E-05 3.67920E-05-4.13590E-25
 -1       851 1.37945E-05 4.02539E-05-8.27181E-25
 -1       852 1.24641E-05 4.36803E-05 0.00000E+00
 -1       853 1.11605E-05 4.70358E-05 0.00000E+00
 -1       854 9.89693E-06 5.02848E-05 8.27181E-25
 -1       855 8.68695E-06 5.33921E-05 0.00000E+00
 -1       856 2.28756E-05 5.95071E-05 0.00000E+00
 -1       857 2.27445E-05 6.28012E-05 8.27181E-25
 -1       858 2.26126E-05 6.62922E-05 3.30872E-24
 -1       859 2.24793E-05 6.99494E-05 1.65436E-24
 -1       860 2.23454E-05 7.37419E-05 3.30872E-24
 -1       861 2.22110E-05 7.76385E-05 0.00000E+00
 -1       862 2.20762E-05 8.16083E-05 3.30872E-24
 -1       863 2.19412E-05 8.56202E-05 0.00000E+00
 -1       864 2.18062E-05 8.96430E-05-3.30872E-24
 -1       865 2.16713E-05 9.36455E-05 0.00000E+00
 -1       866 2.15366E-05 9.75967E-05 0.00000E+00
 -1       867 2.14023E-05 1.01465E-04 0.00000E+00
 -1       868 2.12685E-05 1.05221E-04 0.00000E+00
 -1       869 2.11357E-05 1.08831E-04-1.65436E-24
 -1       870 2.10036E-05 1.12267E-04 3.30872E-24
 -1       871 2.02886E-05 5.64226E-05 0.00000E+00
 -1       872 1.77062E-05 5.64037E-05 0.00000E+00
 -1       873 1.51969E-05 5.63847E-05-8.27181E-25
 -1       874 1.27041E-05 5.63653E-05-2.06795E-25
 -1       875 1.01710E-05 5.63451E-05-4.13590E-25
 -1       876 2.20337E-05 5.95456E-05 3.30872E-24
 -1       877 2.10049E-05 6.28386E-05 0.00000E+00
 -1       878 1.99151E-05 6.62925E-05 6.61744E-24
 -1       879 1.87746E-05 6.98838E-05 0.00000E+00
 -1       880 1.75913E-05 7.35882E-05 0.00000E+00
 -1       881 1.63743E-05 7.73818E-05-3.30872E-24
 -1       882 1.51326E-05 8.12411E-05 0.00000E+00
 -1       883 1.38750E-05 8.51423E-05 0.00000E+00
 -1       884 1.26103E-05 8.90619E-05 0.00000E+00
 -1       885 1.13477E-05 9.29764E-05 0.00000E+00
 -1       886 1.00958E-05 9.68621E-05-6.61744E-24
 -1       887 8.86361E-06 1.00695E-04-3.30872E-24
 -1       888 7.65996E-06 1.04453E-04-6.61744E-24
 -1       889 6.49292E-06 1.08110E-04 1.65436E-24
 -1       890 5.37259E-06 1.11643E-04-1.65436E-24
 -1       891 1.79701E-05 1.15418E-04-1.65436E-24
 -1       892 1.52772E-05 1.15339E-04 0.00000E+00
 -1       893 1.26805E-05 1.15261E-04 0.00000E+00
 -1       894 1.00630E-05 1.15182E-04-8.27181E-25
 -1       895 7.30788E-06 1.15104E-04 1.65436E-24
 -1       896 2.68438E-07 9.60902E-07 6.61744E-24
 -1       897 5.38956E-07 1.67875E-06 0.00000E+00
 -1       898 8.09643E-07 2.18247E-06 0.00000E+00
 -1       899 1.08066E-06 2.50102E-06 0.00000E+00
 -1       900 1.35176E-06 2.66314E-06 0.00000E+00
 -1       901 1.62292E-06 2.69734E-06-3.30872E-24
 -1       902 1.89410E-06 2.63200E-06-6.61744E-24
 -1       903 2.16526E-06 2.49535E-06-3.30872E-24
 -1       904 2.43641E-06 2.31554E-06 6.61744E-24
 -1       905 2.70750E-06 2.12066E-06 0.00000E+00
 -1       906 2.97851E-06 1.93878E-06 0.00000E+00
 -1       907 3.24931E-06 1.79798E-06 3.30872E-24
 -1       908 3.51984E-06 1.72642E-06-6.61744E-24
 -1       909 3.78913E-06 1.75231E-06 0.00000E+00
 -1       910 4.05823E-06 1.90402E-06 6.61744E-24
 -1       911 4.38547E-06 2.49032E-06 1.65436E-24
 -1       912 4.45352E-06 2.56606E-06 0.00000E+00
 -1       913 4.52159E-06 2.46544E-06 0.00000E+00
 -1       914 4.58970E-06 2.21712E-06 0.00000E+00
 -1       915 4.65781E-06 1.84967E-06 1.65436E-24
 -1       916 4.72588E-06 1.39162E-06-8.27181E-25
 -1       917 4.79393E-06 8.71486E-07-1.65436E-24
 -1       918 4.86196E-06 3.17753E-07 8.27181E-25
 -1       919 4.92996E-06-2.41096E-07 0.00000E+00
 -1       920 4.99793E-06-7.76578E-07-8.27181E-25
 -1       921 5.06585E-06-1.26022E-06 0.00000E+00
 -1       922 5.13358E-06-1.66351E-06 8.27181E-25
 -1       923 5.20109E-06-1.95793E-06 1.65436E-24
 -1       924 5.26747E-06-2.11492E-06-8.27181E-25
 -1       925 5.33369E-06-2.10584E-06-4.13590E-25
 -1       926 5.06351E-06-1.64256E-06 0.00000E+00
 -1       927 4.72718E-06-1.48267E-06 0.00000E+00
 -1       928 4.39071E-06-1.40562E-06 0.00000E+00
 -1       929 4.05308E-06-1.39406E-06 0.00000E+00
 -1       930 3.71520E-06-1.43058E-06 0.00000E+00
 -1       931 3.37710E-06-1.49766E-06 0.00000E+00
 -1       932 3.03893E-06-1.57777E-06 1.32349E-23
 -1       933 2.70072E-06-1.65331E-06 6.61744E-24
 -1       934 2.36249E-06-1.70672E-06 0.00000E+00
 -1       935 2.02427E-06-1.72048E-06 0.00000E+00
 -1       936 1.68607E-06-1.67711E-06 1.32349E-23
 -1       937 1.34794E-06-1.55923E-06 6.61744E-24
 -1       938 1.00988E-06-1.34958E-06 0.00000E+00
 -1       939 6.72219E-07-1.03107E-06 0.00000E+00
 -1       940 3.34567E-07-5.86711E-07 0.00000E+00
 -1       941 5.66244E-07 5.88720E-07 0.00000E+00
 -1       942 1.17017E-06 1.05683E-06 6.61744E-24
 -1       943 1.77485E-06 1.43228E-06 0.00000E+00
 -1       944 2.38456E-06 1.74293E-06 0.00000E+00
 -1       945 2.99536E-06 2.01644E-06 1.32349E-23
 -1       946 3.60709E-06 2.28036E-06 0.00000E+00
 -1       947 4.21913E-06 2.56224E-06 0.00000E+00
 -1       948 4.83132E-06 2.88964E-06-6.61744E-24
 -1       949 5.44351E-06 3.29028E-06 0.00000E+00
 -1       950 6.05554E-06 3.79211E-06 0.00000E+00
 -1       951 6.66727E-06 4.42330E-06 0.00000E+00
 -1       952 7.27819E-06 5.21250E-06-6.61744E-24
 -1       953 7.88814E-06 6.18869E-06 1.32349E-23
 -1       954 8.49404E-06 7.38148E-06-6.61744E-24
 -1       955 9.09909E-06 8.82109E-06 0.00000E+00
 -1       956 9.54757E-06 1.25783E-05 2.06795E-25
 -1       957 9.41630E-06 1.48266E-05 2.58494E-25
 -1       958 9.28400E-06 1.72631E-05 2.48154E-24
 -1       959 9.15094E-06 1.98664E-05-1.24077E-24
 -1       960 9.01739E-06 2.26153E-05 0.00000E+00
 -1       961 8.88344E-06 2.54883E-05 8.27181E-25
 -1       962 8.74919E-06 2.84640E-05 0.00000E+00
 -1       963 8.61469E-06 3.15209E-05-1.65436E-24
 -1       964 8.48002E-06 3.46376E-05 3.30872E-24
 -1       965 8.34524E-06 3.77924E-05-1.65436E-24
 -1       966 8.21042E-06 4.09640E-05-3.30872E-24
 -1       967 8.07567E-06 4.41308E-05-1.65436E-24
 -1       968 7.94106E-06 4.72713E-05 0.00000E+00
 -1       969 7.80682E-06 5.03642E-05 0.00000E+00
 -1       970 7.67314E-06 5.33879E-05 3.30872E-24
 -1       971 7.34587E-06 5.92896E-05 0.00000E+00
 -1       972 7.14449E-06 6.24874E-05 1.65436E-24
 -1       973 6.94238E-06 6.58863E-05 0.00000E+00
 -1       974 6.73906E-06 6.94575E-05 3.30872E-24
 -1       975 6.53511E-06 7.31716E-05 6.61744E-24
 -1       976 6.33062E-06 7.69993E-05 0.00000E+00
 -1       977 6.12579E-06 8.09112E-05 0.00000E+00
 -1       978 5.92074E-06 8.48776E-05 0.00000E+00
 -1       979 5.71559E-06 8.88690E-05 6.61744E-24
 -1       980 5.51050E-06 9.28559E-05 0.00000E+00
 -1       981 5.30560E-06 9.68085E-05 0.00000E+00
 -1       982 5.10111E-06 1.00697E-04 3.30872E-24
 -1       983 4.89718E-06 1.04493E-04 6.61744E-24
 -1       984 4.69466E-06 1.08166E-04 0.00000E+00
 -1       985 4.49279E-06 1.11686E-04 0.00000E+00
 -3
    1PSTEP                         2           1           1          
  100CL  101 1.000000000         841                     0    1           1
 -4  STRESS      6    1
 -5  SXX         1    4    1    1
 -5  SYY         1    4    2    2
 -5  SZZ         1    4    3    3
 -5  SXY         1    4    1    2
 -5  SYZ         1    4    2    3
 -5  SZX         1    4    3    1
 -1         1-1.84712E+06-5.53350E+05-1.55366E+05-7.22400E+05-9.45874E-11 7.80953E-10
 -1         2-1.11229E+06 1.09885E+04 2.02545E+03-1.50951E+05-2.11003E-10 1.22054E-09
 -1         3-4.24060E+05-1.58554E+05 3.21619E+02-8.06859E+04 1.29603E-11-1.69757E-09
 -1         4-8.33780E+04-3.93866E+04 1.55638E+02-2.64844E+04-1.91847E-11 2.16653E-09
 -1         5 4.07796E+04 6.14910E+05-8.51457E+04 1.91080E+03 8.80391E-10 6.05598E-09
 -1         8-4.38181E+05-3.25007E+05-1.23458E+04-5.43194E+05 1.32786E-10 9.64064E-10
 -1         9-8.33024E+05-1.28487E+05-5.40552E+04-4.03842E+05 1.36303E-09-4.32071E-09
 -1        10-4.60220E+05-2.56923E+05 5.93886E+02-2.54906E+05 5.14016E-10 8.82816E-10
 -1        11-1.45279E+05-8.20608E+04 1.59005E+02-1.28383E+05-9.74827E-10-1.22486E-09
 -1        12 3.98761E+04 6.10444E+05-8.30288E+04 7.46270E+03 2.69915E-09 1.76252E-09
 -1        15 1.36798E+04-1.26179E+04 1.40883E+03-1.66813E+05-1.23691E-10 6.83940E-10
 -1        16-4.06103E+05-1.19706E+05-3.20584E+04-3.56564E+05-5.97235E-11-2.65572E-10
 -1        17-3.03846E+05-2.20330E+05 1.14875E+04-3.76863E+05-1.68681E-09 1.48430E-09
 -1        18-5.50355E+04-7.67639E+04-1.97211E+04-2.83567E+05 1.77655E-10 1.18719E-09
 -1        19 1.71163E+05 3.29656E+05-3.53502E+04-2.16348E+04 2.65269E-09 2.60115E-09
 -1        20 1.26157E+05-8.09193E+04-1.34096E+04 8.14416E+04 1.76963E-08 1.02864E-09
 -1        21-1.84142E+04-1.76038E+05-7.83889E+02 1.22573E+04 1.18825E-08-2.15115E-09
 -1        22 2.84345E+04 1.71075E+05 6.34310E+02-8.54506E+04 1.60526E-10-9.13133E-10
 -1        23-1.78582E+05-9.36622E+03 1.18826E+03-1.94084E+05 2.76790E-10-8.49468E-10
 -1        24-2.58468E+05-4.44098E+04 6.64342E+04-3.43169E+05 3.48033E-10-1.35333E-09
 -1        25 1.14033E+05 4.68083E+04 9.13470E+04-3.58760E+05 1.97664E-10-7.93079E-10
 -1        26 3.65468E+03 2.93123E+05 1.83258E+04-1.12362E+05 6.44225E-12 1.42988E-09
 -1        27-3.97946E+04-5.99809E+04-2.78352E+04 1.19386E+05 1.01660E-08-2.36772E-09
 -1        28-9.78236E+03-1.22312E+05-8.38024E+02 6.63653E+04 1.26299E-08-2.13771E-09
 -1        29 3.74951E+05 2.80759E+05 9.66909E+02-5.10042E+04 2.09752E-11-8.25651E-11
 -1        30 1.29066E+05 3.28873E+04 8.91356E+02-8.55333E+04 3.21435E-10-4.97494E-10
 -1        31-4.06555E+05 2.91081E+04 1.91143E+03-1.21540E+05 1.33980E-10-3.92902E-10
 -1        32-1.60541E+05 6.39799E+04 1.31096E+05-3.40092E+05 2.32234E-10 1.37879E-09
 -1        33 1.91561E+05 3.21589E+05 1.33419E+05-1.53072E+05 6.27401E-09-2.03909E-09
 -1        34-2.49187E+05-2.89841E+04-7.33873E+03 6.40502E+04 4.88851E-09 4.62023E-10
 -1        35-4.14450E+04-4.09549E+04-6.58638E+02 9.36083E+04 9.10108E-09-3.90476E-10
 -1        36-2.48511E+06 8.90650E+03-8.02267E+04 9.24956E-10-3.25660E-10 5.96629E-10
 -1        37-2.51077E+06-1.87796E+04-4.87041E+04 2.80015E-08 4.22866E-10-1.45519E-11
 -1        38-2.49626E+06 8.02263E+02-2.05579E+04-1.30409E-08 4.42064E-10 2.80033E-09
 -1        39-2.49854E+06-1.36084E+03-1.10532E+04 8.60553E-10-1.38326E-09 9.77707E-10
 -1        40-2.49728E+06 9.64217E+01-5.26606E+03-1.11750E-08 3.67244E-10-1.68825E-09
 -1        41-2.49739E+06-9.42736E+01-2.90640E+03 1.73973E-08-3.39039E-10-1.71315E-09
 -1        42-2.49739E+06 2.14297E+01-1.79218E+03-1.40272E-08-2.11584E-11 8.77606E-10
 -1        43-2.49729E+06-1.41921E+01-1.70377E+03-1.53067E-09-6.37839E-10 6.77891E-09
 -1        44-2.49738E+06 2.92017E+01-2.38720E+03-1.54534E-08 1.05667E-11 3.28669E-10
 -1        45-2.49750E+06-1.52628E+02-4.44516E+03-7.17512E-09 6.91855E-11 7.42693E-09
 -1        46-2.49718E+06 1.54849E+02-8.39923E+03-1.80520E-08 3.81362E-10 4.07454E-09
 -1        47-2.49936E+06-2.20370E+03-1.78332E+04-4.24927E-09-1.90242E-09-3.85103E-09
 -1        48-2.49555E+06 1.29885E+03-3.32554E+04 1.33377E-08-1.67093E-10 5.00222E-10
 -1        49-2.51918E+06-3.04086E+04-7.88465E+04-2.55950E-08 2.71213E-10 5.85715E-10
 -1        50-2.47747E+06 1.44266E+04-1.29875E+05-5.29690E-09 6.61404E-11 1.90630E-09
 -1        51 4.09218E+04-5.53557E+05 1.08753E+05-9.07259E+05-8.73115E-11-2.02272E-09
 -1        52 1.90490E+04-5.38004E+05 5.80370E+04-1.09801E+06 5.89353E-10-3.92174E-09
 -1        53 7.05604E+03-5.57895E+05 2.83914E+04-9.03953E+05 3.34694E-10 4.38013E-09
 -1        54 1.32293E+04-5.59770E+05 2.04566E+04-1.10100E+06-3.49246E-10-3.52520E-09
 -1        55 1.54631E+04-5.64303E+05 2.02516E+04-9.03995E+05-2.25555E-10 3.58341E-09
 -1        56-3.15818E+06-4.30336E+05-1.77350E+05-1.20644E+06-3.60160E-10 2.54659E-10
 -1        57-3.20954E+06-5.15294E+05-1.06144E+05-1.21703E+06-1.57888E-09 2.58478E-09
 -1        58-3.18487E+06-4.54794E+05-4.14942E+04-1.20720E+06-7.69433E-10 1.16597E-09
 -1        59-3.17810E+06-4.73547E+05-2.17682E+04-1.22168E+06-2.66414E-09 4.34102E-09
 -1        60-3.18733E+06-4.57021E+05-9.63509E+03-1.20737E+06 9.68612E-10-3.13139E-09
 -1        61-3.17533E+06-4.70005E+05-5.06344E+03-1.22162E+06-9.24274E-10 4.57271E-09
 -1        62-3.18743E+06-4.57409E+05-2.86799E+03-1.20756E+06-2.18279E-10 3.59364E-09
 -1        63-3.17544E+06-4.69364E+05-2.59807E+03-1.22109E+06 9.07676E-10 6.83167E-09
 -1        64-3.18713E+06-4.57680E+05-3.66194E+03-1.20785E+06 1.80989E-09 6.57838E-09
 -1        65-3.17646E+06-4.69132E+05-7.18475E+03-1.22036E+06 1.96815E-09-3.63798E-10
 -1        66-3.18632E+06-4.57746E+05-1.40841E+04-1.20821E+06-1.29967E-09-6.12999E-09
 -1        67-3.18157E+06-4.73257E+05-3.20023E+04-1.21909E+06 3.24144E-09-6.33281E-09
 -1        68-3.18214E+06-4.55026E+05-6.11177E+04-1.20853E+06-8.62315E-10-2.49565E-09
 -1        69-3.22883E+06-5.33722E+05-1.56320E+05-1.21102E+06-2.77828E-09 2.49020E-09
 -1        70-3.14231E+06-4.19474E+05-2.61165E+05-1.20793E+06-5.52973E-10-4.32192E-09
 -1        71-9.07362E+05-2.15558E+03 1.95017E+04-1.25210E-08 1.74901E-10-2.85127E-09
 -1        72-9.00988E+05 4.55811E+03 1.18307E+04-5.86533E-09-8.28699E-11-7.85349E-10
 -1        73-9.04646E+05-1.94181E+02 4.98573E+03-1.94827E-08-9.07868E-10-2.41539E-09
 -1        74-9.03959E+05 3.30097E+02 2.65845E+03-3.28841E-08 5.58244E-10-3.10934E-11
 -1        75-9.04398E+05-2.27821E+01 1.22138E+03 8.01752E-09 2.98043E-10-2.34388E-09
 -1        76-9.04240E+05 2.28269E+01 5.83927E+02 2.63352E-08-5.83433E-10-3.22980E-09
 -1        77-9.04367E+05-2.60632E+00 1.92454E+02 1.98266E-08 1.02562E-10-1.66264E-09
 -1        78-9.04286E+05-7.02927E-01-8.52055E+01 1.29579E-08-6.13558E-10-1.62413E-09
 -1        79-9.04354E+05 5.13508E+00-4.01423E+02 5.61735E-09 9.58685E-10-1.31277E-09
 -1        80-9.04346E+05-3.50990E+01-9.51283E+02 3.21887E-09-7.41905E-10 3.21556E-09
 -1        81-9.04307E+05 3.52957E+01-1.90397E+03-2.40248E-09-2.53618E-10 1.23714E-09
 -1        82-9.04777E+05-5.07482E+02-4.10043E+03-1.23438E-08 6.80716E-10 4.66770E-09
 -1        83-9.03926E+05 2.98645E+02-7.67135E+03-2.25721E-08-2.11334E-10-2.75395E-09
 -1        84-9.09344E+05-7.00778E+03-1.81917E+04-1.11897E-08 2.36294E-11-1.84286E-09
 -1        85-8.99749E+05 3.31525E+03-2.99781E+04-1.76437E-08-1.85096E-10-6.91216E-11
 -1        86-1.83768E+04 6.04180E+05 1.68914E+05-4.16153E+04 9.82254E-10-1.51886E-09
 -1        87 4.02371E+04 6.59108E+05 1.14693E+05-9.31233E+04 6.98492E-10-5.50790E-09
 -1        88-2.86018E+03 6.25054E+05 7.23708E+04-4.14389E+04 2.05227E-09 3.56522E-10
 -1        89 3.19879E+04 6.52558E+05 9.60478E+04-9.32364E+04 1.28421E-09 1.12959E-08
 -1        90-1.36645E+04 6.09714E+05 1.31755E+05-4.14620E+04 3.02680E-09 2.79670E-09
 -1        91-1.42833E+06-1.98984E+05-4.68950E+04-5.43783E+05 1.02773E-10-1.58070E-09
 -1        92-1.43956E+06-2.23668E+05-2.80558E+04-5.49194E+05 5.20686E-11 4.60204E-10
 -1        93-1.43541E+06-2.05409E+05-1.09815E+04-5.43976E+05 1.75044E-09 1.52522E-09
 -1        94-1.43124E+06-2.12682E+05-5.76474E+03-5.50454E+05-7.76822E-10-6.75414E-10
 -1        95-1.43608E+06-2.05982E+05-2.55995E+03-5.44010E+05 2.20894E-10 3.08205E-09
 -1        96-1.43048E+06-2.11781E+05-1.35881E+03-5.50479E+05 1.44138E-09-7.45558E-10
 -1        97-1.43612E+06-2.06062E+05-7.93964E+02-5.44040E+05 2.36469E-11-3.77986E-09
 -1        98-1.43048E+06-2.11655E+05-7.63224E+02-5.50396E+05-1.02364E-09-2.47627E-09
 -1        99-1.43607E+06-2.06105E+05-1.12053E+03-5.44087E+05 7.77618E-10 2.78533E-09
 -1       100-1.43072E+06-2.11667E+05-2.23462E+03-5.50271E+05-5.22164E-10 3.17482E-09
 -1       101-1.43587E+06-2.06074E+05-4.39290E+03-5.44147E+05-1.02614E-09-3.95175E-10
 -1       102-1.43221E+06-2.13053E+05-9.98910E+03-5.50000E+05-2.10252E-09-1.47520E-09
 -1       103-1.43461E+06-2.05170E+05-1.90732E+04-5.44180E+05-2.48292E-10-4.08363E-10
 -1       104-1.44683E+06-2.31974E+05-4.87432E+04-5.47604E+05-5.43309E-10-2.09184E-09
 -1       105-1.42223E+06-1.94089E+05-8.14776E+04-5.43933E+05-7.16682E-10-3.26327E-09
 -1       106-1.91809E+05-4.11958E+03 3.73332E+04 8.22683E-09-2.62480E-10-4.30737E-09
 -1       107-1.79744E+05 8.71994E+03 2.26525E+04-2.31325E-08-7.92517E-10-3.52566E-09
 -1       108-1.86606E+05-3.71267E+02 9.55942E+03-1.50749E-08-4.92792E-10 3.50019E-09
 -1       109-1.85427E+05 6.31204E+02 5.11663E+03 1.93072E-08-2.49017E-10 3.55919E-09
 -1       110-1.86130E+05-4.40944E+01 2.39040E+03-1.24385E-08 9.70040E-10 2.70666E-09
 -1       111-1.85961E+05 4.36411E+01 1.22254E+03 2.07076E-08-1.02922E-09 1.09284E-09
 -1       112-1.86072E+05-7.17488E+00 5.73553E+02 1.96812E-08 2.28259E-10-5.52006E-10
 -1       113-1.86030E+05 2.10768E+00 2.56245E+02 3.31776E-09-2.25015E-10-1.68140E-09
 -1       114-1.86061E+05-4.18971E-01 5.48444E+01-9.24950E-09-8.56302E-11 4.01992E-09
 -1       115-1.86053E+05-6.83233E+00-1.18152E+02-1.05175E-08 9.22551E-11 5.23515E-09
 -1       116-1.86050E+05 6.54561E+00-3.38641E+02 1.13734E-08 3.43813E-10-1.23387E-09
 -1       117-1.86139E+05-9.89518E+01-7.83597E+02-8.37581E-09 1.57123E-10-1.91977E-09
 -1       118-1.85975E+05 5.80977E+01-1.48907E+03-3.85153E-10-6.64823E-10 2.29471E-09
 -1       119-1.87030E+05-1.36638E+03-3.54529E+03 3.04502E-08 2.86405E-10-2.04045E-09
 -1       120-1.85159E+05 6.45714E+02-5.84732E+03 6.84622E-09 4.37313E-10 1.03751E-09
 -1       121-6.44091E+02-5.32705E+05 5.69954E+03-3.94473E+04-5.65251E-10 2.65391E-09
 -1       122 1.53994E+03-5.30790E+05 5.26180E+03-8.98184E+04 8.10360E-10-2.29647E-09
 -1       123-1.75523E+02-5.32380E+05 5.70693E+03-3.91654E+04-1.28284E-09 1.89448E-09
 -1       124 4.41752E+03-5.29047E+05 1.13795E+04-9.00721E+04 1.36151E-09-9.77707E-11
 -1       125-1.88335E+03-5.34827E+05 1.79782E+04-3.91914E+04-1.60890E-09-9.06198E-10
 -1       126-6.17388E+05-8.90550E+04-1.11044E+04-2.37017E+05 8.56630E-11-3.49246E-10
 -1       127-6.16482E+05-9.84272E+04-6.64323E+03-2.42347E+05-4.38490E-10-4.10512E-09
 -1       128-6.19086E+05-9.05529E+04-2.60453E+03-2.37043E+05 2.67391E-10-4.74984E-10
 -1       129-6.14494E+05-9.58505E+04-1.37240E+03-2.42673E+05 2.49926E-10 2.63723E-09
 -1       130-6.19247E+05-9.06846E+04-6.21100E+02-2.37048E+05-6.49010E-10 8.03979E-10
 -1       131-6.14313E+05-9.56403E+04-3.53155E+02-2.42682E+05 8.07745E-10-3.13673E-09
 -1       132-6.19256E+05-9.07039E+04-2.52459E+02-2.37055E+05-9.79298E-10-1.20031E-09
 -1       133-6.14320E+05-9.56103E+04-3.19747E+02-2.42656E+05-1.21690E-09-2.57785E-10
 -1       134-6.19231E+05-9.07157E+04-5.49334E+02-2.37069E+05-7.99901E-10 3.62104E-09
 -1       135-6.14428E+05-9.56384E+04-1.15092E+03-2.42613E+05 1.44212E-09 2.29466E-09
 -1       136-6.19134E+05-9.06897E+04-2.28948E+03-2.37087E+05-8.60609E-10-5.72322E-09
 -1       137-6.15180E+05-9.63873E+04-5.21715E+03-2.42497E+05-6.82121E-12 1.56979E-09
 -1       138-6.18491E+05-9.02055E+04-9.96843E+03-2.37085E+05 1.47793E-10 2.81489E-09
 -1       139-6.22794E+05-1.06280E+05-2.54639E+04-2.41259E+05-3.11388E-10 3.19869E-09
 -1       140-6.12011E+05-8.44276E+04-4.25705E+04-2.36950E+05-2.14391E-09 4.42014E-09
 -1       141 4.70198E+03-1.34555E+03 1.21912E+04-2.46411E-08 6.71924E-11-3.82397E-09
 -1       142 8.63787E+03 2.84842E+03 7.38921E+03-9.61563E-09 5.33285E-10-4.86580E-10
 -1       143 6.40322E+03-1.21024E+02 3.09947E+03-1.61671E-08-1.15398E-10-8.27868E-10
 -1       144 6.77975E+03 2.06285E+02 1.62257E+03 7.14076E-09 3.68138E-10 2.98769E-10
 -1       145 6.55992E+03-1.34147E+01 6.83655E+02 6.67316E-09-3.46202E-10 5.55588E-10
 -1       146 6.59840E+03 1.42376E+01 2.00362E+02-4.99835E-09 1.52193E-10 2.02931E-10
 -1       147 6.58457E+03 1.84268E+00-2.05095E+02-2.52980E-09 1.16000E-10-1.57848E-09
 -1       148 6.54377E+03-5.91645E+00-7.20156E+02 6.64796E-09-1.66926E-10 4.44351E-09
 -1       149 6.61456E+03 1.94989E+01-1.56092E+03-6.71714E-09-6.93509E-10 4.69049E-09
 -1       150 6.35722E+03-1.17615E+02-3.30384E+03-6.66078E-09-8.68113E-11-3.21637E-09
 -1       151 6.77120E+03 1.18912E+02-6.44896E+03-2.48366E-08 1.05998E-09-2.27828E-09
 -1       152 4.91874E+03-1.70134E+03-1.37973E+04-2.84535E-09-1.45758E-10-3.67208E-10
 -1       153 8.05399E+03 1.00090E+03-2.57716E+04-6.55803E-09 3.75296E-10-7.08496E-10
 -1       154-1.03990E+04-2.35042E+04-6.10675E+04-6.83940E-10-8.27207E-10-3.47973E-09
 -1       155 2.21058E+04 1.11125E+04-1.00593E+05-1.50376E-08 6.57290E-11 4.36557E-09
 -1       156 8.80678E+01-1.36326E+05-8.20520E+02-2.06958E+04-6.98037E-11 1.46520E-09
 -1       157-1.12854E+02-1.36549E+05 3.79888E+02-4.69247E+04-1.35128E-09-4.14866E-09
 -1       158-6.31001E+01-1.36653E+05 1.86553E+03-2.05571E+04-3.01043E-10 5.30690E-10
 -1       159 2.05848E+03-1.35136E+05 5.06680E+03-4.70646E+04-1.93222E-09-1.60651E-09
 -1       160-9.20956E+02-1.37894E+05 8.56706E+03-2.05552E+04-3.75167E-10-1.06309E-09
 -1       161-1.51633E+05-2.28073E+04-4.62638E+03-5.98894E+04 1.24140E-09 4.44766E-09
 -1       162-1.50536E+05-2.74423E+04-2.77282E+03-6.29493E+04 6.99742E-11-1.66406E-09
 -1       163-1.52332E+05-2.34394E+04-1.09771E+03-5.99090E+04 3.06954E-12-5.47173E-09
 -1       164-1.49718E+05-2.63596E+04-5.99600E+02-6.30719E+04 1.19681E-09 3.45619E-09
 -1       165-1.52395E+05-2.34972E+04-3.16516E+02-5.99135E+04-1.58025E-10-2.54431E-09
 -1       166-1.49648E+05-2.62709E+04-2.70641E+02-6.30729E+04-1.16097E-09-1.12281E-08
 -1       167-1.52394E+05-2.35032E+04-3.59357E+02-5.99156E+04 3.79941E-10-1.71667E-11
 -1       168-1.49674E+05-2.62733E+04-6.81623E+02-6.30706E+04-1.16279E-09-3.36064E-09
 -1       169-1.52363E+05-2.34902E+04-1.34940E+03-5.99149E+04 4.03588E-10-4.12660E-09
 -1       170-1.49887E+05-2.64348E+04-2.93609E+03-6.30759E+04-2.83421E-10-6.27892E-10
 -1       171-1.52175E+05-2.33568E+04-5.88373E+03-5.99012E+04 1.78943E-10-1.83672E-09
 -1       172-1.51715E+05-2.84908E+04-1.34429E+04-6.29501E+04 1.15489E-09-1.99361E-09
 -1       173-1.50607E+05-2.20209E+04-2.56840E+04-5.98162E+04 7.38055E-10-4.01997E-10
 -1       174-1.71101E+05-5.42258E+04-6.56217E+04-6.00791E+04-6.87578E-10 5.93900E-09
 -1       175-1.34082E+05-6.93683E+03-1.09663E+05-5.92602E+04 1.58252E-10 2.93949E-09
 -1       191 1.68650E+04 1.49394E+06 4.44625E+04 2.50505E+03-1.96451E-10-2.10639E-09
 -1       192 5.88018E+03 1.50280E+06 2.67011E+04 3.64171E+03 2.70575E-10-4.03725E-09
 -1       193 9.67595E+02 1.49739E+06 1.97706E+04 2.72068E+03-6.45201E-10-1.03137E-09
 -1       194 6.09227E+03 1.50296E+06 2.73600E+04 3.21093E+03 4.27235E-10-8.74934E-10
 -1       195 1.75133E+04 1.49380E+06 4.60339E+04 2.96281E+03-8.51287E-10 1.88993E-09
 -1       251 2.55804E+05-1.18858E+04 9.04123E+04-6.56674E+04 1.60071E-10-2.14641E-10
 -1       252 2.86926E+05 1.99450E+04 5.52519E+04-1.48671E+05-1.38243E-10 1.24419E-09
 -1       253 2.67621E+05-1.81146E+03 2.30445E+04-6.51545E+04 1.12777E-10-6.62112E-10
 -1       254 2.71026E+05 1.05795E+03 1.25448E+04-1.49061E+05-3.11047E-10-1.41881E-09
 -1       255 2.68122E+05-3.85001E+02 5.82617E+03-6.52480E+04 7.40329E-10 3.60160E-09
 -1       256 2.68431E+05 2.35180E+02 3.21847E+03-1.48909E+05-4.41105E-10 1.60480E-09
 -1       257 2.67871E+05 6.80587E+01 1.80831E+03-6.53120E+04 2.48292E-10 5.26143E-10
 -1       258 2.67675E+05 4.35169E+02 1.50490E+03-1.48823E+05 1.55524E-10-1.36333E-09
 -1       259 2.67757E+05 1.76475E+02 1.82556E+03-6.53337E+04-6.77915E-10-7.16227E-10
 -1       260 2.67862E+05 5.03252E+02 3.19100E+03-1.48830E+05-9.71340E-10-4.29327E-09
 -1       261 2.67780E+05-5.83119E+01 5.85190E+03-6.53049E+04 1.53887E-09-1.48407E-09
 -1       262 2.69871E+05 1.57911E+03 1.24168E+04-1.48905E+05-1.04683E-09 2.26862E-09
 -1       263 2.67061E+05-1.25540E+03 2.29436E+04-6.52572E+04-4.36557E-10-2.13004E-09
 -1       264 2.85019E+05 2.04863E+04 5.46580E+04-1.48553E+05-3.92902E-10 3.35740E-09
 -1       265 2.55170E+05-1.09868E+04 8.96642E+04-6.56806E+04-1.13505E-09-5.58794E-09
 -1       266-4.68503E+03-2.04414E+05 4.67782E+04-6.34317E+04 2.69210E-10 4.72028E-10
 -1       267 1.20317E+04-1.89777E+05 2.65591E+04-1.46063E+05 4.02451E-10-1.24055E-09
 -1       268 1.52367E+01-1.97281E+05 7.47265E+03-6.34946E+04 3.81078E-10-2.62116E-09
 -1       269-2.56933E+03-1.98761E+05-4.58805E+03-1.45548E+05 7.30097E-10 1.09048E-09
 -1       270 1.71013E+03-1.93693E+05-1.57110E+04-6.39819E+04 2.54659E-11 2.17551E-09
 -1       271-2.14816E+06-3.21706E+05-1.61221E+05-8.66297E+05 7.11225E-10 1.39698E-09
 -1       272-2.16096E+06-4.30533E+05-9.61823E+04-9.12609E+05 2.77942E-09-5.02041E-10
 -1       273-2.17405E+06-3.42072E+05-3.78632E+04-8.65925E+05-3.63798E-12 5.85715E-10
 -1       274-2.13155E+06-3.94574E+05-1.97113E+04-9.19964E+05 6.36646E-11 3.16140E-09
 -1       275-2.17744E+06-3.42920E+05-8.81155E+03-8.65442E+05 9.93168E-10 7.78527E-10
 -1       276-2.12846E+06-3.92521E+05-4.51430E+03-9.22062E+05-1.70985E-10 1.63254E-09
 -1       277-2.17837E+06-3.42436E+05-2.48494E+03-8.65108E+05 2.87400E-10-6.98947E-10
 -1       278-2.12803E+06-3.92771E+05-2.06435E+03-9.23012E+05 3.75394E-10-3.94812E-09
 -1       279-2.17858E+06-3.42211E+05-2.73679E+03-8.64995E+05-1.35401E-10-4.51109E-09
 -1       280-2.12836E+06-3.93027E+05-5.26921E+03-9.22997E+05 1.44610E-10-7.62338E-09
 -1       281-2.17802E+06-3.42222E+05-1.03027E+04-8.65096E+05 4.35648E-10 2.48019E-09
 -1       282-2.13175E+06-3.96106E+05-2.33498E+04-9.21765E+05-1.21418E-09 2.07365E-10
 -1       283-2.17461E+06-3.40611E+05-4.46915E+04-8.65334E+05 1.12777E-10-1.30603E-09
 -1       284-2.16611E+06-4.39638E+05-1.13994E+05-9.14558E+05-3.81988E-10-5.89353E-10
 -1       285-2.14466E+06-3.15669E+05-1.90768E+05-8.65255E+05-3.51520E-10 2.03727E-10
 -1       286-5.85054E+04-7.24153E+03 6.01210E+04-3.63612E+04 2.31012E-09-8.94943E-10
 -1       287-3.84637E+04 1.36858E+04 3.66094E+04-8.16902E+04 2.61934E-10-1.48066E-09
 -1       288-5.03726E+04-8.90726E+02 1.53648E+04-3.59551E+04 1.72804E-10-6.92125E-10
 -1       289-4.82936E+04 8.80453E+02 8.30729E+03-8.21094E+04 1.64619E-10 5.19367E-09
 -1       290-4.98169E+04-1.60213E+02 3.89523E+03-3.59276E+04 4.60204E-10 5.26734E-09
 -1       291-4.95763E+04 1.30450E+02 2.12899E+03-8.21456E+04 7.11680E-10-3.91401E-09
 -1       292-4.98567E+04 1.98808E+01 1.20982E+03-3.59200E+04 7.83075E-10-9.54969E-10
 -1       293-4.98833E+04 1.71717E+02 1.01235E+03-8.21569E+04 1.53136E-09-1.43177E-09
 -1       294-4.99036E+04 6.33339E+01 1.25281E+03-3.59162E+04 8.45972E-10 3.25144E-11
 -1       295-4.98000E+04 2.42569E+02 2.21089E+03-8.21579E+04 2.05296E-09 1.92085E-09
 -1       296-4.99606E+04-3.17152E+01 4.09484E+03-3.59189E+04 8.33097E-10-6.12317E-10
 -1       297-4.87098E+04 1.14114E+03 8.66452E+03-8.21359E+04 9.82709E-10 2.53877E-10
 -1       298-5.06411E+04-6.96974E+02 1.60893E+04-3.59378E+04 1.20781E-09 1.50476E-09
 -1       299-3.87221E+04 1.46000E+04 3.81847E+04-8.18204E+04-3.77440E-10-2.97950E-09
 -1       300-5.92180E+04-7.21228E+03 6.28098E+04-3.62422E+04-3.25599E-10-2.30648E-09
 -1       301 3.49854E+04 1.23354E+05 8.68130E+04-2.52649E+05-2.46291E-09-3.94721E-10
 -1       302 1.35074E+04 1.40207E+05 4.90410E+04-3.06615E+05 4.09273E-10-2.62116E-09
 -1       303 3.15427E+03 1.30064E+05 3.09692E+04-2.52283E+05-2.59934E-09-2.62219E-09
 -1       304 9.13576E+03 1.37017E+05 3.56422E+04-3.06641E+05 4.87489E-10 1.24146E-10
 -1       305 2.16808E+04 1.26476E+05 5.48423E+04-2.52662E+05-2.10821E-09 2.61753E-09
 -1       306-2.34733E+06-3.31395E+05-1.80899E+05-9.22465E+05 1.73713E-10-1.96451E-10
 -1       307-2.38452E+06-4.32452E+05-1.08158E+05-9.50037E+05 6.82576E-10 1.50976E-10
 -1       308-2.37548E+06-3.55334E+05-4.23808E+04-9.22508E+05-2.31921E-10-4.63842E-10
 -1       309-2.35161E+06-3.91179E+05-2.21692E+04-9.56569E+05 5.49335E-10-2.69392E-09
 -1       310-2.37866E+06-3.56927E+05-9.81385E+03-9.22179E+05-1.33150E-09-4.41378E-09
 -1       311-2.34812E+06-3.88448E+05-5.05799E+03-9.57834E+05 7.55790E-10-3.87661E-09
 -1       312-2.37930E+06-3.56793E+05-2.71694E+03-9.21943E+05-1.63300E-09-4.13308E-09
 -1       313-2.34762E+06-3.88498E+05-2.19406E+03-9.58307E+05-6.00267E-10 5.63546E-10
 -1       314-2.37938E+06-3.56703E+05-2.80004E+03-9.21880E+05 1.74651E-09 3.36649E-09
 -1       315-2.34799E+06-3.88700E+05-5.30402E+03-9.58213E+05-8.95284E-10 2.02544E-09
 -1       316-2.37889E+06-3.56654E+05-1.03032E+04-9.21989E+05-1.08867E-09 1.02409E-09
 -1       317-2.35148E+06-3.91848E+05-2.33535E+04-9.57304E+05-8.19000E-10 3.60160E-09
 -1       318-2.37573E+06-3.54781E+05-4.46086E+04-9.22187E+05 1.92722E-09 2.91038E-09
 -1       319-2.38590E+06-4.35675E+05-1.13956E+05-9.50903E+05 7.53857E-10 4.64934E-09
 -1       320-2.34630E+06-3.29320E+05-1.90519E+05-9.21945E+05-3.31784E-09-9.16771E-10
 -1       321 9.42750E+04-8.63999E+03 7.75184E+04-1.56560E+04-1.27329E-10-1.65164E-09
 -1       322 1.19371E+05 1.80441E+04 4.70534E+04-3.53269E+04-8.15817E-10 1.47702E-09
 -1       323 1.05036E+05-8.12915E+02 1.98539E+04-1.55177E+04-2.91948E-10 4.06999E-09
 -1       324 1.07465E+05 1.29145E+03 1.06512E+04-3.54550E+04-2.87400E-10-3.56818E-09
 -1       325 1.05990E+05-1.02094E+02 5.00464E+03-1.55192E+04 6.64841E-10 1.65755E-09
 -1       326 1.06296E+05 1.01857E+02 2.62925E+03-3.54481E+04 9.02219E-10 1.91096E-09
 -1       327 1.06090E+05-9.59053E+00 1.36516E+03-1.55250E+04-8.90168E-10 4.65684E-09
 -1       328 1.06139E+05 3.08727E+01 8.88484E+02-3.54416E+04-2.06910E-10 5.37898E-09
 -1       329 1.06099E+05 2.41727E-01 8.10941E+02-1.55257E+04 3.49814E-10 7.50674E-10
 -1       330 1.06183E+05 5.43993E+01 1.19514E+03-3.54437E+04 1.81785E-10 2.41585E-10
 -1       331 1.06068E+05-4.01285E+01 2.08752E+03-1.55228E+04 2.86491E-11-1.86446E-10
 -1       332 1.06677E+05 5.23891E+02 4.34067E+03-3.54492E+04-2.63753E-10 1.34634E-10
 -1       333 1.05697E+05-3.41024E+02 8.04005E+03-1.55201E+04-4.24734E-10-1.76010E-09
 -1       334 1.11539E+05 7.27887E+03 1.90372E+04-3.53342E+04 1.53432E-09 4.75416E-09
 -1       335 1.01366E+05-3.53122E+03 3.13344E+04-1.56406E+04-9.11314E-10 2.40107E-09
 -1       336-1.81659E+03-5.53287E+05 1.57115E+04-1.52730E+05-2.94494E-09-1.29512E-09
 -1       337 5.61427E+03-5.49201E+05 1.01189E+04-3.48746E+05 2.88674E-09-7.21047E-09
 -1       338 7.26301E+02-5.52041E+05 4.84137E+03-1.52033E+05-4.29918E-09 1.74259E-09
 -1       339 3.08053E+03-5.51737E+05 4.02813E+03-3.48925E+05 3.54885E-09 2.59752E-09
 -1       340 3.00811E+01-5.51772E+05 3.68060E+03-1.52548E+05-3.23303E-09 8.05812E-09
 -1       341-1.41568E+06-1.98718E+05-8.13205E+04-5.48782E+05-6.19366E-10-5.16593E-10
 -1       342-1.43275E+06-2.43945E+05-4.86433E+04-5.60961E+05 2.80579E-10-3.07409E-09
 -1       343-1.42813E+06-2.09688E+05-1.90508E+04-5.48966E+05-4.59295E-10 1.58980E-09
 -1       344-1.41813E+06-2.25133E+05-9.99430E+03-5.63473E+05-6.43240E-10 1.43018E-10
 -1       345-1.42940E+06-2.10564E+05-4.44183E+03-5.48927E+05-7.41693E-10 4.97494E-10
 -1       346-1.41668E+06-2.23739E+05-2.35580E+03-5.63752E+05-2.31694E-10-2.57728E-09
 -1       347-1.42958E+06-2.10608E+05-1.37751E+03-5.48892E+05-6.25278E-10-2.14777E-09
 -1       348-1.41653E+06-2.23668E+05-1.32613E+03-5.63801E+05-2.43663E-11-5.03462E-09
 -1       349-1.42956E+06-2.10607E+05-1.94841E+03-5.48897E+05-1.28273E-09 5.50926E-10
 -1       350-1.41683E+06-2.23814E+05-3.89260E+03-5.63729E+05 2.15550E-10-1.96815E-09
 -1       351-1.42925E+06-2.10500E+05-7.65293E+03-5.48937E+05-5.85260E-10 1.73122E-09
 -1       352-1.41933E+06-2.26332E+05-1.74066E+04-5.63358E+05-4.35193E-10-8.95852E-11
 -1       353-1.42711E+06-2.08891E+05-3.32396E+04-5.48937E+05-1.30058E-10-1.50067E-09
 -1       354-1.44469E+06-2.59396E+05-8.49458E+04-5.59250E+05-8.06494E-10-1.15870E-09
 -1       355-1.40552E+06-1.89549E+05-1.41965E+05-5.48450E+05 2.34650E-10 7.13044E-10
 -1       356 1.89255E+05-4.42059E+03 3.96995E+04-1.06528E+04 5.97538E-10-2.42471E-09
 -1       357 2.02095E+05 9.24128E+03 2.40905E+04-2.41340E+04-7.07132E-10-7.14863E-10
 -1       358 1.94774E+05-4.14403E+02 1.01478E+04-1.05740E+04-1.40062E-10-2.90720E-09
 -1       359 1.96003E+05 6.57564E+02 5.40747E+03-2.42019E+04-1.35583E-09 6.45741E-10
 -1       360 1.95267E+05-5.23751E+01 2.46821E+03-1.05814E+04 1.15051E-10-2.26555E-09
 -1       361 1.95404E+05 4.51322E+01 1.15008E+03-2.41895E+04-4.84533E-10-1.62822E-09
 -1       362 1.95326E+05-3.95998E+00 3.11665E+02-1.05865E+04 6.26301E-10-1.83661E-09
 -1       363 1.95297E+05 5.61354E-02-3.39255E+02-2.41846E+04 3.10479E-10 2.54636E-09
 -1       364 1.95359E+05 1.48897E+01-1.14478E+03-1.05865E+04-2.76486E-10 3.94618E-09
 -1       365 1.95146E+05-9.66897E+01-2.61396E+03-2.41907E+04-1.04092E-09-3.33557E-09
 -1       366 1.95495E+05 8.93613E+01-5.19322E+03-1.05804E+04 2.43745E-10 3.07045E-09
 -1       367 1.94007E+05-1.39108E+03-1.11542E+04-2.42031E+04 4.72937E-11 8.98854E-09
 -1       368 1.96549E+05 7.89313E+02-2.08616E+04-1.05741E+04-4.43833E-10 2.77123E-09
 -1       369 1.81656E+05-1.90558E+04-4.94280E+04-2.41342E+04-1.45064E-09-3.47791E-09
 -1       370 2.07944E+05 8.94770E+03-8.14429E+04-1.06419E+04 5.74801E-10-1.66983E-09
 -1       371-8.70671E+02-1.43812E+05 7.38307E+03-1.07240E+05-5.54792E-10 1.28421E-09
 -1       372 2.63374E+03-1.41966E+05 3.60200E+03-2.44062E+05-5.35601E-09-1.59071E-09
 -1       373 4.75619E+02-1.42992E+05-4.96091E+02-1.06846E+05-1.11322E-09-1.76897E-10
 -1       374-1.20127E+03-1.44954E+05-5.02128E+03-2.44133E+05-5.31873E-09-3.00497E-09
 -1       375 1.28258E+03-1.41216E+05-9.79430E+03-1.07169E+05-1.09321E-09 6.60293E-10
 -1       376-5.79160E+05-8.64760E+04-3.97794E+04-2.32849E+05 3.18323E-10-3.21961E-09
 -1       377-5.80533E+05-1.15557E+05-2.37926E+04-2.46814E+05-1.28239E-09-6.89647E-09
 -1       378-5.85261E+05-9.18225E+04-9.32818E+03-2.32949E+05 1.69666E-09 4.39013E-09
 -1       379-5.73426E+05-1.06337E+05-4.90507E+03-2.48025E+05-1.80535E-10-2.30818E-09
 -1       380-5.85862E+05-9.22713E+04-2.20456E+03-2.32960E+05-5.20686E-11-1.03324E-09
 -1       381-5.72762E+05-1.05613E+05-1.22034E+03-2.48112E+05 5.11250E-10 2.10935E-09
 -1       382-5.85924E+05-9.23150E+04-8.13033E+02-2.32963E+05-9.76570E-10 3.05602E-09
 -1       383-5.72724E+05-1.05554E+05-9.48428E+02-2.48086E+05 1.16131E-09 8.57085E-09
 -1       384-5.85878E+05-9.23317E+04-1.57009E+03-2.32975E+05 6.67569E-10 2.42767E-09
 -1       385-5.72964E+05-1.05686E+05-3.24880E+03-2.48006E+05 1.49544E-09-3.29692E-10
 -1       386-5.85616E+05-9.22394E+04-6.44987E+03-2.32989E+05-4.55202E-10 1.92358E-10
 -1       387-5.74997E+05-1.07854E+05-1.46829E+04-2.47716E+05 4.93856E-10 3.31784E-09
 -1       388-5.83820E+05-9.08706E+04-2.80594E+04-2.32946E+05 6.13454E-10-1.70257E-09
 -1       389-5.96291E+05-1.35774E+05-7.16495E+04-2.44281E+05 1.02887E-10-1.76442E-10
 -1       390-5.65609E+05-7.45696E+04-1.19771E+05-2.32481E+05 4.34738E-09 1.22236E-09
 -1       406 1.59306E+04 1.45792E+06 4.39171E+04 1.58097E+04-1.14233E-09-1.99361E-09
 -1       407 5.65116E+03 1.46678E+06 2.96292E+04 2.02351E+04 1.10344E-09 1.16415E-10
 -1       408 1.27031E+03 1.46096E+06 2.75067E+04 1.60769E+04-1.37243E-09 2.78305E-09
 -1       409 1.08485E+04 1.47060E+06 4.55978E+04 1.96278E+04 1.05001E-09 1.19690E-09
 -1       410 3.17677E+04 1.45422E+06 8.20135E+04 1.64959E+04-2.69210E-09 3.41424E-09
 -1       466 1.09066E+06-1.19127E+04 1.04118E+05-3.87450E+04 3.96540E-10 7.31234E-10
 -1       467 1.12458E+06 2.40543E+04 6.32805E+04-8.86744E+04-1.41881E-10-7.27596E-10
 -1       468 1.10496E+06-1.20997E+03 2.66879E+04-3.87269E+04 4.36557E-11-1.22782E-09
 -1       469 1.10817E+06 1.71988E+03 1.43832E+04-8.84715E+04-1.24601E-10-7.80346E-10
 -1       470 1.10612E+06-1.38191E+02 6.82391E+03-3.89257E+04-2.18279E-11 2.43062E-09
 -1       471 1.10639E+06 2.22901E+02 3.74105E+03-8.81825E+04-6.48015E-11-3.35967E-09
 -1       472 1.10620E+06 2.97669E+01 2.22701E+03-3.90170E+04 2.06455E-10-1.37334E-10
 -1       473 1.10618E+06 1.48690E+02 1.98699E+03-8.81169E+04 3.51520E-10 9.14952E-10
 -1       474 1.10621E+06 5.23544E+00 2.62839E+03-3.89914E+04-3.30601E-10 1.06934E-09
 -1       475 1.10657E+06 2.14439E+02 4.79095E+03-8.82880E+04 6.18911E-10-2.68778E-09
 -1       476 1.10612E+06-2.35963E+02 8.94599E+03-3.88455E+04 2.18279E-11-3.55749E-09
 -1       477 1.10893E+06 2.19336E+03 1.90017E+04-8.86755E+04 0.00000E+00 1.93336E-09
 -1       478 1.10457E+06-1.64371E+03 3.53110E+04-3.86022E+04-1.34605E-10 8.00355E-10
 -1       479 1.13060E+06 3.17954E+04 8.37769E+04-8.89359E+04-2.88310E-09 1.13869E-09
 -1       480 1.08560E+06-1.57708E+04 1.37881E+05-3.86234E+04-1.52431E-09 6.03904E-10
 -1       481-3.14681E+03 3.06662E+05 3.03646E+04-4.11062E+04 1.52795E-10 2.01908E-10
 -1       482 7.54049E+03 3.16252E+05 1.94702E+04-9.28285E+04-7.72786E-11 3.81098E-09
 -1       483-2.48397E+02 3.10695E+05 1.02592E+04-4.10286E+04 1.51530E-10 1.01954E-09
 -1       484 3.35073E+03 3.13486E+05 1.03963E+04-9.27708E+04 1.42791E-10 1.20508E-10
 -1       485-1.17253E+03 3.09677E+05 1.21951E+04-4.11691E+04 2.25100E-11-2.15641E-09
 -1       486-1.04497E+06-1.45897E+05-1.07729E+05-4.14679E+05-2.38288E-10 1.14233E-09
 -1       487-1.06880E+06-2.04562E+05-6.44284E+04-4.29414E+05-5.42514E-10 2.00635E-09
 -1       488-1.06147E+06-1.60411E+05-2.52418E+04-4.14955E+05 1.66801E-09 3.60887E-09
 -1       489-1.04948E+06-1.79636E+05-1.32120E+04-4.32764E+05 2.11458E-10 3.66072E-10
 -1       490-1.06318E+06-1.61556E+05-5.83582E+03-4.14919E+05-4.72028E-10-1.57343E-09
 -1       491-1.04757E+06-1.77797E+05-2.99163E+03-4.33186E+05-4.36557E-10-2.83342E-09
 -1       492-1.06346E+06-1.61579E+05-1.56263E+03-4.14859E+05 1.33696E-10 8.14566E-10
 -1       493-1.04733E+06-1.77746E+05-1.18076E+03-4.33345E+05 6.09816E-10 1.21199E-09
 -1       494-1.06351E+06-1.61536E+05-1.40267E+03-4.14828E+05 3.78918E-10 3.56863E-10
 -1       495-1.04746E+06-1.77889E+05-2.57261E+03-4.33382E+05 5.32907E-11 8.38327E-10
 -1       496-1.06334E+06-1.61442E+05-4.94553E+03-4.14828E+05-2.60343E-11 2.99224E-10
 -1       497-1.04902E+06-1.79535E+05-1.11889E+04-4.33173E+05 8.91305E-11-1.13073E-09
 -1       498-1.06196E+06-1.60413E+05-2.13447E+04-4.14816E+05-1.04365E-10-4.25644E-10
 -1       499-1.06529E+06-2.00722E+05-5.45145E+04-4.30480E+05-2.35673E-10 6.98492E-10
 -1       500-1.04806E+06-1.48068E+05-9.11305E+04-4.14531E+05-4.92037E-10-7.27596E-12
 -1       501 4.30521E+05-9.10355E+03 7.55159E+04-4.47105E+04 1.90630E-09-3.38332E-10
 -1       502 4.55628E+05 1.72198E+04 4.59939E+04-1.01368E+05 9.85892E-10 3.67527E-09
 -1       503 4.40702E+05-1.09102E+03 1.93135E+04-4.44365E+04-6.14818E-10 1.68893E-09
 -1       504 4.43204E+05 1.17439E+03 1.04500E+04-1.01516E+05-9.01309E-10-7.79437E-10
 -1       505 4.41383E+05-1.56513E+02 4.92101E+03-4.45438E+04 8.16726E-10 1.44428E-09
 -1       506 4.41579E+05 2.40529E+02 2.71323E+03-1.01340E+05 1.58843E-09 1.14687E-09
 -1       507 4.41336E+05 6.51437E+01 1.59615E+03-4.46133E+04 1.57979E-09 2.23326E-09
 -1       508 4.41235E+05 2.75838E+02 1.41401E+03-1.01256E+05 8.70500E-10-3.68345E-10
 -1       509 4.41298E+05 9.33311E+01 1.84845E+03-4.46272E+04 1.00135E-09 2.70779E-09
 -1       510 4.41458E+05 3.42130E+02 3.34438E+03-1.01282E+05 2.28647E-09 1.27829E-09
 -1       511 4.41245E+05-8.58530E+01 6.22938E+03-4.45872E+04 8.08541E-10 1.29216E-09
 -1       512 4.43208E+05 1.67315E+03 1.32248E+04-1.01401E+05 1.57161E-09 2.16767E-09
 -1       513 4.40238E+05-1.13354E+03 2.45499E+04-4.45073E+04 6.00267E-10 4.69299E-10
 -1       514 4.58542E+05 2.21804E+04 5.83030E+04-1.01248E+05-1.07048E-09-7.59428E-10
 -1       515 4.27169E+05-1.11060E+04 9.58812E+04-4.47587E+04-3.60160E-10 7.71252E-10
 -1       516-5.40355E+03 1.92354E+05 5.50672E+04-9.58688E+04 3.52156E-09 2.23827E-09
 -1       517 1.43544E+04 2.09521E+05 3.70800E+04-2.17703E+05 1.63004E-09 6.09623E-09
 -1       518-4.41621E+02 1.99382E+05 2.27864E+04-9.56994E+04 3.36331E-09 2.75213E-09
 -1       519 1.04480E+04 2.07946E+05 2.93252E+04-2.17505E+05 1.91903E-09-1.13232E-09
 -1       520-4.32150E+03 1.95520E+05 3.93445E+04-9.60832E+04 2.14095E-09-1.97178E-09
 -1       521-1.96460E+06-2.80453E+05-1.71061E+05-7.80404E+05 4.85670E-10-2.40107E-09
 -1       522-1.99547E+06-3.80141E+05-1.02251E+05-8.11316E+05 2.74667E-10 1.62981E-09
 -1       523-1.99124E+06-3.03038E+05-4.00872E+04-7.80496E+05 1.27147E-09 5.27871E-09
 -1       524-1.96450E+06-3.41075E+05-2.09532E+04-8.17506E+05-7.18501E-11-2.52476E-09
 -1       525-1.99425E+06-3.04544E+05-9.26674E+03-7.80240E+05-1.82808E-10 9.75888E-10
 -1       526-1.96131E+06-3.38428E+05-4.73899E+03-8.18682E+05 5.94810E-10-6.36305E-10
 -1       527-1.99486E+06-3.04425E+05-2.47939E+03-7.80052E+05 7.03949E-10 2.60388E-09
 -1       528-1.96088E+06-3.38433E+05-1.87888E+03-8.19104E+05-7.61474E-10-1.89198E-09
 -1       529-1.99493E+06-3.04355E+05-2.24838E+03-7.80006E+05 1.83536E-09 1.02227E-09
 -1       530-1.96116E+06-3.38566E+05-4.13882E+03-8.18989E+05-1.57183E-09-1.06229E-09
 -1       531-1.99451E+06-3.04364E+05-7.98774E+03-7.80106E+05-3.91992E-10-1.44701E-09
 -1       532-1.96385E+06-3.40941E+05-1.80529E+04-8.18139E+05 1.26738E-09-2.20552E-10
 -1       533-1.99197E+06-3.03013E+05-3.44947E+04-7.80289E+05-5.22050E-10-1.43336E-09
 -1       534-1.99048E+06-3.74626E+05-8.80325E+04-8.12880E+05 1.19871E-09 5.96629E-10
 -1       535-1.96904E+06-2.83568E+05-1.47254E+05-7.80207E+05-2.62935E-09-5.09317E-10
 -1       536 9.07520E+05-1.58345E+04 1.41720E+05-2.43923E+04 3.51065E-10 2.07365E-09
 -1       537 9.53405E+05 3.29093E+04 8.60275E+04-5.59741E+04-1.82263E-09 7.43967E-10
 -1       538 9.27171E+05-1.52019E+03 3.63084E+04-2.43388E+04-5.40240E-10-2.63753E-10
 -1       539 9.31575E+05 2.33535E+03 1.94989E+04-5.58711E+04 2.14641E-10 4.66071E-09
 -1       540 9.28894E+05-1.99457E+02 9.18531E+03-2.44688E+04 1.79170E-10 4.71573E-10
 -1       541 9.29393E+05 1.85842E+02 4.87898E+03-5.56611E+04 5.02041E-10-7.03039E-10
 -1       542 9.29062E+05-1.77105E+01 2.62985E+03-2.45498E+04-7.38510E-10 1.66438E-10
 -1       543 9.29094E+05 6.99570E+01 1.89638E+03-5.55633E+04 1.68882E-10 6.22322E-10
 -1       544 9.29066E+05-1.04487E-02 2.01319E+03-2.45669E+04 4.35307E-10-4.12047E-09
 -1       545 9.29233E+05 1.49793E+02 3.27913E+03-5.55908E+04-1.63050E-09 5.53655E-10
 -1       546 9.28960E+05-1.10030E+02 5.93656E+03-2.45221E+04 2.03727E-10-1.47122E-09
 -1       547 9.30625E+05 1.51471E+03 1.24616E+04-5.57355E+04 1.71076E-09 2.56432E-09
 -1       548 9.27874E+05-9.60421E+02 2.31432E+04-2.44216E+04 5.45697E-12 1.46247E-09
 -1       549 9.44569E+05 2.09677E+04 5.47977E+04-5.58054E+04-3.16504E-10 1.85037E-09
 -1       550 9.15375E+05-1.01034E+04 9.02341E+04-2.44642E+04-1.49339E-09 6.18456E-10
 -1       551 1.74702E+04-1.99311E+05 4.16754E+04-4.31527E+05-1.44428E-09-1.49521E-09
 -1       552 8.27392E+03-1.91998E+05 2.54936E+04-5.23798E+05 3.28509E-09 3.00497E-09
 -1       553 3.28431E+03-1.97165E+05 1.94324E+04-4.30766E+05-2.48474E-09-7.96035E-10
 -1       554 9.03520E+03-1.91587E+05 2.76635E+04-5.23845E+05 3.26690E-09 7.21229E-10
 -1       555 1.97219E+04-1.99977E+05 4.68618E+04-4.31473E+05-2.54386E-09-1.78261E-09
 -1       556-8.94523E+05-2.34797E+05-5.16499E+04-4.51187E+05-4.00723E-09 1.45519E-11
 -1       557-8.84148E+05-2.44668E+05-2.57835E+04-4.80608E+05-1.85537E-09-1.05183E-09
 -1       558-8.97678E+05-2.18685E+05-1.09850E+04-4.58604E+05 2.61934E-10 4.60204E-10
 -1       559-8.78422E+05-2.38447E+05-5.37588E+03-4.82018E+05 3.06864E-09 1.71804E-09
 -1       560-8.98322E+05-2.18004E+05-2.50322E+03-4.59053E+05 1.05501E-10-6.23118E-10
 -1       561-8.78272E+05-2.38148E+05-1.28080E+03-4.82245E+05-3.66344E-09-3.36149E-09
 -1       562-8.98563E+05-2.17928E+05-7.44252E+02-4.59158E+05-7.94898E-10-1.02773E-10
 -1       563-8.78350E+05-2.38105E+05-6.73935E+02-4.82334E+05 8.18545E-11-2.10730E-09
 -1       564-8.98586E+05-2.17899E+05-9.70131E+02-4.59177E+05-1.05615E-10-1.62981E-09
 -1       565-8.78368E+05-2.38117E+05-1.88337E+03-4.82316E+05-6.18456E-11 6.85759E-10
 -1       566-8.98382E+05-2.17912E+05-3.78770E+03-4.59108E+05 1.00044E-10-2.33740E-09
 -1       567-8.78794E+05-2.38525E+05-8.22368E+03-4.82188E+05 5.81167E-10 7.09406E-10
 -1       568-8.97654E+05-2.18773E+05-1.68003E+04-4.58526E+05-5.40240E-10-1.41517E-09
 -1       569-8.87576E+05-2.48319E+05-3.95360E+04-4.80676E+05 9.45874E-11 1.45519E-10
 -1       570-8.93405E+05-2.43006E+05-7.91190E+04-4.46965E+05-8.73115E-11 1.21508E-09
 -1       571 7.98877E+05 3.38627E+04 8.61064E+04-1.23370E+05 1.13505E-09-2.93949E-09
 -1       572 8.15926E+05 1.13402E+04 4.42250E+04-1.48970E+05-3.63798E-10 4.65661E-10
 -1       573 8.06052E+05 8.12469E+02 1.98991E+04-1.22779E+05-9.27685E-10 2.47928E-09
 -1       574 8.07386E+05 2.25154E+02 1.01604E+04-1.49529E+05-2.35559E-10-2.18279E-09
 -1       575 8.06406E+05-1.76529E+02 4.90461E+03-1.22747E+05-5.98448E-10-3.80714E-09
 -1       576 8.06508E+05-3.91829E+01 2.52241E+03-1.49562E+05-1.88720E-10-2.20189E-09
 -1       577 8.06406E+05-4.03209E+01 1.27160E+03-1.22748E+05 2.85524E-10 3.01497E-09
 -1       578 8.06412E+05-8.19034E+00 7.24074E+02-1.49567E+05 1.14278E-09 2.68756E-09
 -1       579 8.06504E+05-6.05360E+01 4.92510E+02-1.22743E+05 7.47605E-10-2.68574E-09
 -1       580 8.06607E+05-1.10854E+02 5.41011E+02-1.49582E+05 1.34878E-09 2.40834E-09
 -1       581 8.06742E+05-2.25037E+02 8.11016E+02-1.22732E+05-7.49424E-10 2.73758E-10
 -1       582 8.07108E+05-2.73148E+02 1.59003E+03-1.49552E+05-1.44064E-09-4.24552E-09
 -1       583 8.07062E+05-3.14835E+02 3.02606E+03-1.22771E+05-2.86309E-09-1.57297E-09
 -1       584 8.08966E+05 1.15410E+03 6.76700E+03-1.48848E+05-6.14818E-09 1.43064E-09
 -1       585 8.06431E+05 4.47538E+03 1.30974E+04-1.23449E+05 1.98997E-09 2.63026E-09
 -1       586 7.63531E+03 1.21210E+05 1.78079E+04-4.54287E+05 6.26460E-09-2.46655E-09
 -1       587 4.71274E+03 1.23681E+05 1.31158E+04-5.51161E+05 5.34783E-10-3.35149E-09
 -1       588 2.73813E+03 1.21060E+05 1.35713E+04-4.53445E+05 7.45422E-09 1.90676E-09
 -1       589 8.41731E+03 1.25981E+05 2.40148E+04-5.51275E+05 6.58474E-10 1.59343E-09
 -1       590 1.87271E+04 1.18218E+05 4.38344E+04-4.54152E+05 6.03177E-09 2.40107E-10
 -1       591-5.88885E+05-1.63193E+05-6.76856E+04-2.90206E+05-2.22371E-10-2.06637E-09
 -1       592-5.87951E+05-1.63733E+05-3.38384E+04-3.14358E+05 8.82210E-10 5.93445E-10
 -1       593-5.92203E+05-1.42665E+05-1.43735E+04-3.00123E+05 6.98492E-10 8.25821E-10
 -1       594-5.80371E+05-1.55286E+05-7.05340E+03-3.15339E+05-3.11047E-10-2.69409E-09
 -1       595-5.92664E+05-1.42028E+05-3.26606E+03-3.00548E+05-8.54016E-10-1.92495E-09
 -1       596-5.79899E+05-1.54971E+05-1.67184E+03-3.15333E+05 1.56797E-09 4.80532E-09
 -1       597-5.92755E+05-1.42062E+05-9.48241E+02-3.00564E+05-8.84029E-10-3.06773E-09
 -1       598-5.79849E+05-1.54974E+05-8.27452E+02-3.15312E+05 1.16052E-09 1.61344E-09
 -1       599-5.92716E+05-1.42075E+05-1.14337E+03-3.00547E+05 4.09909E-09 2.43472E-09
 -1       600-5.79859E+05-1.54995E+05-2.18344E+03-3.15284E+05-3.56522E-10-5.99266E-09
 -1       601-5.92530E+05-1.42056E+05-4.35873E+03-3.00493E+05-2.43199E-09 1.18234E-10
 -1       602-5.80450E+05-1.55434E+05-9.45561E+03-3.15254E+05-1.18234E-09 9.89530E-10
 -1       603-5.91881E+05-1.42933E+05-1.92884E+04-2.99905E+05-5.01495E-09-7.16682E-10
 -1       604-5.90581E+05-1.66784E+05-4.54030E+04-3.13933E+05-6.62203E-09 3.92902E-10
 -1       605-5.87438E+05-1.70431E+05-9.08109E+04-2.86558E+05-1.20781E-09-8.57835E-09
 -1       606 2.35102E+05-1.81656E+04-4.57624E+04 5.08870E+04-1.40317E-08 3.21143E-09
 -1       607 2.25920E+05-6.06148E+03-2.34855E+04 6.07794E+04-3.59614E-09 2.56887E-09
 -1       608 2.30952E+05-4.40427E+02-1.05888E+04 5.04332E+04 1.07102E-08 1.83809E-09
 -1       609 2.30056E+05 4.06225E+01-5.38714E+03 6.12303E+04-6.96127E-09 3.60797E-09
 -1       610 2.30503E+05 2.55096E+02-2.60039E+03 5.03992E+04-1.72568E-08-3.09137E-09
 -1       611 2.30271E+05 3.20646E+02-1.30298E+03 6.12589E+04-2.77651E-08-2.66891E-09
 -1       612 2.30352E+05 2.79032E+02-6.12436E+02 5.04005E+04-1.40299E-08-2.88037E-09
 -1       613 2.30214E+05 3.64213E+02-2.43117E+02 6.12549E+04-2.03127E-08 5.88898E-10
 -1       614 2.30261E+05 3.04274E+02 6.08176E+00 5.04019E+04-1.86992E-09-8.81300E-10
 -1       615 2.30160E+05 3.96493E+02 2.68657E+02 6.12496E+04 1.51008E-08 3.73575E-09
 -1       616 2.30195E+05 3.21028E+02 6.47941E+02 5.04048E+04-9.99353E-09-3.66617E-09
 -1       617 2.30211E+05 4.73620E+02 1.41055E+03 6.12395E+04 5.21914E-09 1.69211E-09
 -1       618 2.30085E+05 4.98074E+02 2.79618E+03 5.04107E+04 7.20479E-09-1.83263E-09
 -1       619 2.31345E+05 2.07660E+03 6.22904E+03 6.11645E+04 6.65801E-09 5.75528E-09
 -1       620 2.29022E+05 5.18493E+03 1.21383E+04 5.04570E+04 3.13185E-09-1.43245E-09
 -1       621 1.00416E+04 9.09358E+05 2.71975E+04-1.32586E+05-3.01497E-09-1.17780E-10
 -1       622 4.20865E+03 9.14671E+05 2.03780E+04-1.60661E+05 9.36780E-10 1.28887E-09
 -1       623 1.67892E+03 9.10928E+05 2.20076E+04-1.32435E+05-2.80670E-09-6.98947E-10
 -1       624 1.05237E+04 9.19323E+05 3.97872E+04-1.60551E+05 1.84264E-09 4.78394E-10
 -1       625 2.92865E+04 9.04872E+05 7.34991E+04-1.32661E+05-2.47383E-09-1.50067E-09
 -1       626 4.04513E+05 1.03350E+05-1.60066E+04 2.22348E+05-3.16140E-09-6.83940E-10
 -1       627 3.91441E+05 1.16494E+05-7.99012E+03 2.31638E+05-3.50701E-09 7.34144E-09
 -1       628 4.03964E+05 1.07866E+05-3.40670E+03 2.19478E+05 1.79461E-08 7.00174E-09
 -1       629 3.92654E+05 1.18963E+05-1.65161E+03 2.31766E+05 2.89037E-09 4.52076E-09
 -1       630 4.03763E+05 1.08061E+05-7.44777E+02 2.19271E+05-2.13749E-08-1.98463E-08
 -1       631 3.92616E+05 1.19109E+05-3.17338E+02 2.31707E+05-1.72495E-08-2.36761E-09
 -1       632 4.03648E+05 1.08101E+05-6.25905E+01 2.19212E+05-1.24764E-08-3.80533E-09
 -1       633 3.92558E+05 1.19138E+05 1.58019E+02 2.31653E+05 8.03129E-09 1.10426E-08
 -1       634 4.03580E+05 1.08109E+05 4.54956E+02 2.19184E+05-2.40743E-09-4.23643E-09
 -1       635 3.92574E+05 1.19143E+05 1.04365E+03 2.31649E+05 1.69739E-08 5.41422E-09
 -1       636 4.03529E+05 1.08070E+05 2.16522E+03 2.19183E+05 4.05674E-09 1.72804E-10
 -1       637 3.92962E+05 1.19331E+05 4.74727E+03 2.31710E+05 1.02928E-08-3.33421E-09
 -1       638 4.03321E+05 1.08433E+05 9.68580E+03 2.18953E+05 1.50385E-09 1.15415E-09
 -1       639 3.98249E+05 1.24958E+05 2.28270E+04 2.31167E+05-4.37785E-09-8.21274E-10
 -1       640 4.01262E+05 1.22190E+05 4.56430E+04 2.12348E+05-1.11222E-08 1.83718E-10
 -1       641 1.23230E+04 1.07000E+03-9.47309E+03 3.69704E+03-1.83695E-08 9.54515E-10
 -1       642 9.23146E+03-2.15369E+03-5.74690E+03 8.31627E+03-1.57088E-08-3.60706E-09
 -1       643 1.09999E+04 1.20205E+02-2.42221E+03 3.67251E+03-9.35586E-09-9.81458E-10
 -1       644 1.06705E+04-9.96866E+01-1.28993E+03 8.33857E+03 2.53863E-09 1.01929E-09
 -1       645 1.08782E+04 3.78380E+01-5.89538E+02 3.67115E+03 3.67172E-09-2.30654E-09
 -1       646 1.08062E+04 4.98828E+01-2.75142E+02 8.33973E+03-2.11775E-08-7.43557E-09
 -1       647 1.08625E+04 2.78730E+01-7.63950E+01 3.67110E+03 4.86318E-09-3.25966E-09
 -1       648 1.08306E+04 6.10351E+01 7.66545E+01 8.34003E+03 3.54914E-08-3.81789E-09
 -1       649 1.08558E+04 2.25883E+01 2.63993E+02 3.67085E+03 2.11257E-08-1.72400E-09
 -1       650 1.08712E+04 8.09048E+01 6.05166E+02 8.34009E+03 1.72910E-08-7.97741E-10
 -1       651 1.08278E+04 2.05653E+00 1.20170E+03 3.67105E+03-1.47838E-09-4.55145E-09
 -1       652 1.11468E+04 3.75348E+02 2.58387E+03 8.33838E+03-1.19746E-09-1.56479E-09
 -1       653 1.05898E+04-1.65828E+02 4.83032E+03 3.67217E+03 6.17365E-09-3.05567E-09
 -1       654 1.40276E+04 4.46061E+03 1.14515E+04 8.29307E+03-1.30591E-08-3.13344E-09
 -1       655 7.96075E+03-2.06354E+03 1.88698E+04 3.70998E+03 1.10210E-08-2.59388E-09
 -1       656 5.42385E+03-4.44724E+05-5.52262E+04 5.65534E+04 2.01544E-09 1.91176E-09
 -1       657-1.38668E+04-4.62204E+05-3.79950E+04 1.26782E+05 6.19946E-09 2.81580E-09
 -1       658 6.89031E+02-4.51693E+05-2.49941E+04 5.62753E+04 2.25145E-09 1.13505E-09
 -1       659-1.22924E+04-4.61376E+05-3.47347E+04 1.26954E+05 1.53541E-08 5.98739E-10
 -1       660 4.84230E+03-4.45934E+05-4.86609E+04 5.63896E+04 6.82303E-09 5.04315E-10
 -1       661 3.89025E+05 5.44599E+04 3.01468E+04 1.52339E+05-1.17448E-08-5.37148E-09
 -1       662 3.96726E+05 6.98742E+04 1.80339E+04 1.55296E+05 3.61013E-10 2.00089E-09
 -1       663 3.93557E+05 5.86021E+04 7.06633E+03 1.52497E+05 1.68899E-08 2.62662E-09
 -1       664 3.91400E+05 6.28070E+04 3.71022E+03 1.56082E+05-7.52557E-09 1.59685E-09
 -1       665 3.93985E+05 5.89718E+04 1.64875E+03 1.52522E+05 6.61248E-09-1.67853E-09
 -1       666 3.90901E+05 6.22430E+04 8.74780E+02 1.56116E+05 2.08836E-08 2.72746E-09
 -1       667 3.94035E+05 5.90052E+04 5.09199E+02 1.52524E+05 3.74303E-09 2.92857E-09
 -1       668 3.90851E+05 6.22123E+04 4.86830E+02 1.56127E+05-2.10794E-08 6.03370E-09
 -1       669 3.94037E+05 5.89941E+04 7.08823E+02 1.52517E+05-8.01651E-09-2.72053E-10
 -1       670 3.90928E+05 6.23018E+04 1.41378E+03 1.56154E+05 2.34094E-08 2.30784E-09
 -1       671 3.93965E+05 5.89183E+04 2.77288E+03 1.52499E+05 1.46870E-08 2.07910E-09
 -1       672 3.91763E+05 6.32883E+04 6.30617E+03 1.56131E+05-1.44482E-08 9.65758E-09
 -1       673 3.93249E+05 5.82734E+04 1.20332E+04 1.52443E+05-5.02394E-09 7.14863E-10
 -1       674 4.00837E+05 7.53440E+04 3.07329E+04 1.54808E+05 8.88818E-09 2.56023E-10
 -1       675 3.85523E+05 5.12145E+04 5.13795E+04 1.52179E+05 3.26172E-08-2.01544E-09
 -1       676 2.12037E+03-3.94944E+05-2.06400E+04 8.01885E+03-4.93674E-09-6.48242E-10
 -1       677-5.06629E+03-4.01572E+05-1.50197E+04 1.66052E+04-9.82249E-09-4.58158E-11
 -1       678 3.97459E+02-3.97332E+05-1.12785E+04 7.96867E+03 1.49100E-09-1.00681E-09
 -1       679-6.33191E+03-4.02474E+05-1.78056E+04 1.66597E+04-4.09639E-08 1.37067E-09
 -1       680 2.76855E+03-3.94059E+05-2.62039E+04 7.96313E+03-2.34741E-09-4.72312E-10
 -1       681 4.71832E+05-3.00999E+03 2.61494E+04-1.70196E+04 1.07320E-10 2.74667E-10
 -1       682 4.80361E+05 6.02082E+03 1.58994E+04-3.88028E+04-9.68612E-11-3.19233E-10
 -1       683 4.75428E+05-3.21458E+02 6.70564E+03-1.69299E+04-2.00089E-11-4.53838E-10
 -1       684 4.76243E+05 4.04057E+02 3.62524E+03-3.88433E+04-5.09317E-10-7.18273E-10
 -1       685 4.75719E+05-5.17512E+01 1.73774E+03-1.69755E+04-5.22959E-11-3.21052E-10
 -1       686 4.75790E+05 3.14017E+01 9.95178E+02-3.87694E+04-3.63798E-12-3.49814E-10
 -1       687 4.75731E+05-5.02008E+00 6.69069E+02-1.70040E+04-2.41016E-11 1.68484E-10
 -1       688 4.75726E+05 2.44431E+01 7.27301E+02-3.87335E+04-1.29489E-10-5.45697E-12
 -1       689 4.75716E+05-5.22308E+00 1.11088E+03-1.70114E+04-1.57456E-11-2.33513E-10
 -1       690 4.75840E+05 8.79107E+01 2.13326E+03-3.87416E+04 1.23691E-10 1.86787E-10
 -1       691 4.75632E+05-7.80233E+01 4.05832E+03-1.69958E+04 2.94222E-10 4.69413E-10
 -1       692 4.76788E+05 1.05034E+03 8.63176E+03-3.87870E+04-3.31283E-10 6.02029E-10
 -1       693 4.74862E+05-6.57053E+02 1.60874E+04-1.69657E+04-3.45608E-11-2.57387E-10
 -1       694 4.86448E+05 1.46105E+04 3.81195E+04-3.87389E+04-8.94943E-10-1.24464E-09
 -1       695 4.66148E+05-7.00341E+03 6.27915E+04-1.70503E+04-2.21917E-10-1.47702E-09
 -1       696-3.38299E+03 5.27776E+05 3.09653E+04-3.36091E+04 1.54614E-10-1.03546E-09
 -1       697 7.40389E+03 5.37576E+05 1.76512E+04-7.54782E+04 2.35559E-10-1.00687E-09
 -1       698-1.02177E+02 5.32303E+05 5.16848E+03-3.35364E+04-8.82210E-11 1.50328E-09
 -1       699-1.83414E+03 5.31119E+05-2.61042E+03-7.54728E+04-1.06468E-10 2.17483E-09
 -1       700 1.23976E+03 5.34303E+05-9.53555E+03-3.36197E+04-1.30058E-10 1.63891E-09
 -1       701-4.43184E+05-6.12281E+04-6.37312E+04-1.79096E+05 1.40972E-10 1.03319E-09
 -1       702-4.57490E+05-9.57699E+04-3.81185E+04-1.87655E+05-5.45697E-11-8.60382E-10
 -1       703-4.52888E+05-6.98718E+04-1.49345E+04-1.79316E+05 1.09139E-10 1.45519E-11
 -1       704-4.46137E+05-8.09414E+04-7.82226E+03-1.89505E+05 1.25510E-10-9.73159E-11
 -1       705-4.53845E+05-7.06002E+04-3.45728E+03-1.79336E+05-1.68711E-10 7.41920E-10
 -1       706-4.45055E+05-7.97941E+04-1.78055E+03-1.89664E+05 6.54836E-11 9.22398E-10
 -1       707-4.53981E+05-7.06441E+04-9.43312E+02-1.79325E+05-3.77440E-11 2.51362E-10
 -1       708-4.44936E+05-7.97347E+04-7.37955E+02-1.89715E+05 2.37492E-10 1.04625E-09
 -1       709-4.53999E+05-7.06273E+04-9.09065E+02-1.79315E+05-2.31921E-11 1.08815E-09
 -1       710-4.45029E+05-7.98291E+04-1.69389E+03-1.89740E+05-4.48551E-10 6.17888E-11
 -1       711-4.53903E+05-7.05515E+04-3.26891E+03-1.79306E+05 1.23357E-10-2.67391E-10
 -1       712-4.46034E+05-8.09534E+04-7.40313E+03-1.89661E+05-4.92264E-11-6.22776E-10
 -1       713-4.53030E+05-6.98304E+04-1.41201E+04-1.79268E+05-7.87423E-11-2.94676E-10
 -1       714-4.56727E+05-9.50493E+04-3.60627E+04-1.88010E+05 2.27942E-11-2.65572E-10
 -1       715-4.43903E+05-6.15949E+04-6.02779E+04-1.79012E+05 8.91305E-11-2.00089E-10
 -1       716 3.89613E+05-6.33066E+03 5.54370E+04-3.03026E+04 2.34650E-10-1.12777E-10
 -1       717 4.07653E+05 1.28847E+04 3.37006E+04-6.84648E+04 8.73115E-11-1.28421E-09
 -1       718 3.97213E+05-6.13375E+02 1.42131E+04-3.01356E+04-4.03816E-10 5.81167E-10
 -1       719 3.98894E+05 9.90682E+02 7.66844E+03-6.85812E+04-9.23137E-11 1.38016E-09
 -1       720 3.97827E+05-3.89842E+01 3.65609E+03-3.01801E+04 8.67658E-10-5.37511E-10
 -1       721 3.97948E+05 1.92833E+02 2.03849E+03-6.85163E+04 1.10776E-09-1.06866E-11
 -1       722 3.97871E+05 4.67048E+01 1.27873E+03-3.02009E+04 1.08906E-09-8.69704E-10
 -1       723 3.97860E+05 1.46923E+02 1.24840E+03-6.85073E+04 8.64475E-10 1.94427E-09
 -1       724 3.97881E+05 2.02356E+01 1.77123E+03-3.01891E+04 8.11724E-10-1.88152E-10
 -1       725 3.98141E+05 1.91527E+02 3.32456E+03-6.85650E+04 1.59753E-09 1.24930E-09
 -1       726 3.97812E+05-1.47688E+02 6.25871E+03-3.01431E+04 5.55701E-10 6.03052E-10
 -1       727 3.99788E+05 1.59098E+03 1.33280E+04-6.86774E+04 1.32331E-09 5.99357E-10
 -1       728 3.96713E+05-1.12575E+03 2.47852E+04-3.00757E+04 4.82032E-10-7.07587E-10
 -1       729 4.14960E+05 2.24104E+04 5.88265E+04-6.85557E+04-1.06593E-09-2.18279E-10
 -1       730 3.83382E+05-1.10378E+04 9.68241E+04-3.02836E+04-5.40240E-10-7.63976E-10
 -1       731-3.94707E+03 1.91222E+05 3.68335E+04-6.64906E+04 1.47520E-09-9.22228E-10
 -1       732 9.05286E+03 2.02862E+05 2.27038E+04-1.50991E+05 5.74573E-10-1.00681E-09
 -1       733-2.24222E+02 1.96229E+05 1.02044E+04-6.63274E+04 1.45559E-09 1.07502E-09
 -1       734 1.83292E+03 1.98004E+05 7.00418E+03-1.50939E+05 9.79526E-10 2.00089E-09
 -1       735-4.75496E+02 1.96384E+05 5.41408E+03-6.65451E+04 7.83530E-10 8.31278E-10
 -1       736-1.01591E+06-1.39770E+05-8.74468E+04-3.96615E+05 1.30785E-09 2.29556E-09
 -1       737-1.03745E+06-1.85279E+05-5.23082E+04-4.06168E+05-1.73259E-10-1.83718E-09
 -1       738-1.02924E+06-1.51623E+05-2.04811E+04-3.96879E+05 1.97360E-10-5.56611E-10
 -1       739-1.02180E+06-1.64975E+05-1.07273E+04-4.08762E+05-1.13005E-10 4.19050E-10
 -1       740-1.03058E+06-1.52596E+05-4.73021E+03-3.96868E+05-1.20508E-10 5.22959E-10
 -1       741-1.02026E+06-1.63445E+05-2.42500E+03-4.09026E+05 9.16316E-11 5.65137E-10
 -1       742-1.03078E+06-1.52646E+05-1.25775E+03-3.96834E+05 6.52562E-11-1.28517E-09
 -1       743-1.02006E+06-1.63380E+05-9.38157E+02-4.09106E+05-4.07908E-10-9.27329E-10
 -1       744-1.03080E+06-1.52627E+05-1.09598E+03-3.96817E+05 1.18519E-10-3.57772E-10
 -1       745-1.02017E+06-1.63480E+05-1.99426E+03-4.09117E+05-7.25095E-10-2.11230E-10
 -1       746-1.03068E+06-1.52557E+05-3.82459E+03-3.96820E+05 2.74099E-10 6.07542E-10
 -1       747-1.02138E+06-1.64752E+05-8.64820E+03-4.08964E+05 3.96085E-10 6.94172E-10
 -1       748-1.02962E+06-1.51750E+05-1.64919E+04-3.96810E+05-6.46423E-10-7.18501E-11
 -1       749-1.03396E+06-1.81137E+05-4.21252E+04-4.06922E+05-3.57261E-11 1.09139E-10
 -1       750-1.01890E+06-1.42189E+05-7.04162E+04-3.96583E+05-4.41105E-10 2.18279E-10
 -1       751 1.35265E+06-2.10343E+04 1.89028E+05-2.60964E+04-3.25599E-10 5.38421E-10
 -1       752 1.41376E+06 4.39045E+04 1.14721E+05-6.04000E+04-2.36014E-09-1.66619E-09
 -1       753 1.37888E+06-1.99767E+03 4.84461E+04-2.61328E+04-2.23736E-10-1.07138E-09
 -1       754 1.38472E+06 3.12717E+03 2.60265E+04-6.01195E+04-5.91172E-12 1.06684E-09
 -1       755 1.38120E+06-2.56722E+02 1.22944E+04-2.63394E+04 2.10093E-10 1.62709E-09
 -1       756 1.38186E+06 2.44416E+02 6.58386E+03-5.97936E+04 2.41471E-10 2.16869E-09
 -1       757 1.38143E+06-2.73304E+01 3.65754E+03-2.64601E+04-5.58884E-10 1.09003E-09
 -1       758 1.38149E+06 8.21510E+01 2.83221E+03-5.96541E+04-8.28209E-11 2.87241E-09
 -1       759 1.38143E+06-1.45328E+01 3.27913E+03-2.64793E+04 3.02066E-10 1.38584E-10
 -1       760 1.38175E+06 2.27102E+02 5.60094E+03-5.97143E+04-1.19917E-09 2.16187E-09
 -1       761 1.38123E+06-1.95931E+02 1.03001E+04-2.63996E+04 1.44610E-10-2.37605E-10
 -1       762 1.38412E+06 2.63347E+03 2.17038E+04-5.99653E+04 7.25322E-10 1.96042E-09
 -1       763 1.37930E+06-1.64409E+03 4.03617E+04-2.62272E+04 2.89219E-10 5.20231E-10
 -1       764 1.40830E+06 3.65888E+04 9.55426E+04-6.01952E+04 2.18279E-11-8.40373E-10
 -1       765 1.35745E+06-1.75056E+04 1.57402E+05-2.61944E+04-1.32968E-09 2.37924E-09
 -1       766-1.10166E+04 4.21239E+05 1.04292E+05-4.19791E+04-2.40470E-09-1.85582E-09
 -1       767 2.50885E+04 4.54912E+05 7.08387E+04-9.49021E+04 2.20825E-09-1.81626E-09
 -1       768-1.68667E+03 4.34342E+05 4.48438E+04-4.19341E+04-2.04119E-09 1.98452E-09
 -1       769 1.98829E+04 4.51670E+05 5.97003E+04-9.47967E+04 1.44973E-09 1.65164E-09
 -1       770-8.71451E+03 4.25052E+05 8.19392E+04-4.21027E+04-1.38971E-09 1.02773E-09
 -1       771-1.68886E+06-3.37002E+05-1.31191E+05-6.92824E+05 8.84711E-10 3.27418E-10
 -1       772-1.69912E+06-3.25908E+05-6.55899E+04-7.25610E+05-1.73350E-09 1.70257E-09
 -1       773-1.69506E+06-2.97427E+05-2.78529E+04-7.12145E+05 2.96131E-09 4.45471E-09
 -1       774-1.68448E+06-3.09451E+05-1.36554E+04-7.27367E+05 1.93540E-09-2.44336E-09
 -1       775-1.69596E+06-2.96175E+05-6.30455E+03-7.12946E+05-4.12911E-10-5.00222E-10
 -1       776-1.68356E+06-3.08859E+05-3.17676E+03-7.27416E+05-5.82986E-10 4.82487E-10
 -1       777-1.69622E+06-2.96195E+05-1.70560E+03-7.12996E+05-4.18368E-10-6.48242E-10
 -1       778-1.68352E+06-3.08852E+05-1.30897E+03-7.27487E+05-6.51198E-10-7.63066E-10
 -1       779-1.69629E+06-2.96151E+05-1.60378E+03-7.13022E+05-1.14596E-10-1.45519E-10
 -1       780-1.68364E+06-3.08844E+05-2.91767E+03-7.27566E+05-2.20552E-10-1.15961E-09
 -1       781-1.69619E+06-2.96049E+05-5.74485E+03-7.13023E+05 1.10845E-11 8.64020E-11
 -1       782-1.68456E+06-3.09382E+05-1.24465E+04-7.27670E+05 1.23646E-09 1.63709E-09
 -1       783-1.69550E+06-2.97098E+05-2.53661E+04-7.12324E+05 6.48015E-10 5.63887E-10
 -1       784-1.69788E+06-3.24507E+05-5.97820E+04-7.26335E+05 1.34150E-10 1.99361E-09
 -1       785-1.69001E+06-3.33043E+05-1.19546E+05-6.94667E+05-3.11047E-10 8.51287E-10
 -1       786 8.99718E+05-1.26568E+04 1.13950E+05-1.84683E+04 1.14596E-09 1.49885E-09
 -1       787 9.36520E+05 2.64954E+04 6.91586E+04-4.26238E+04-1.26420E-09-3.88627E-09
 -1       788 9.15556E+05-1.18629E+03 2.92024E+04-1.84284E+04-3.98359E-10-1.56433E-10
 -1       789 9.19059E+05 1.88062E+03 1.56724E+04-4.25689E+04-4.36557E-10 6.49379E-10
 -1       790 9.16972E+05-1.53132E+02 7.38547E+03-1.85059E+04 1.96906E-10 8.90395E-10
 -1       791 9.17369E+05 1.22516E+02 3.90987E+03-4.24562E+04 1.24601E-10 2.47792E-09
 -1       792 9.17129E+05-2.73734E+01 2.09238E+03-1.85414E+04 2.16460E-10 7.70797E-11
 -1       793 9.17170E+05 8.36775E+00 1.47620E+03-4.24325E+04-4.94538E-12 1.66278E-09
 -1       794 9.17147E+05-2.50789E+01 1.52326E+03-1.85298E+04 1.23464E-10-1.93904E-09
 -1       795 9.17295E+05 5.47550E+01 2.44266E+03-4.25041E+04-3.86535E-11 1.70598E-09
 -1       796 9.17077E+05-1.13236E+02 4.39536E+03-1.84697E+04-1.01863E-10-2.39157E-09
 -1       797 9.18336E+05 1.05817E+03 9.21928E+03-4.26614E+04-1.66301E-09-1.74089E-09
 -1       798 9.16276E+05-7.44232E+02 1.71122E+04-1.83722E+04-5.67525E-10 3.11957E-10
 -1       799 9.28648E+05 1.54446E+04 4.05238E+04-4.27399E+04-5.19594E-09-4.78167E-09
 -1       800 9.07028E+05-7.50464E+03 6.67204E+04-1.84034E+04-1.36424E-10-1.81899E-10
 -1       801-5.20661E+03 2.09557E+05 5.17548E+04-3.03179E+05-1.11322E-09-1.81171E-09
 -1       802 1.85409E+04 2.22976E+05 4.13057E+04-6.88510E+05-1.13614E-08 2.11730E-09
 -1       803 1.27416E+03 2.12779E+05 3.53209E+04-3.02326E+05-2.40470E-09 5.25188E-09
 -1       804 2.73362E+04 2.30631E+05 6.16504E+04-6.88416E+05-1.01736E-08-2.09366E-09
 -1       805-1.07452E+04 2.03893E+05 9.21545E+04-3.03286E+05-2.22644E-09 3.36149E-09
 -1       806-9.85915E+05-2.23950E+05-8.59197E+04-4.35554E+05 1.18871E-09-1.16415E-09
 -1       807-9.88250E+05-2.21118E+05-4.29593E+04-4.62129E+05 1.51340E-09-2.11685E-09
 -1       808-9.90007E+05-1.97997E+05-1.82403E+04-4.48197E+05 6.87578E-10-2.45200E-09
 -1       809-9.78647E+05-2.10336E+05-8.94906E+03-4.63259E+05 2.94676E-10-7.32740E-10
 -1       810-9.90559E+05-1.97208E+05-4.13615E+03-4.48722E+05 4.18368E-11 2.56023E-10
 -1       811-9.78027E+05-2.09943E+05-2.10426E+03-4.63232E+05 2.84672E-10-1.77306E-09
 -1       812-9.90668E+05-1.97258E+05-1.16619E+03-4.48736E+05-1.95359E-09-7.10588E-09
 -1       813-9.77962E+05-2.09947E+05-9.70119E+02-4.63205E+05 4.00860E-10-1.90994E-09
 -1       814-9.90631E+05-1.97274E+05-1.28476E+03-4.48721E+05-2.70120E-10-2.06001E-09
 -1       815-9.77986E+05-2.09961E+05-2.41401E+03-4.63175E+05 8.66294E-10 2.65936E-09
 -1       816-9.90438E+05-1.97249E+05-4.79744E+03-4.48674E+05-3.25417E-09 4.31100E-10
 -1       817-9.78665E+05-2.10429E+05-1.04001E+04-4.63149E+05-1.87538E-09-7.93079E-10
 -1       818-9.89745E+05-1.98204E+05-2.12099E+04-4.48046E+05-3.42152E-09-1.61890E-10
 -1       819-9.89818E+05-2.22932E+05-4.99387E+04-4.61754E+05-7.24231E-09 8.36735E-10
 -1       820-9.84935E+05-2.28392E+05-9.98797E+04-4.33347E+05 5.92991E-10 5.71163E-10
 -1       821-5.83519E+05 8.23992E+03-7.48875E+04 1.19030E+04-1.11995E-08 3.08864E-09
 -1       822-6.07617E+05-1.74097E+04-4.54396E+04 2.82819E+04-5.50790E-09-5.61704E-09
 -1       823-5.94001E+05 7.55988E+02-1.92045E+04 1.16590E+04 9.62427E-09-1.90084E-09
 -1       824-5.96325E+05-1.13765E+03-1.02949E+04 2.85918E+04-3.19005E-09-1.46429E-09
 -1       825-5.94988E+05 1.33652E+02-4.87222E+03 1.15807E+04-1.76997E-08-2.54840E-09
 -1       826-5.95335E+05 7.78550E+01-2.59325E+03 2.87172E+04-3.07773E-08-3.00679E-09
 -1       827-5.95124E+05 8.54295E+01-1.43533E+03 1.15315E+04-1.44678E-08 1.69769E-09
 -1       828-5.95267E+05 1.79880E+02-1.09106E+03 2.87933E+04-1.96178E-08-3.60478E-09
 -1       829-5.95142E+05 9.58457E+01-1.24623E+03 1.15040E+04-1.24351E-09-3.40754E-09
 -1       830-5.95370E+05 1.28886E+02-2.11309E+03 2.88240E+04 1.46764E-08-4.84052E-09
 -1       831-5.95057E+05 1.53841E+02-3.88513E+03 1.15005E+04-7.22787E-09-5.21879E-10
 -1       832-5.96205E+05-8.11143E+02-8.18237E+03 2.88058E+04-2.48917E-09-3.69209E-09
 -1       833-5.94293E+05 6.65476E+02-1.52329E+04 1.15236E+04-8.79027E-10-1.13505E-09
 -1       834-6.05212E+05-1.37062E+04-3.60613E+04 2.86712E+04 5.91172E-10-2.18961E-09
 -1       835-5.85990E+05 6.62010E+03-5.94121E+04 1.16529E+04 9.28003E-09-5.12955E-10
 -1       836-1.06765E+04 1.23737E+06 1.04301E+05-1.21276E+05-7.34508E-09 1.69712E-09
 -1       837 2.66573E+04 1.27032E+06 7.64591E+04-2.71492E+05 6.56428E-10-2.28556E-09
 -1       838-1.54284E+03 1.24890E+06 5.80730E+04-1.21101E+05-1.01663E-08 2.89037E-09
 -1       839 3.39990E+04 1.27534E+06 9.24908E+04-2.71468E+05 3.39787E-09-3.75985E-09
 -1       840-1.42547E+04 1.23214E+06 1.36393E+05-1.21291E+05-9.77889E-09-1.00590E-09
 -1       841-8.89182E+04-1.83958E+02-2.67051E+04-2.29157E+04-7.75799E-09-6.50289E-11
 -1       842-1.10266E+05 8.10643E+02-1.59532E+04-8.96912E+03-1.22127E-08-2.24986E-09
 -1       843-9.28430E+04-3.93941E+03-6.26174E+03-2.32200E+04-2.75122E-09-8.04278E-10
 -1       844-1.05777E+05 7.22997E+03-3.26337E+03-9.55981E+03-1.18052E-09 3.72665E-10
 -1       845-9.32323E+04-4.25457E+03-1.43029E+03-2.32795E+04 4.84852E-09-6.79688E-09
 -1       846-1.05416E+05 7.77165E+03-6.94692E+02-9.60126E+03-6.96491E-09-8.79663E-09
 -1       847-9.32874E+04-4.27805E+03-2.91853E+02-2.33052E+04-3.44016E-09-2.41761E-09
 -1       848-1.05407E+05 7.83683E+03-8.21142E+01-9.60765E+03 8.17852E-09 5.55765E-09
 -1       849-9.33033E+04-4.28026E+03 8.21814E+01-2.33179E+04 1.82017E-08-2.11526E-09
 -1       850-1.05389E+05 7.86761E+03 3.05803E+02-9.60751E+03 1.67808E-08-6.41217E-09
 -1       851-9.33262E+04-4.29703E+03 6.66889E+02-2.33199E+04-5.03906E-09-3.31670E-09
 -1       852-1.05156E+05 8.09811E+03 1.55517E+03-9.61882E+03-1.02009E-08-6.95127E-09
 -1       853-9.35062E+04-4.45658E+03 2.97680E+03-2.33170E+04 1.38243E-09-2.60206E-09
 -1       854-1.02791E+05 1.10061E+04 7.62409E+03-1.00100E+04 4.01997E-10-2.02022E-09
 -1       855-9.54731E+04-6.16090E+03 1.27338E+04-2.32932E+04 7.08633E-09 3.23689E-09
 -1       856-3.58241E+05 4.19808E+03-3.77814E+04 1.15152E+04-1.56333E-08 2.11003E-10
 -1       857-3.70458E+05-8.66310E+03-2.29197E+04 2.73896E+04-1.55637E-08-3.31602E-09
 -1       858-3.63536E+05 4.34032E+02-9.68583E+03 1.13573E+04-1.14687E-08 7.34872E-10
 -1       859-3.64780E+05-4.48724E+02-5.18922E+03 2.75718E+04-6.58474E-10-5.82531E-09
 -1       860-3.64038E+05 1.24270E+02-2.44845E+03 1.13213E+04 1.73031E-09-8.89031E-10
 -1       861-3.64285E+05 1.66418E+02-1.29200E+03 2.76216E+04-1.86418E-08-1.73372E-09
 -1       862-3.64107E+05 9.93081E+01-6.91117E+02 1.13060E+04 3.06795E-09-8.43784E-10
 -1       863-3.64241E+05 2.14994E+02-4.86012E+02 2.76390E+04 3.75287E-08-5.91592E-09
 -1       864-3.64113E+05 9.85736E+01-5.02595E+02 1.13036E+04 2.32495E-08-1.40687E-09
 -1       865-3.64261E+05 1.89093E+02-8.05859E+02 2.76299E+04 1.63799E-08-7.17330E-09
 -1       866-3.64073E+05 1.11038E+02-1.45761E+03 1.13153E+04 9.04492E-10-4.93998E-10
 -1       867-3.64540E+05-1.75232E+02-3.04974E+03 2.75903E+04-1.05456E-09-1.66277E-09
 -1       868-3.63774E+05 2.86755E+02-5.67757E+03 1.13442E+04 3.21961E-10-9.16089E-10
 -1       869-3.67843E+05-4.99266E+03-1.34199E+04 2.74253E+04-4.77030E-09-4.61398E-09
 -1       870-3.60665E+05 2.48034E+03-2.21246E+04 1.14877E+04 1.47475E-08 1.52795E-10
 -1       871-4.30534E+03-4.40074E+04-7.85782E+03 1.51432E+05-1.05565E-08-6.06360E-09
 -1       872-2.00087E+03-4.54681E+04-2.22327E+03 1.83715E+05-1.29512E-08-1.88629E-09
 -1       873-5.95395E+02-4.50652E+04 2.59553E+03 1.51157E+05-1.10776E-08 2.85922E-09
 -1       874 1.80004E+03-4.27843E+04 9.32304E+03 1.83777E+05-1.42354E-08 3.86990E-09
 -1       875 7.21520E+03-4.68030E+04 1.96879E+04 1.51415E+05-9.89166E-09 5.98448E-10
 -1       876 4.55599E+05 6.59477E+04 4.38719E+04 1.83247E+05-2.66164E-09-5.86260E-09
 -1       877 4.63304E+05 9.19403E+04 2.62488E+04 1.91570E+05 1.59689E-08 5.16229E-09
 -1       878 4.62200E+05 7.19743E+04 1.02780E+04 1.83449E+05 1.66438E-08 3.91174E-09
 -1       879 4.55530E+05 8.16538E+04 5.39469E+03 1.92686E+05-3.32511E-09 3.49246E-10
 -1       880 4.62791E+05 7.25427E+04 2.38519E+03 1.83503E+05 2.20052E-09-1.72281E-09
 -1       881 4.54822E+05 8.07992E+04 1.24625E+03 1.92676E+05 6.09816E-09-4.50160E-09
 -1       882 4.62841E+05 7.26175E+04 6.85015E+02 1.83523E+05-9.67361E-09-5.49278E-10
 -1       883 4.54764E+05 8.07229E+04 5.86817E+02 1.92644E+05-2.02767E-08 2.58950E-09
 -1       884 4.62832E+05 7.26215E+04 7.84207E+02 1.83526E+05 4.00604E-10 4.46676E-10
 -1       885 4.54855E+05 8.08021E+04 1.51231E+03 1.92653E+05 1.74279E-08 1.48975E-09
 -1       886 4.62753E+05 7.25449E+04 2.94209E+03 1.83512E+05 3.93811E-09-6.93171E-09
 -1       887 4.55746E+05 8.18416E+04 6.67613E+03 1.92630E+05-3.42446E-08-3.21688E-09
 -1       888 4.62001E+05 7.18570E+04 1.27322E+04 1.83453E+05-3.88923E-10-9.36780E-10
 -1       889 4.65367E+05 9.45859E+04 3.25160E+04 1.91234E+05 2.01848E-08 8.36735E-11
 -1       890 4.53825E+05 6.43892E+04 5.43541E+04 1.83188E+05 2.67178E-08 3.74712E-09
 -1       891 6.26291E+02-2.14806E+05-8.91015E+03 4.84024E+04 1.05906E-08 5.51790E-09
 -1       892-2.70109E+03-2.17389E+05-6.65460E+03 1.09375E+05-2.23263E-08-1.50499E-09
 -1       893-3.04044E+01-2.15851E+05-5.32079E+03 4.82526E+04-4.87034E-10 1.57934E-09
 -1       894-3.70379E+03-2.18052E+05-8.82643E+03 1.09350E+05-2.08565E-08-1.68097E-09
 -1       895 1.10005E+03-2.14085E+05-1.32578E+04 4.84256E+04 2.98041E-09-2.91038E-10
 -1       896 7.74561E+05-1.36765E+03 1.17305E+04-1.15126E+04-2.00998E-10-1.10208E-09
 -1       897 7.78361E+05 2.68483E+03 7.13887E+03-2.65864E+04 9.82254E-11-8.06722E-10
 -1       898 7.76171E+05-1.56138E+02 3.01362E+03-1.14849E+04-5.72982E-11-4.90900E-10
 -1       899 7.76500E+05 1.69794E+02 1.64206E+03-2.65481E+04-1.22782E-10-3.05135E-10
 -1       900 7.76297E+05-3.09200E+01 8.07499E+02-1.15496E+04-3.31966E-11-7.12816E-11
 -1       901 7.76288E+05 7.84279E+00 5.06954E+02-2.64403E+04-1.28466E-10-2.27828E-10
 -1       902 7.76296E+05-6.93659E+00 4.18037E+02-1.15928E+04-1.59389E-10 1.10504E-10
 -1       903 7.76259E+05 1.14587E+01 5.69442E+02-2.63774E+04-1.19599E-10 3.59307E-10
 -1       904 7.76278E+05-8.00099E+00 9.75656E+02-1.16124E+04 2.64095E-10 1.90994E-10
 -1       905 7.76354E+05 7.71346E+01 1.94378E+03-2.63636E+04-5.04770E-11 5.71276E-12
 -1       906 7.76190E+05-6.64576E+01 3.73653E+03-1.16066E+04-1.89630E-10 1.65528E-10
 -1       907 7.77196E+05 9.81297E+02 7.96190E+03-2.63955E+04 2.42153E-11 9.47011E-11
 -1       908 7.75460E+05-5.83344E+02 1.48547E+04-1.15803E+04-1.92358E-10 3.36513E-11
 -1       909 7.86052E+05 1.35179E+04 3.51831E+04-2.63947E+04-7.57154E-11-3.36968E-10
 -1       910 7.67387E+05-6.41054E+03 5.79713E+04-1.16103E+04-4.15639E-10-5.56611E-10
 -1       911 1.94629E+05-4.34813E+02 3.54267E+03-1.18031E+04 2.10093E-10-1.06184E-10
 -1       912 1.95796E+05 8.13437E+02 2.16543E+03-2.66267E+04-1.99634E-10 2.15095E-10
 -1       913 1.95100E+05-5.07762E+01 9.17120E+02-1.17155E+04-1.66438E-10 6.63135E-10
 -1       914 1.95197E+05 6.64269E+01 5.15776E+02-2.67052E+04-2.40789E-10 8.56971E-10
 -1       915 1.95126E+05-2.63310E+00 2.80176E+02-1.17245E+04 6.68479E-10 5.01359E-10
 -1       916 1.95116E+05 2.66437E+01 2.28683E+02-2.66892E+04 4.37240E-10 3.73461E-10
 -1       917 1.95119E+05 8.10581E+00 2.74345E+02-1.17314E+04 5.35124E-10 6.38295E-10
 -1       918 1.95114E+05 3.23997E+01 4.74494E+02-2.66818E+04 4.85272E-10 7.72161E-10
 -1       919 1.95105E+05 8.65036E-01 8.87757E+02-1.17319E+04 4.09045E-10 9.54287E-10
 -1       920 1.95221E+05 8.80783E+01 1.81350E+03-2.66870E+04 8.71523E-10 1.27096E-09
 -1       921 1.95028E+05-6.02139E+01 3.50656E+03-1.17261E+04 3.35604E-10 5.23073E-10
 -1       922 1.96031E+05 9.32386E+02 7.48901E+03-2.67006E+04 7.56700E-10 1.55637E-10
 -1       923 1.94349E+05-5.53978E+02 1.39753E+04-1.17181E+04-6.68479E-11 1.44155E-10
 -1       924 2.04390E+05 1.27325E+04 3.31206E+04-2.66226E+04 6.36646E-12 2.98314E-10
 -1       925 1.86763E+05-6.05397E+03 5.45698E+04-1.18065E+04 2.90129E-10 1.30967E-10
 -1       926-9.58780E+05 5.99688E+03-5.43166E+04-7.22666E+03 5.37057E-10-3.74712E-10
 -1       927-9.76219E+05-1.27052E+04-3.29662E+04-1.61381E+04-1.89289E-10 4.67935E-10
 -1       928-9.66356E+05 5.36934E+02-1.39132E+04-7.13084E+03 6.79847E-11-1.00499E-10
 -1       929-9.67959E+05-9.20589E+02-7.45608E+03-1.62658E+04-1.11868E-10-5.20345E-10
 -1       930-9.67050E+05 6.44270E+01-3.50371E+03-7.10105E+03 6.24141E-11 1.69166E-10
 -1       931-9.67190E+05-6.13759E+01-1.83390E+03-1.63028E+04-1.72690E-10-1.23691E-10
 -1       932-9.67134E+05 1.27187E+01-9.45430E+02-7.09378E+03-4.20357E-11-2.12935E-10
 -1       933-9.67097E+05-3.23961E+00-6.01551E+02-1.62979E+04 8.50378E-11 1.71042E-10
 -1       934-9.67141E+05 5.34343E+00-5.30769E+02-7.10594E+03 6.16183E-11 1.75646E-11
 -1       935-9.67106E+05-2.57383E+01-7.60630E+02-1.62532E+04 3.89946E-11-4.12001E-10
 -1       936-9.67108E+05 1.79706E+01-1.32027E+03-7.13852E+03 1.59616E-10 4.77485E-12
 -1       937-9.67367E+05-3.44447E+02-2.73071E+03-1.61665E+04 4.02224E-10-7.01675E-10
 -1       938-9.66850E+05 1.82668E+02-5.06686E+03-7.19267E+03 2.81489E-10-1.04683E-09
 -1       939-9.70346E+05-4.63123E+03-1.19756E+04-1.59713E+04 1.01090E-09-7.91943E-10
 -1       940-9.64092E+05 2.15577E+03-1.97336E+04-7.33216E+03-5.10227E-10 8.18545E-12
 -1       941 1.71805E+06-2.58279E+04 2.35300E+05-1.07685E+04 1.07138E-09 1.01863E-09
 -1       942 1.79379E+06 5.48081E+04 1.42716E+05-2.53809E+04 2.74213E-10-2.48838E-09
 -1       943 1.75085E+06-2.33991E+03 6.03251E+04-1.07786E+04-4.84306E-11-3.67436E-10
 -1       944 1.75803E+06 3.94979E+03 3.23739E+04-2.53187E+04-5.33589E-10-1.10867E-09
 -1       945 1.75385E+06-2.84972E+02 1.52997E+04-1.08127E+04 4.80867E-10 4.73847E-10
 -1       946 1.75469E+06 2.60307E+02 8.15526E+03-2.53027E+04 1.14559E-09 2.16869E-09
 -1       947 1.75421E+06-6.26017E+01 4.48342E+03-1.07947E+04 4.92719E-10 1.31581E-09
 -1       948 1.75434E+06 5.94236E+00 3.38133E+03-2.53951E+04 8.62883E-11 6.86327E-10
 -1       949 1.75424E+06-6.40790E+01 3.80193E+03-1.07204E+04-1.51158E-09-3.39691E-09
 -1       950 1.75463E+06 1.68536E+02 6.40156E+03-2.56003E+04 1.47429E-09 1.84355E-09
 -1       951 1.75399E+06-2.50326E+02 1.17226E+04-1.05891E+04-2.08911E-09-2.70211E-09
 -1       952 1.75722E+06 2.94608E+03 2.46640E+04-2.59110E+04-6.25278E-10-1.28784E-09
 -1       953 1.75173E+06-1.83585E+03 4.58732E+04-1.04097E+04-1.15870E-09-1.02227E-09
 -1       954 1.78448E+06 4.15864E+04 1.08519E+05-2.62067E+04-5.59157E-09-3.64344E-09
 -1       955 1.72681E+06-1.97321E+04 1.78844E+05-1.03302E+04-8.55835E-10-1.89902E-09
 -1       956-3.69709E+05-8.74035E+03-2.22400E+04 5.63358E+04-1.49357E-08 5.13865E-10
 -1       957-3.74165E+05-2.80787E+03-1.14091E+04 6.78420E+04-3.99450E-09 1.84627E-09
 -1       958-3.71789E+05-9.24443E+01-5.14955E+03 5.59259E+04 1.04283E-08-1.14551E-09
 -1       959-3.72238E+05 1.98517E+02-2.62356E+03 6.82741E+04-6.75573E-09 1.76533E-09
 -1       960-3.72060E+05 2.81580E+02-1.27929E+03 5.58845E+04-1.77661E-08-5.22959E-10
 -1       961-3.72188E+05 3.65645E+02-6.65312E+02 6.83208E+04-3.01852E-08 3.71392E-09
 -1       962-3.72166E+05 3.17478E+02-3.62920E+02 5.58767E+04-1.08075E-08 8.29459E-10
 -1       963-3.72248E+05 4.05315E+02-2.53876E+02 6.83316E+04-1.83204E-08 5.82122E-09
 -1       964-3.72217E+05 3.45873E+02-2.65778E+02 5.58727E+04-6.69161E-09-9.25866E-10
 -1       965-3.72296E+05 4.28284E+02-4.22577E+02 6.83343E+04 1.30635E-08 1.59116E-09
 -1       966-3.72219E+05 3.65167E+02-7.74722E+02 5.58734E+04-7.72104E-09-7.73980E-10
 -1       967-3.72395E+05 3.66456E+02-1.57884E+03 6.83161E+04 7.03972E-09 3.79441E-09
 -1       968-3.72106E+05 1.72796E+02-3.08787E+03 5.58918E+04 1.18325E-09-1.05661E-09
 -1       969-3.73607E+05-1.41415E+03-6.85272E+03 6.81096E+04 1.93495E-09 3.07750E-09
 -1       970-3.70886E+05-5.00931E+03-1.33528E+04 5.60991E+04 8.34098E-09-1.14596E-09
 -1       971-5.60309E+05 3.36390E+03-3.03075E+04 1.01890E+04-1.63373E-08-3.68527E-09
 -1       972-5.70082E+05-6.93604E+03-1.83848E+04 2.51028E+04-6.88533E-09-4.18913E-09
 -1       973-5.64559E+05 3.49034E+02-7.77663E+03 1.00071E+04-1.74969E-08-3.84807E-09
 -1       974-5.65540E+05-3.41621E+02-4.17509E+03 2.53297E+04-1.27420E-09-5.00631E-09
 -1       975-5.64965E+05 1.04782E+02-1.99199E+03 9.95300E+03-1.13596E-09-5.11886E-09
 -1       976-5.65155E+05 1.56752E+02-1.09179E+03 2.54098E+04-1.40572E-08-4.93333E-09
 -1       977-5.65022E+05 8.88991E+01-6.64794E+02 9.92569E+03 9.81049E-09-6.05564E-09
 -1       978-5.65136E+05 1.97597E+02-6.15374E+02 2.54449E+04 2.80368E-08-7.87634E-09
 -1       979-5.65022E+05 9.49936E+01-8.46354E+02 9.91754E+03 1.12799E-08-6.42962E-09
 -1       980-5.65208E+05 1.48564E+02-1.56361E+03 2.54412E+04 3.73218E-08-6.46440E-09
 -1       981-5.64948E+05 1.33720E+02-2.94967E+03 9.92940E+03 1.45769E-09-4.84738E-09
 -1       982-5.65831E+05-5.79953E+02-6.25223E+03 2.53955E+04-1.02209E-08-5.44287E-09
 -1       983-5.64356E+05 5.18747E+02-1.16614E+04 9.96470E+03 1.23987E-08-5.89307E-09
 -1       984-5.72708E+05-1.04624E+04-2.76105E+04 2.52296E+04-6.75936E-09-4.57112E-09
 -1       985-5.57992E+05 5.07066E+03-4.55005E+04 1.01106E+04 1.29776E-08-4.63660E-09
 -3
 9999
