
 stresses (elem, integ.pnt.,sxx,syy,szz,sxy,sxz,syz) for set ELALL and time  0.1000000E+01

         1   1 -2.150751E+06 -7.832261E+04 -9.403701E+04 -3.716414E+04 -6.455202E+04  3.877021E+00
         1   2 -2.139858E+06  2.102864E+02 -4.282340E+04 -1.296167E+04 -4.187665E+04  8.771901E-01
         1   3 -2.150666E+06  3.846989E+03 -2.513331E+04  1.124172E+04 -1.920102E+04 -3.488395E-01
         1   4 -2.150752E+06 -7.832521E+04 -9.403738E+04  2.332586E-09 -6.455202E+04  4.952786E-10
         1   5 -2.139858E+06  2.099697E+02 -4.282345E+04 -4.750402E-09 -4.187665E+04  1.329214E-09
         1   6 -2.150666E+06  3.846750E+03 -2.513334E+04 -2.945400E-09 -1.920102E+04  8.941690E-10
         1   7 -2.150751E+06 -7.832261E+04 -9.403701E+04  3.716414E+04 -6.455202E+04 -3.877021E+00
         1   8 -2.139858E+06  2.102864E+02 -4.282340E+04  1.296167E+04 -4.187665E+04 -8.771901E-01
         1   9 -2.150666E+06  3.846989E+03 -2.513331E+04 -1.124172E+04 -1.920102E+04  3.488395E-01
         1  10 -2.150755E+06 -7.832373E+04 -9.404486E+04 -3.716414E+04  7.069224E-10  6.222207E-11
         1  11 -2.139859E+06  2.098137E+02 -4.282671E+04 -1.296167E+04 -1.689027E-09  2.227861E-10
         1  12 -2.150667E+06  3.846889E+03 -2.513400E+04  1.124172E+04 -8.820673E-10 -2.986270E-10
         1  13 -2.150757E+06 -7.832633E+04 -9.404524E+04  1.427886E-10  9.920005E-10 -8.245764E-11
         1  14 -2.139860E+06  2.094969E+02 -4.282676E+04 -7.949150E-09  5.259630E-10 -1.709680E-10
         1  15 -2.150667E+06  3.846651E+03 -2.513404E+04 -3.145105E-09  7.944880E-10  1.521056E-10
         1  16 -2.150755E+06 -7.832373E+04 -9.404486E+04  3.716414E+04 -2.108070E-10 -1.413232E-10
         1  17 -2.139859E+06  2.098137E+02 -4.282671E+04  1.296167E+04 -4.524587E-10 -3.707893E-10
         1  18 -2.150667E+06  3.846889E+03 -2.513400E+04 -1.124172E+04  2.717652E-09  5.456703E-10
         1  19 -2.150751E+06 -7.832261E+04 -9.403701E+04 -3.716414E+04  6.455202E+04 -3.877021E+00
         1  20 -2.139858E+06  2.102864E+02 -4.282340E+04 -1.296167E+04  4.187665E+04 -8.771901E-01
         1  21 -2.150666E+06  3.846989E+03 -2.513331E+04  1.124172E+04  1.920102E+04  3.488395E-01
         1  22 -2.150752E+06 -7.832521E+04 -9.403738E+04  4.411110E-09  6.455202E+04 -6.554477E-10
         1  23 -2.139858E+06  2.099697E+02 -4.282345E+04 -4.708415E-09  4.187665E+04 -1.635247E-09
         1  24 -2.150666E+06  3.846750E+03 -2.513334E+04  3.670520E-09  1.920102E+04 -6.119032E-10
         1  25 -2.150751E+06 -7.832261E+04 -9.403701E+04  3.716414E+04  6.455202E+04  3.877021E+00
         1  26 -2.139858E+06  2.102864E+02 -4.282340E+04  1.296167E+04  4.187665E+04  8.771901E-01
         1  27 -2.150666E+06  3.846989E+03 -2.513331E+04 -1.124172E+04  1.920102E+04 -3.488395E-01
         2   1 -2.146256E+06 -4.297205E+03 -1.998158E+04 -1.493446E+03 -1.564266E+04  3.775422E-02
         2   2 -2.145356E+06  1.361097E+02 -1.081455E+04 -3.419545E+02 -1.021686E+04  5.646132E-03
         2   3 -2.146245E+06  2.493137E+02 -6.269013E+03  8.095326E+02 -4.791019E+03 -6.267991E-03
         2   4 -2.146256E+06 -4.297210E+03 -1.998158E+04  6.624987E-09 -1.564266E+04  6.268969E-10
         2   5 -2.145356E+06  1.361095E+02 -1.081455E+04  1.132048E-09 -1.021686E+04  3.515447E-10
         2   6 -2.146245E+06  2.493125E+02 -6.269013E+03  1.015734E-08 -4.791019E+03 -9.011127E-10
         2   7 -2.146256E+06 -4.297205E+03 -1.998158E+04  1.493446E+03 -1.564266E+04 -3.775421E-02
         2   8 -2.145356E+06  1.361097E+02 -1.081455E+04  3.419545E+02 -1.021686E+04 -5.646132E-03
         2   9 -2.146245E+06  2.493137E+02 -6.269013E+03 -8.095326E+02 -4.791019E+03  6.267990E-03
         2  10 -2.146256E+06 -4.297271E+03 -1.998204E+04 -1.493446E+03 -1.491888E-10 -1.612662E-10
         2  11 -2.145356E+06  1.360816E+02 -1.081475E+04 -3.419545E+02  2.859945E-10  3.945689E-10
         2  12 -2.146245E+06  2.493075E+02 -6.269056E+03  8.095326E+02  8.897009E-10  1.807295E-10
         2  13 -2.146256E+06 -4.297276E+03 -1.998204E+04  2.356503E-09  1.057266E-09  3.095465E-10
         2  14 -2.145356E+06  1.360814E+02 -1.081475E+04  7.529540E-09  6.926987E-10  2.339958E-10
         2  15 -2.146245E+06  2.493063E+02 -6.269056E+03 -6.666255E-09  3.115509E-09 -1.354745E-10
         2  16 -2.146256E+06 -4.297271E+03 -1.998204E+04  1.493446E+03  9.900377E-10  8.225837E-10
         2  17 -2.145356E+06  1.360816E+02 -1.081475E+04  3.419545E+02  1.491520E-09  1.742834E-10
         2  18 -2.146245E+06  2.493075E+02 -6.269056E+03 -8.095326E+02  3.142871E-10 -3.760582E-10
         2  19 -2.146256E+06 -4.297205E+03 -1.998158E+04 -1.493446E+03  1.564266E+04 -3.775422E-02
         2  20 -2.145356E+06  1.361097E+02 -1.081455E+04 -3.419545E+02  1.021686E+04 -5.646131E-03
         2  21 -2.146245E+06  2.493137E+02 -6.269013E+03  8.095326E+02  4.791019E+03  6.267992E-03
         2  22 -2.146256E+06 -4.297210E+03 -1.998158E+04  8.829585E-09  1.564266E+04 -7.431941E-12
         2  23 -2.145356E+06  1.361095E+02 -1.081455E+04  7.493844E-09  1.021686E+04  8.219391E-11
         2  24 -2.146245E+06  2.493125E+02 -6.269013E+03  9.894858E-09  4.791019E+03  5.971384E-10
         2  25 -2.146256E+06 -4.297205E+03 -1.998158E+04  1.493446E+03  1.564266E+04  3.775422E-02
         2  26 -2.145356E+06  1.361097E+02 -1.081455E+04  3.419545E+02  1.021686E+04  5.646131E-03
         2  27 -2.146245E+06  2.493137E+02 -6.269013E+03 -8.095326E+02  4.791019E+03 -6.267991E-03
         3   1 -2.145902E+06 -1.976969E+02 -4.827644E+03  7.065564E+01 -3.815370E+03 -4.356623E-04
         3   2 -2.145779E+06  4.014825E+01 -2.799358E+03  7.505850E+01 -2.428681E+03 -2.946022E-04
         3   3 -2.145900E+06  2.372097E+01 -1.739749E+03  7.946129E+01 -1.042010E+03 -1.338116E-04
         3   4 -2.145902E+06 -1.976969E+02 -4.827644E+03  1.629512E-08 -3.815370E+03 -7.763694E-10
         3   5 -2.145779E+06  4.014824E+01 -2.799358E+03  1.293018E-09 -2.428681E+03  3.892134E-10
         3   6 -2.145900E+06  2.372096E+01 -1.739749E+03 -6.443676E-09 -1.042010E+03  9.633072E-11
         3   7 -2.145902E+06 -1.976969E+02 -4.827644E+03 -7.065564E+01 -3.815370E+03  4.356607E-04
         3   8 -2.145779E+06  4.014825E+01 -2.799358E+03 -7.505850E+01 -2.428681E+03  2.946028E-04
         3   9 -2.145900E+06  2.372097E+01 -1.739749E+03 -7.946129E+01 -1.042010E+03  1.338120E-04
         3  10 -2.145902E+06 -1.977008E+02 -4.827671E+03  7.065564E+01 -2.078557E-09 -3.059176E-10
         3  11 -2.145779E+06  4.014666E+01 -2.799370E+03  7.505850E+01 -1.405808E-09 -5.459448E-10
         3  12 -2.145900E+06  2.372067E+01 -1.739751E+03  7.946129E+01 -1.578648E-09 -7.842721E-10
         3  13 -2.145902E+06 -1.977008E+02 -4.827671E+03  9.851455E-09 -9.603640E-10 -3.071158E-10
         3  14 -2.145779E+06  4.014665E+01 -2.799370E+03  1.322417E-09  5.380200E-10 -2.974355E-10
         3  15 -2.145900E+06  2.372066E+01 -1.739751E+03 -1.271576E-09  2.051174E-09 -2.473893E-10
         3  16 -2.145902E+06 -1.977008E+02 -4.827671E+03 -7.065564E+01 -2.695565E-11 -2.663945E-10
         3  17 -2.145779E+06  4.014666E+01 -2.799370E+03 -7.505850E+01  1.084597E-09 -4.090487E-11
         3  18 -2.145900E+06  2.372067E+01 -1.739751E+03 -7.946129E+01  1.048545E-09  3.466970E-10
         3  19 -2.145902E+06 -1.976969E+02 -4.827644E+03  7.065564E+01  3.815370E+03  4.356621E-04
         3  20 -2.145779E+06  4.014825E+01 -2.799358E+03  7.505850E+01  2.428681E+03  2.946012E-04
         3  21 -2.145900E+06  2.372097E+01 -1.739749E+03  7.946129E+01  1.042010E+03  1.338103E-04
         3  22 -2.145902E+06 -1.976969E+02 -4.827644E+03  2.055520E-08  3.815370E+03  1.543060E-10
         3  23 -2.145779E+06  4.014824E+01 -2.799358E+03  7.778677E-09  2.428681E+03 -1.028179E-09
         3  24 -2.145900E+06  2.372096E+01 -1.739749E+03 -4.236995E-09  1.042010E+03 -6.168572E-10
         3  25 -2.145902E+06 -1.976969E+02 -4.827644E+03 -7.065564E+01  3.815370E+03 -4.356614E-04
         3  26 -2.145779E+06  4.014825E+01 -2.799358E+03 -7.505850E+01  2.428681E+03 -2.946034E-04
         3  27 -2.145900E+06  2.372097E+01 -1.739749E+03 -7.946129E+01  1.042010E+03 -1.338117E-04
         4   1 -2.145863E+06  2.283417E+00 -1.430808E+03  3.418638E+01 -7.562727E+02 -4.178315E-05
         4   2 -2.145824E+06  1.652577E+01 -1.119587E+03  8.040190E+00 -2.033709E+02 -2.641705E-06
         4   3 -2.145863E+06  1.117806E+01 -1.174163E+03 -1.810638E+01  3.495391E+02 -1.022652E-05
         4   4 -2.145863E+06  2.283415E+00 -1.430808E+03  1.299318E-09 -7.562727E+02 -8.869564E-11
         4   5 -2.145824E+06  1.652577E+01 -1.119587E+03 -2.139011E-09 -2.033709E+02  6.279043E-10
         4   6 -2.145863E+06  1.117806E+01 -1.174163E+03  1.566821E-08  3.495391E+02  1.193282E-09
         4   7 -2.145863E+06  2.283417E+00 -1.430808E+03 -3.418638E+01 -7.562727E+02  4.178282E-05
         4   8 -2.145824E+06  1.652577E+01 -1.119587E+03 -8.040190E+00 -2.033709E+02  2.642965E-06
         4   9 -2.145863E+06  1.117806E+01 -1.174163E+03  1.810638E+01  3.495391E+02  1.022898E-05
         4  10 -2.145863E+06  2.283263E+00 -1.430809E+03  3.418638E+01 -6.681851E-11 -5.202889E-10
         4  11 -2.145824E+06  1.652576E+01 -1.119587E+03  8.040190E+00 -3.291362E-09  5.182808E-10
         4  12 -2.145863E+06  1.117803E+01 -1.174163E+03 -1.810638E+01  1.576591E-09  6.686817E-10
         4  13 -2.145863E+06  2.283261E+00 -1.430809E+03 -2.880965E-09 -1.641704E-10 -3.967226E-11
         4  14 -2.145824E+06  1.652576E+01 -1.119587E+03  3.827305E-11 -2.055106E-09  3.623069E-10
         4  15 -2.145863E+06  1.117803E+01 -1.174163E+03  8.884146E-09  9.160143E-10  4.126006E-10
         4  16 -2.145863E+06  2.283263E+00 -1.430809E+03 -3.418638E+01  3.818736E-10  2.935747E-10
         4  17 -2.145824E+06  1.652576E+01 -1.119587E+03 -8.040190E+00  1.443258E-09  3.022643E-10
         4  18 -2.145863E+06  1.117803E+01 -1.174163E+03  1.810638E+01  4.271650E-10  2.109539E-10
         4  19 -2.145863E+06  2.283417E+00 -1.430808E+03  3.418638E+01  7.562727E+02  4.178232E-05
         4  20 -2.145824E+06  1.652577E+01 -1.119587E+03  8.040190E+00  2.033709E+02  2.643129E-06
         4  21 -2.145863E+06  1.117806E+01 -1.174163E+03 -1.810638E+01 -3.495391E+02  1.022819E-05
         4  22 -2.145863E+06  2.283415E+00 -1.430808E+03  3.682385E-09  7.562727E+02 -6.181131E-12
         4  23 -2.145824E+06  1.652577E+01 -1.119587E+03  9.286861E-11  2.033709E+02  1.487209E-10
         4  24 -2.145863E+06  1.117806E+01 -1.174163E+03  1.774260E-08 -3.495391E+02 -3.303836E-10
         4  25 -2.145863E+06  2.283417E+00 -1.430808E+03 -3.418638E+01  7.562727E+02 -4.178245E-05
         4  26 -2.145824E+06  1.652577E+01 -1.119587E+03 -8.040190E+00  2.033709E+02 -2.642581E-06
         4  27 -2.145863E+06  1.117806E+01 -1.174163E+03  1.810638E+01 -3.495391E+02 -1.022874E-05
         5   1 -2.145877E+06  1.105396E+01 -1.334481E+03 -2.952450E+01  5.766318E+02 -2.751245E-05
         5   2 -2.145808E+06  2.924727E+01 -1.985495E+03 -7.238354E+01  1.557384E+03 -1.821804E-04
         5   3 -2.145878E+06  2.373309E+00 -3.287944E+03 -1.152426E+02  2.538136E+03 -4.727104E-04
         5   4 -2.145877E+06  1.105395E+01 -1.334481E+03  1.023781E-08  5.766318E+02  9.742047E-10
         5   5 -2.145808E+06  2.924726E+01 -1.985495E+03 -1.805856E-10  1.557384E+03 -2.348849E-10
         5   6 -2.145878E+06  2.373284E+00 -3.287944E+03  7.969064E-09  2.538136E+03 -1.381405E-09
         5   7 -2.145877E+06  1.105396E+01 -1.334481E+03  2.952450E+01  5.766318E+02  2.751398E-05
         5   8 -2.145808E+06  2.924727E+01 -1.985495E+03  7.238354E+01  1.557384E+03  1.821798E-04
         5   9 -2.145878E+06  2.373309E+00 -3.287944E+03  1.152426E+02  2.538136E+03  4.727079E-04
         5  10 -2.145877E+06  1.105387E+01 -1.334482E+03 -2.952450E+01 -1.056610E-10  5.235392E-10
         5  11 -2.145808E+06  2.924662E+01 -1.985500E+03 -7.238354E+01  3.080465E-09 -1.722727E-10
         5  12 -2.145878E+06  2.371572E+00 -3.287956E+03 -1.152426E+02 -5.632234E-11 -9.380732E-10
         5  13 -2.145877E+06  1.105386E+01 -1.334482E+03  5.782451E-09  2.611308E-10  2.325215E-10
         5  14 -2.145808E+06  2.924661E+01 -1.985500E+03  6.187482E-09  9.696812E-11 -2.222322E-10
         5  15 -2.145878E+06  2.371547E+00 -3.287956E+03  6.054492E-09  7.535482E-10 -6.692096E-10
         5  16 -2.145877E+06  1.105387E+01 -1.334482E+03  2.952450E+01  1.915658E-10 -1.251071E-10
         5  17 -2.145808E+06  2.924662E+01 -1.985500E+03  7.238354E+01 -6.351313E-10 -4.451311E-10
         5  18 -2.145878E+06  2.371572E+00 -3.287956E+03  1.152426E+02  3.001925E-10 -6.577668E-10
         5  19 -2.145877E+06  1.105396E+01 -1.334481E+03 -2.952450E+01 -5.766318E+02  2.751358E-05
         5  20 -2.145808E+06  2.924727E+01 -1.985495E+03 -7.238354E+01 -1.557384E+03  1.821802E-04
         5  21 -2.145878E+06  2.373309E+00 -3.287944E+03 -1.152426E+02 -2.538136E+03  4.727088E-04
         5  22 -2.145877E+06  1.105395E+01 -1.334481E+03  1.212112E-08 -5.766318E+02 -5.057989E-10
         5  23 -2.145808E+06  2.924726E+01 -1.985495E+03  1.470134E-08 -1.557384E+03 -1.999563E-10
         5  24 -2.145878E+06  2.373284E+00 -3.287944E+03  1.217245E-08 -2.538136E+03  1.091042E-11
         5  25 -2.145877E+06  1.105396E+01 -1.334481E+03  2.952450E+01 -5.766318E+02 -2.751455E-05
         5  26 -2.145808E+06  2.924727E+01 -1.985495E+03  7.238354E+01 -1.557384E+03 -1.821810E-04
         5  27 -2.145878E+06  2.373309E+00 -3.287944E+03  1.152426E+02 -2.538136E+03 -4.727090E-04
         6   1 -2.145992E+06  5.877204E+01 -4.278384E+03 -2.366772E+02  3.219417E+03 -1.231403E-03
         6   2 -2.145669E+06  1.054952E+02 -7.364388E+03 -2.172890E+02  6.867971E+03 -2.411748E-03
         6   3 -2.145997E+06 -5.396928E+02 -1.300484E+04 -1.979011E+02  1.051645E+04 -3.363435E-03
         6   4 -2.145992E+06  5.877193E+01 -4.278384E+03  4.775684E-09  3.219417E+03 -1.225187E-09
         6   5 -2.145669E+06  1.054951E+02 -7.364388E+03  1.505797E-09  6.867971E+03  1.184782E-11
         6   6 -2.145997E+06 -5.396929E+02 -1.300484E+04  7.119593E-09  1.051645E+04  4.151256E-10
         6   7 -2.145992E+06  5.877204E+01 -4.278384E+03  2.366772E+02  3.219417E+03  1.231400E-03
         6   8 -2.145669E+06  1.054952E+02 -7.364388E+03  2.172890E+02  6.867971E+03  2.411748E-03
         6   9 -2.145997E+06 -5.396928E+02 -1.300484E+04  1.979011E+02  1.051645E+04  3.363436E-03
         6  10 -2.145992E+06  5.876924E+01 -4.278403E+03 -2.366772E+02 -1.158828E-09 -7.406185E-10
         6  11 -2.145669E+06  1.054825E+02 -7.364477E+03 -2.172890E+02  1.068609E-09 -4.733048E-11
         6  12 -2.145997E+06 -5.397226E+02 -1.300504E+04 -1.979011E+02  2.168181E-09  5.927408E-11
         6  13 -2.145992E+06  5.876914E+01 -4.278403E+03  6.289977E-10 -2.379503E-09 -5.763466E-10
         6  14 -2.145669E+06  1.054824E+02 -7.364477E+03  2.644838E-09 -7.318449E-10 -7.811612E-11
         6  15 -2.145997E+06 -5.397227E+02 -1.300504E+04  5.190310E-09 -5.151674E-10 -5.883745E-11
         6  16 -2.145992E+06  5.876924E+01 -4.278403E+03  2.366772E+02  1.667128E-09 -4.934468E-10
         6  17 -2.145669E+06  1.054825E+02 -7.364477E+03  2.172890E+02  1.410856E-09 -1.459262E-10
         6  18 -2.145997E+06 -5.397226E+02 -1.300504E+04  1.979011E+02  6.942775E-11 -1.984891E-10
         6  19 -2.145992E+06  5.877204E+01 -4.278384E+03 -2.366772E+02 -3.219417E+03  1.231401E-03
         6  20 -2.145669E+06  1.054952E+02 -7.364388E+03 -2.172890E+02 -6.867971E+03  2.411748E-03
         6  21 -2.145997E+06 -5.396928E+02 -1.300484E+04 -1.979011E+02 -1.051645E+04  3.363436E-03
         6  22 -2.145992E+06  5.877193E+01 -4.278384E+03  1.155533E-08 -3.219417E+03  1.118595E-10
         6  23 -2.145669E+06  1.054951E+02 -7.364388E+03  3.760782E-09 -6.867971E+03 -1.173111E-10
         6  24 -2.145997E+06 -5.396929E+02 -1.300484E+04  2.708313E-09 -1.051645E+04 -5.495874E-10
         6  25 -2.145992E+06  5.877204E+01 -4.278384E+03  2.366772E+02 -3.219417E+03 -1.231401E-03
         6  26 -2.145669E+06  1.054952E+02 -7.364388E+03  2.172890E+02 -6.867971E+03 -2.411748E-03
         6  27 -2.145997E+06 -5.396928E+02 -1.300484E+04  1.979011E+02 -1.051645E+04 -3.363437E-03
         7   1 -2.146934E+06  6.779723E+02 -1.696982E+04 -2.211262E+03  1.315134E+04 -4.699768E-02
         7   2 -2.144512E+06  3.699688E+02 -2.940623E+04  9.288066E+02  2.790588E+04  4.188758E-02
         7   3 -2.146962E+06 -1.171151E+04 -5.441536E+04  4.068950E+03  4.266037E+04  2.805251E-01
         7   4 -2.146934E+06  6.779631E+02 -1.696982E+04  1.650310E-08  1.315134E+04  9.355630E-10
         7   5 -2.144512E+06  3.699672E+02 -2.940623E+04 -1.154895E-09  2.790588E+04  1.124258E-09
         7   6 -2.146962E+06 -1.171154E+04 -5.441536E+04  1.001550E-08  4.266037E+04 -1.502807E-09
         7   7 -2.146934E+06  6.779723E+02 -1.696982E+04  2.211262E+03  1.315134E+04  4.699768E-02
         7   8 -2.144512E+06  3.699688E+02 -2.940623E+04 -9.288066E+02  2.790588E+04 -4.188757E-02
         7   9 -2.146962E+06 -1.171151E+04 -5.441536E+04 -4.068950E+03  4.266037E+04 -2.805252E-01
         7  10 -2.146935E+06  6.779257E+02 -1.697015E+04 -2.211262E+03  2.956903E-10  5.859888E-11
         7  11 -2.144513E+06  3.697589E+02 -2.940770E+04  9.288066E+02 -1.193702E-10  1.533557E-10
         7  12 -2.146964E+06 -1.171200E+04 -5.441879E+04  4.068950E+03  2.726488E-09 -1.137704E-09
         7  13 -2.146935E+06  6.779164E+02 -1.697015E+04  1.022108E-08 -9.834935E-10  2.242872E-10
         7  14 -2.144513E+06  3.697572E+02 -2.940770E+04  5.188024E-09 -2.248697E-09  4.868945E-10
         7  15 -2.146964E+06 -1.171203E+04 -5.441879E+04 -2.560442E-09  1.062326E-09 -9.104787E-10
         7  16 -2.146935E+06  6.779257E+02 -1.697015E+04  2.211262E+03  4.439055E-10  3.849576E-10
         7  17 -2.144513E+06  3.697589E+02 -2.940770E+04 -9.288066E+02 -4.459883E-10  8.302172E-10
         7  18 -2.146964E+06 -1.171200E+04 -5.441879E+04 -4.068950E+03  1.443588E-11 -7.519417E-10
         7  19 -2.146934E+06  6.779723E+02 -1.696982E+04 -2.211262E+03 -1.315134E+04  4.699768E-02
         7  20 -2.144512E+06  3.699688E+02 -2.940623E+04  9.288066E+02 -2.790588E+04 -4.188757E-02
         7  21 -2.146962E+06 -1.171151E+04 -5.441536E+04  4.068950E+03 -4.266037E+04 -2.805252E-01
         7  22 -2.146934E+06  6.779631E+02 -1.696982E+04  1.261256E-08 -1.315134E+04 -4.975197E-10
         7  23 -2.144512E+06  3.699672E+02 -2.940623E+04 -1.387999E-09 -2.790588E+04 -2.417013E-10
         7  24 -2.146962E+06 -1.171154E+04 -5.441536E+04  6.937412E-09 -4.266037E+04 -3.304478E-10
         7  25 -2.146934E+06  6.779723E+02 -1.696982E+04  2.211262E+03 -1.315134E+04 -4.699768E-02
         7  26 -2.144512E+06  3.699688E+02 -2.940623E+04 -9.288066E+02 -2.790588E+04  4.188757E-02
         7  27 -2.146962E+06 -1.171151E+04 -5.441536E+04 -4.068950E+03 -4.266037E+04  2.805252E-01
         8   1 -2.158981E+06  1.048525E+04 -6.846226E+04 -3.063806E+04  5.235056E+04 -2.592123E+00
         8   2 -2.129525E+06  5.742446E+02 -1.166724E+05  3.532439E+04  1.141430E+05  6.515919E+00
         8   3 -2.159201E+06 -2.134327E+05 -2.562272E+05  1.012826E+05  1.759361E+05  2.879725E+01
         8   4 -2.158982E+06  1.048348E+04 -6.846252E+04 -3.425391E-09  5.235056E+04 -1.539226E-09
         8   5 -2.129526E+06  5.718918E+02 -1.166727E+05 -5.388563E-09  1.141430E+05  9.610222E-10
         8   6 -2.159212E+06 -2.134520E+05 -2.562299E+05  1.070611E-08  1.759361E+05  5.503832E-10
         8   7 -2.158981E+06  1.048525E+04 -6.846226E+04  3.063806E+04  5.235056E+04  2.592123E+00
         8   8 -2.129525E+06  5.742446E+02 -1.166724E+05 -3.532439E+04  1.141430E+05 -6.515919E+00
         8   9 -2.159201E+06 -2.134327E+05 -2.562272E+05 -1.012826E+05  1.759361E+05 -2.879725E+01
         8  10 -2.158984E+06  1.048451E+04 -6.846743E+04 -3.063806E+04 -2.421324E-09 -9.931219E-10
         8  11 -2.129539E+06  5.707320E+02 -1.166970E+05  3.532439E+04 -1.249420E-10  6.467214E-10
         8  12 -2.159235E+06 -2.134410E+05 -2.562856E+05  1.012826E+05  1.508274E-09  2.967884E-10
         8  13 -2.158985E+06  1.048274E+04 -6.846769E+04 -1.162866E-08 -1.679791E-11 -9.379774E-10
         8  14 -2.129540E+06  5.683792E+02 -1.166973E+05 -4.188653E-09  2.785060E-09  4.239034E-10
         8  15 -2.159246E+06 -2.134604E+05 -2.562883E+05  1.078394E-08 -1.604061E-09  2.994720E-10
         8  16 -2.158984E+06  1.048451E+04 -6.846743E+04  3.063806E+04  2.819320E-09 -1.069451E-09
         8  17 -2.129539E+06  5.707320E+02 -1.166970E+05 -3.532439E+04 -1.236562E-09  2.349629E-10
         8  18 -2.159235E+06 -2.134410E+05 -2.562856E+05 -1.012826E+05 -8.632345E-10  2.714764E-10
         8  19 -2.158981E+06  1.048525E+04 -6.846226E+04 -3.063806E+04 -5.235056E+04  2.592123E+00
         8  20 -2.129525E+06  5.742446E+02 -1.166724E+05  3.532439E+04 -1.141430E+05 -6.515919E+00
         8  21 -2.159201E+06 -2.134327E+05 -2.562272E+05  1.012826E+05 -1.759361E+05 -2.879725E+01
         8  22 -2.158982E+06  1.048348E+04 -6.846252E+04 -6.910664E-09 -5.235056E+04 -3.438758E-10
         8  23 -2.129526E+06  5.718918E+02 -1.166727E+05 -1.159535E-08 -1.141430E+05 -1.406317E-10
         8  24 -2.159212E+06 -2.134520E+05 -2.562299E+05  1.062855E-08 -1.759361E+05  3.602129E-11
         8  25 -2.158981E+06  1.048525E+04 -6.846226E+04  3.063806E+04 -5.235056E+04 -2.592123E+00
         8  26 -2.129525E+06  5.742446E+02 -1.166724E+05 -3.532439E+04 -1.141430E+05  6.515919E+00
         8  27 -2.159201E+06 -2.134327E+05 -2.562272E+05 -1.012826E+05 -1.759361E+05  2.879725E+01
         9   1  1.735686E+06  5.594523E+06  1.699052E+06 -1.075170E+06  7.781936E+04  5.266350E+05
         9   2  1.272844E+06  4.505541E+06  1.153061E+06 -8.794761E+05  2.471046E+05  2.348551E+05
         9   3  9.858239E+05  3.501843E+06  8.404491E+05 -9.411740E+05  2.584598E+05 -5.640932E+04
         9   4  1.978975E+05 -6.351530E+05  2.225317E+05 -9.468822E+05  7.867893E+04  1.549031E+05
         9   5  3.333676E+04 -6.553906E+05  1.058894E+05 -8.184553E+05  2.476690E+05  1.005271E+05
         9   6  4.409572E+03 -6.317917E+05  5.909180E+04 -9.474048E+05  2.581926E+05  4.613086E+04
         9   7 -1.342545E+06 -6.829041E+06 -1.256168E+06 -8.198380E+05  7.939256E+04 -2.131487E+05
         9   8 -1.207806E+06 -5.791034E+06 -9.426034E+05 -7.579159E+05  2.482104E+05 -3.271379E+04
         9   9 -9.779947E+05 -4.748960E+06 -7.229827E+05 -9.535659E+05  2.579222E+05  1.480070E+05
         9  10  1.735606E+06  5.594225E+06  1.698524E+06 -1.075203E+06  2.782677E-10  1.373681E-09
         9  11  1.272764E+06  4.505466E+06  1.152843E+06 -8.795227E+05 -9.579380E-10 -9.505240E-12
         9  12  9.857513E+05  3.501821E+06  8.403178E+05 -9.411623E+05  1.034238E-09 -1.074027E-09
         9  13  1.978844E+05 -6.351805E+05  2.224749E+05 -9.468920E+05 -7.721733E-10 -1.002060E-10
         9  14  3.326816E+04 -6.554179E+05  1.057550E+05 -8.184753E+05  1.946953E-09  6.352787E-11
         9  15  4.337413E+03 -6.318119E+05  5.896248E+04 -9.474144E+05  2.355786E-09  7.398840E-11
         9  16 -1.342565E+06 -6.829092E+06 -1.256266E+06 -8.198243E+05  1.923905E-09 -1.396431E-09
         9  17 -1.207872E+06 -5.791051E+06 -9.427211E+05 -7.579094E+05 -7.625855E-10  3.958219E-11
         9  18 -9.780721E+05 -4.749002E+06 -7.231494E+05 -9.535968E+05  2.210504E-10  1.292947E-09
         9  19  1.735686E+06  5.594523E+06  1.699052E+06 -1.075170E+06 -7.781936E+04 -5.266350E+05
         9  20  1.272844E+06  4.505541E+06  1.153061E+06 -8.794761E+05 -2.471046E+05 -2.348551E+05
         9  21  9.858239E+05  3.501843E+06  8.404491E+05 -9.411740E+05 -2.584598E+05  5.640932E+04
         9  22  1.978975E+05 -6.351530E+05  2.225317E+05 -9.468822E+05 -7.867893E+04 -1.549031E+05
         9  23  3.333676E+04 -6.553906E+05  1.058894E+05 -8.184553E+05 -2.476690E+05 -1.005271E+05
         9  24  4.409572E+03 -6.317917E+05  5.909180E+04 -9.474048E+05 -2.581926E+05 -4.613086E+04
         9  25 -1.342545E+06 -6.829041E+06 -1.256168E+06 -8.198380E+05 -7.939256E+04  2.131487E+05
         9  26 -1.207806E+06 -5.791034E+06 -9.426034E+05 -7.579159E+05 -2.482104E+05  3.271379E+04
         9  27 -9.779947E+05 -4.748960E+06 -7.229827E+05 -9.535659E+05 -2.579222E+05 -1.480070E+05
        10   1  8.253775E+05  2.783736E+06  6.896805E+05 -9.621036E+05  2.170449E+05 -3.875642E+04
        10   2  5.687885E+05  1.735557E+06  4.615923E+05 -8.240682E+05  1.612678E+05 -6.369776E+04
        10   3  3.221763E+05  6.928626E+05  2.517777E+05 -9.530871E+05  9.688582E+04 -8.874997E+04
        10   4  1.255184E+04 -6.399869E+05  4.500259E+04 -9.494989E+05  2.168006E+05  3.813298E+04
        10   5  6.392451E+03 -6.403006E+05  2.397303E+04 -8.159595E+05  1.608839E+05  2.603970E+04
        10   6  8.061636E+03 -6.383815E+05  1.237023E+04 -9.495320E+05  9.634387E+04  1.379525E+04
        10   7 -8.009517E+05 -4.052400E+06 -6.001671E+05 -9.369452E+05  2.165585E+05  1.146098E+05
        10   8 -5.563208E+05 -3.010672E+06 -4.138497E+05 -8.078729E+05  1.605015E+05  1.154433E+05
        10   9 -3.061462E+05 -1.967877E+06 -2.270665E+05 -9.459814E+05  9.580233E+04  1.161269E+05
        10  10  8.253266E+05  2.783721E+06  6.895892E+05 -9.620968E+05 -8.331024E-11  1.880490E-09
        10  11  5.687595E+05  1.735545E+06  4.615359E+05 -8.240600E+05  1.719383E-09 -2.083093E-09
        10  12  3.221641E+05  6.928516E+05  2.517454E+05 -9.530802E+05  7.804437E-10 -5.886947E-09
        10  13  1.250098E+04 -6.400011E+05  4.491150E+04 -9.495056E+05  2.469044E-10  1.272652E-10
        10  14  6.364475E+03 -6.403083E+05  2.392311E+04 -8.159629E+05  1.634279E-09  1.678846E-10
        10  15  8.051618E+03 -6.383842E+05  1.235243E+04 -9.495331E+05  7.288386E-10  1.821650E-10
        10  16 -8.010056E+05 -4.052426E+06 -6.002802E+05 -9.369652E+05  4.929182E-10 -1.794522E-09
        10  17 -5.563521E+05 -3.010693E+06 -4.139233E+05 -8.078878E+05  2.148362E-09  2.546983E-09
        10  18 -3.061597E+05 -1.967894E+06 -2.271092E+05 -9.459904E+05 -1.921149E-09  6.019201E-09
        10  19  8.253775E+05  2.783736E+06  6.896805E+05 -9.621036E+05 -2.170449E+05  3.875642E+04
        10  20  5.687885E+05  1.735557E+06  4.615923E+05 -8.240682E+05 -1.612678E+05  6.369776E+04
        10  21  3.221763E+05  6.928626E+05  2.517777E+05 -9.530871E+05 -9.688582E+04  8.874997E+04
        10  22  1.255184E+04 -6.399869E+05  4.500259E+04 -9.494989E+05 -2.168006E+05 -3.813298E+04
        10  23  6.392451E+03 -6.403006E+05  2.397303E+04 -8.159595E+05 -1.608839E+05 -2.603970E+04
        10  24  8.061636E+03 -6.383815E+05  1.237023E+04 -9.495320E+05 -9.634387E+04 -1.379525E+04
        10  25 -8.009517E+05 -4.052400E+06 -6.001671E+05 -9.369452E+05 -2.165585E+05 -1.146098E+05
        10  26 -5.563208E+05 -3.010672E+06 -4.138497E+05 -8.078729E+05 -1.605015E+05 -1.154433E+05
        10  27 -3.061462E+05 -1.967877E+06 -2.270665E+05 -9.459814E+05 -9.580233E+04 -1.161269E+05
        11   1  1.555464E+05 -1.192582E+04  1.135987E+05 -9.501152E+05  5.362217E+04 -9.612955E+04
        11   2 -9.715041E+04 -1.049755E+06 -1.042670E+05 -8.161998E+05  2.312605E+03 -3.260969E+04
        11   3 -3.632155E+05 -2.100532E+06 -3.675891E+05 -9.475869E+05 -5.948774E+03  3.094542E+04
        11   4  8.953922E+03 -6.392393E+05  8.129024E+03 -9.491139E+05  5.302568E+04  1.167268E+04
        11   5  6.305683E+03 -6.379509E+05  8.493801E+02 -8.164906E+05  2.076573E+03  1.114485E+04
        11   6  1.481826E+03 -6.395180E+05 -7.357495E+03 -9.491500E+05 -5.838372E+03  1.075859E+04
        11   7 -1.376529E+05 -1.266140E+06 -9.730933E+04 -9.481129E+05  5.242914E+04  1.193695E+05
        11   8  1.097497E+05 -2.259894E+05  1.059598E+05 -8.167814E+05  1.840592E+03  5.492851E+04
        11   9  3.660200E+05  8.234433E+05  3.527177E+05 -9.507128E+05 -5.728026E+03 -9.475817E+03
        11  10  1.555408E+05 -1.193650E+04  1.135759E+05 -9.501111E+05 -1.900821E-09  2.180255E-09
        11  11 -9.715070E+04 -1.049756E+06 -1.042690E+05 -8.161997E+05  3.865698E-10  2.671182E-10
        11  12 -3.632158E+05 -2.100533E+06 -3.675910E+05 -9.475868E+05 -1.630285E-09 -1.883202E-09
        11  13  8.950866E+03 -6.392402E+05  8.123481E+03 -9.491144E+05 -1.517821E-09  8.881434E-11
        11  14  6.305645E+03 -6.379510E+05  8.491382E+02 -8.164907E+05  1.727003E-09  4.356787E-11
        11  15  1.481759E+03 -6.395181E+05 -7.357776E+03 -9.491500E+05  2.602154E-10 -1.128321E-11
        11  16 -1.376597E+05 -1.266156E+06 -9.734137E+04 -9.481179E+05 -2.218032E-09 -2.175972E-09
        11  17  1.097489E+05 -2.259926E+05  1.059541E+05 -8.167815E+05 -8.468103E-10 -2.285403E-10
        11  18  3.660200E+05  8.234432E+05  3.527174E+05 -9.507129E+05 -1.026054E-09  1.725444E-09
        11  19  1.555464E+05 -1.192582E+04  1.135987E+05 -9.501152E+05 -5.362217E+04  9.612955E+04
        11  20 -9.715041E+04 -1.049755E+06 -1.042670E+05 -8.161998E+05 -2.312605E+03  3.260969E+04
        11  21 -3.632155E+05 -2.100532E+06 -3.675891E+05 -9.475869E+05  5.948774E+03 -3.094542E+04
        11  22  8.953922E+03 -6.392393E+05  8.129024E+03 -9.491139E+05 -5.302568E+04 -1.167268E+04
        11  23  6.305683E+03 -6.379509E+05  8.493801E+02 -8.164906E+05 -2.076573E+03 -1.114485E+04
        11  24  1.481826E+03 -6.395180E+05 -7.357495E+03 -9.491500E+05  5.838372E+03 -1.075859E+04
        11  25 -1.376529E+05 -1.266140E+06 -9.730933E+04 -9.481129E+05 -5.242914E+04 -1.193695E+05
        11  26  1.097497E+05 -2.259894E+05  1.059598E+05 -8.167814E+05 -1.840592E+03 -5.492851E+04
        11  27  3.660200E+05  8.234433E+05  3.527177E+05 -9.507128E+05  5.728026E+03  9.475817E+03
        12   1 -2.839457E+06 -7.455052E+05 -3.342959E+05 -1.096113E+06 -2.007419E+05 -7.408309E+04
        12   2 -2.799709E+06 -4.417401E+05 -1.489546E+05 -1.098967E+06 -1.268422E+05 -4.452271E+04
        12   3 -2.848736E+06 -3.827273E+05 -8.360959E+04 -1.052633E+06 -5.190188E+04 -1.772395E+04
        12   4 -2.828290E+06 -6.349848E+05 -3.104909E+05 -9.835889E+05 -1.981567E+05 -7.315720E+04
        12   5 -2.767187E+06 -3.935575E+05 -1.343799E+05 -1.052825E+06 -1.266238E+05 -4.445010E+04
        12   6 -2.794386E+06 -3.964256E+05 -7.638222E+04 -1.072879E+06 -5.404693E+04 -1.852457E+04
        12   7 -2.817095E+06 -5.244034E+05 -2.866793E+05 -8.710565E+05 -1.955714E+05 -7.223019E+04
        12   8 -2.734661E+06 -3.453663E+05 -1.198047E+05 -1.006679E+06 -1.264053E+05 -4.437745E+04
        12   9 -2.740031E+06 -4.101201E+05 -6.915411E+04 -1.093127E+06 -5.619220E+04 -1.932497E+04
        12  10 -2.839502E+06 -7.455220E+05 -3.343824E+05 -1.096125E+06  7.625555E-11  2.010880E-10
        12  11 -2.799727E+06 -4.417466E+05 -1.489888E+05 -1.098971E+06  1.373326E-09 -1.249177E-10
        12  12 -2.848739E+06 -3.827284E+05 -8.361527E+04 -1.052634E+06  2.571518E-09 -1.156809E-09
        12  13 -2.828334E+06 -6.350012E+05 -3.105752E+05 -9.836007E+05 -1.182993E-09 -1.422065E-10
        12  14 -2.767205E+06 -3.935640E+05 -1.344140E+05 -1.052829E+06  2.969270E-10 -7.025516E-10
        12  15 -2.794390E+06 -3.964267E+05 -7.638839E+04 -1.072880E+06  2.606447E-09 -1.064020E-09
        12  16 -2.817137E+06 -5.244193E+05 -2.867614E+05 -8.710679E+05 -4.899938E-10 -5.767409E-10
        12  17 -2.734679E+06 -3.453727E+05 -1.198386E+05 -1.006683E+06 -2.768557E-09 -1.296387E-09
        12  18 -2.740034E+06 -4.101213E+05 -6.916078E+04 -1.093128E+06 -1.024576E-09 -9.314351E-10
        12  19 -2.839457E+06 -7.455052E+05 -3.342959E+05 -1.096113E+06  2.007419E+05  7.408309E+04
        12  20 -2.799709E+06 -4.417401E+05 -1.489546E+05 -1.098967E+06  1.268422E+05  4.452271E+04
        12  21 -2.848736E+06 -3.827273E+05 -8.360959E+04 -1.052633E+06  5.190188E+04  1.772395E+04
        12  22 -2.828290E+06 -6.349848E+05 -3.104909E+05 -9.835889E+05  1.981567E+05  7.315720E+04
        12  23 -2.767187E+06 -3.935575E+05 -1.343799E+05 -1.052825E+06  1.266238E+05  4.445010E+04
        12  24 -2.794386E+06 -3.964256E+05 -7.638222E+04 -1.072879E+06  5.404693E+04  1.852457E+04
        12  25 -2.817095E+06 -5.244034E+05 -2.866793E+05 -8.710565E+05  1.955714E+05  7.223019E+04
        12  26 -2.734661E+06 -3.453663E+05 -1.198047E+05 -1.006679E+06  1.264053E+05  4.437745E+04
        12  27 -2.740031E+06 -4.101201E+05 -6.915411E+04 -1.093127E+06  5.619220E+04  1.932497E+04
        13   1 -2.785429E+06 -4.252153E+05 -6.166636E+04 -1.063772E+06 -4.250616E+04 -1.567242E+04
        13   2 -2.758613E+06 -3.921537E+05 -2.499835E+04 -1.051454E+06 -2.603942E+04 -1.132480E+04
        13   3 -2.729916E+06 -3.834689E+05 -4.182021E+03 -1.046806E+06 -9.525973E+03 -7.097813E+03
        13   4 -2.784583E+06 -4.199320E+05 -6.057685E+04 -1.058401E+06 -4.381534E+04 -1.616365E+04
        13   5 -2.784500E+06 -4.005512E+05 -3.104102E+04 -1.057258E+06 -2.745164E+04 -1.185432E+04
        13   6 -2.782516E+06 -4.055269E+05 -1.727424E+04 -1.063784E+06 -1.104200E+04 -7.666159E+03
        13   7 -2.783738E+06 -4.146487E+05 -5.948732E+04 -1.053031E+06 -4.512452E+04 -1.665492E+04
        13   8 -2.810387E+06 -4.089487E+05 -3.708368E+04 -1.063061E+06 -2.886378E+04 -1.238383E+04
        13   9 -2.835113E+06 -4.275843E+05 -3.036651E+04 -1.080760E+06 -1.255788E+04 -8.234432E+03
        13  10 -2.785431E+06 -4.252161E+05 -6.167024E+04 -1.063772E+06 -1.107366E-09 -1.420176E-09
        13  11 -2.758614E+06 -3.921541E+05 -2.499987E+04 -1.051455E+06  5.100903E-09  1.597671E-09
        13  12 -2.729916E+06 -3.834690E+05 -4.182287E+03 -1.046806E+06  5.580906E-09  3.541098E-09
        13  13 -2.784586E+06 -4.199329E+05 -6.058097E+04 -1.058402E+06  1.245643E-09 -8.784607E-10
        13  14 -2.784501E+06 -4.005516E+05 -3.104270E+04 -1.057258E+06  2.239423E-09 -2.537734E-10
        13  15 -2.782516E+06 -4.055270E+05 -1.727458E+04 -1.063784E+06  1.723146E-09  1.068355E-09
        13  16 -2.783740E+06 -4.146495E+05 -5.949169E+04 -1.053032E+06  1.088870E-09 -3.759818E-10
        13  17 -2.810388E+06 -4.089491E+05 -3.708554E+04 -1.063061E+06 -3.060240E-09 -1.916332E-09
        13  18 -2.835113E+06 -4.275844E+05 -3.036694E+04 -1.080760E+06 -4.174750E-09 -1.403871E-09
        13  19 -2.785429E+06 -4.252153E+05 -6.166636E+04 -1.063772E+06  4.250616E+04  1.567242E+04
        13  20 -2.758613E+06 -3.921537E+05 -2.499835E+04 -1.051454E+06  2.603942E+04  1.132480E+04
        13  21 -2.729916E+06 -3.834689E+05 -4.182021E+03 -1.046806E+06  9.525973E+03  7.097813E+03
        13  22 -2.784583E+06 -4.199320E+05 -6.057685E+04 -1.058401E+06  4.381534E+04  1.616365E+04
        13  23 -2.784500E+06 -4.005512E+05 -3.104102E+04 -1.057258E+06  2.745164E+04  1.185432E+04
        13  24 -2.782516E+06 -4.055269E+05 -1.727424E+04 -1.063784E+06  1.104200E+04  7.666159E+03
        13  25 -2.783738E+06 -4.146487E+05 -5.948732E+04 -1.053031E+06  4.512452E+04  1.665492E+04
        13  26 -2.810387E+06 -4.089487E+05 -3.708368E+04 -1.063061E+06  2.886378E+04  1.238383E+04
        13  27 -2.835113E+06 -4.275843E+05 -3.036651E+04 -1.080760E+06  1.255788E+04  8.234432E+03
        14   1 -2.702281E+06 -3.772169E+05  6.196081E+03 -1.040990E+06 -6.754209E+03 -7.231370E+03
        14   2 -2.677511E+06 -3.607872E+05  1.911180E+04 -1.027778E+06 -2.518083E+03 -7.613867E+03
        14   3 -2.644193E+06 -3.546925E+05  2.910249E+04 -1.025210E+06  1.715461E+03 -7.988136E+03
        14   4 -2.781668E+06 -4.068605E+05 -1.316406E+04 -1.062778E+06 -8.226510E+03 -7.783424E+03
        14   5 -2.785883E+06 -4.012989E+05 -7.189465E+03 -1.057602E+06 -3.983934E+03 -8.163640E+03
        14   6 -2.781552E+06 -4.060736E+05 -4.144904E+03 -1.063071E+06  2.558668E+02 -8.535694E+03
        14   7 -2.861050E+06 -4.365040E+05 -3.252490E+04 -1.084564E+06 -9.698620E+03 -8.335407E+03
        14   8 -2.894245E+06 -4.418100E+05 -3.349185E+04 -1.087422E+06 -5.449518E+03 -8.713312E+03
        14   9 -2.918893E+06 -4.574536E+05 -3.739392E+04 -1.100924E+06 -1.203383E+03 -9.083122E+03
        14  10 -2.702281E+06 -3.772169E+05  6.195896E+03 -1.040990E+06 -5.665549E-09 -1.393519E-09
        14  11 -2.677511E+06 -3.607873E+05  1.911168E+04 -1.027778E+06 -5.822700E-09 -1.562398E-09
        14  12 -2.644193E+06 -3.546926E+05  2.910237E+04 -1.025210E+06  2.034350E-09  1.368928E-09
        14  13 -2.781668E+06 -4.068606E+05 -1.316430E+04 -1.062778E+06 -3.655937E-10  9.978600E-10
        14  14 -2.785883E+06 -4.012989E+05 -7.189620E+03 -1.057602E+06 -1.209012E-09  2.640819E-10
        14  15 -2.781552E+06 -4.060736E+05 -4.145041E+03 -1.063071E+06  9.235851E-10  8.380737E-10
        14  16 -2.861050E+06 -4.365041E+05 -3.252521E+04 -1.084564E+06  7.626515E-09  3.414463E-09
        14  17 -2.894245E+06 -4.418101E+05 -3.349205E+04 -1.087422E+06  3.916696E-09  1.878534E-09
        14  18 -2.918893E+06 -4.574537E+05 -3.739408E+04 -1.100924E+06  3.105321E-09  8.765041E-11
        14  19 -2.702281E+06 -3.772169E+05  6.196081E+03 -1.040990E+06  6.754209E+03  7.231370E+03
        14  20 -2.677511E+06 -3.607872E+05  1.911180E+04 -1.027778E+06  2.518083E+03  7.613867E+03
        14  21 -2.644193E+06 -3.546925E+05  2.910249E+04 -1.025210E+06 -1.715461E+03  7.988136E+03
        14  22 -2.781668E+06 -4.068605E+05 -1.316406E+04 -1.062778E+06  8.226510E+03  7.783424E+03
        14  23 -2.785883E+06 -4.012989E+05 -7.189465E+03 -1.057602E+06  3.983934E+03  8.163640E+03
        14  24 -2.781552E+06 -4.060736E+05 -4.144904E+03 -1.063071E+06 -2.558668E+02  8.535694E+03
        14  25 -2.861050E+06 -4.365040E+05 -3.252490E+04 -1.084564E+06  9.698620E+03  8.335407E+03
        14  26 -2.894245E+06 -4.418100E+05 -3.349185E+04 -1.087422E+06  5.449518E+03  8.713312E+03
        14  27 -2.918893E+06 -4.574536E+05 -3.739392E+04 -1.100924E+06  1.203383E+03  9.083122E+03
        15   1 -2.619605E+06 -3.456691E+05  3.611106E+04 -1.018514E+06  2.683051E+03 -8.759138E+03
        15   2 -2.595841E+06 -3.306067E+05  4.388643E+04 -1.005591E+06  4.403706E+03 -1.003867E+04
        15   3 -2.563141E+06 -3.247089E+05  5.083803E+04 -1.003103E+06  6.116954E+03 -1.129684E+04
        15   4 -2.781506E+06 -4.060766E+05 -3.263085E+03 -1.062927E+06  1.238718E+03 -9.301080E+03
        15   5 -2.785971E+06 -4.014828E+05 -2.220833E+03 -1.057713E+06  2.977115E+03 -1.057417E+04
        15   6 -2.781505E+06 -4.060572E+05 -2.016628E+03 -1.062935E+06  4.708057E+03 -1.182591E+04
        15   7 -2.943379E+06 -4.664818E+05 -4.263877E+04 -1.107329E+06 -2.051896E+02 -9.842862E+03
        15   8 -2.976065E+06 -4.723561E+05 -4.833063E+04 -1.109821E+06  1.551006E+03 -1.110949E+04
        15   9 -2.999823E+06 -4.874025E+05 -5.487501E+04 -1.122748E+06  3.299697E+03 -1.235478E+04
        15  10 -2.619605E+06 -3.456691E+05  3.611090E+04 -1.018514E+06  2.695848E-09  1.544204E-09
        15  11 -2.595841E+06 -3.306068E+05  4.388621E+04 -1.005591E+06 -4.767967E-10 -6.811418E-10
        15  12 -2.563141E+06 -3.247091E+05  5.083772E+04 -1.003103E+06 -3.391399E-09 -4.435973E-10
        15  13 -2.781506E+06 -4.060767E+05 -3.263251E+03 -1.062927E+06  4.120133E-09  4.896987E-10
        15  14 -2.785971E+06 -4.014829E+05 -2.221060E+03 -1.057713E+06 -1.303678E-09 -8.725513E-10
        15  15 -2.781505E+06 -4.060574E+05 -2.016932E+03 -1.062935E+06 -8.821478E-10 -2.866189E-10
        15  16 -2.943379E+06 -4.664819E+05 -4.263895E+04 -1.107329E+06  1.326667E-09 -4.571819E-10
        15  17 -2.976065E+06 -4.723563E+05 -4.833086E+04 -1.109821E+06 -2.772915E-09 -4.395901E-10
        15  18 -2.999823E+06 -4.874026E+05 -5.487532E+04 -1.122748E+06  1.669404E-10  1.403549E-10
        15  19 -2.619605E+06 -3.456691E+05  3.611106E+04 -1.018514E+06 -2.683051E+03  8.759138E+03
        15  20 -2.595841E+06 -3.306067E+05  4.388643E+04 -1.005591E+06 -4.403706E+03  1.003867E+04
        15  21 -2.563141E+06 -3.247089E+05  5.083803E+04 -1.003103E+06 -6.116954E+03  1.129684E+04
        15  22 -2.781506E+06 -4.060766E+05 -3.263085E+03 -1.062927E+06 -1.238718E+03  9.301080E+03
        15  23 -2.785971E+06 -4.014828E+05 -2.220833E+03 -1.057713E+06 -2.977115E+03  1.057417E+04
        15  24 -2.781505E+06 -4.060572E+05 -2.016628E+03 -1.062935E+06 -4.708057E+03  1.182591E+04
        15  25 -2.943379E+06 -4.664818E+05 -4.263877E+04 -1.107329E+06  2.051896E+02  9.842862E+03
        15  26 -2.976065E+06 -4.723561E+05 -4.833063E+04 -1.109821E+06 -1.551006E+03  1.110949E+04
        15  27 -2.999823E+06 -4.874025E+05 -5.487501E+04 -1.122748E+06 -3.299697E+03  1.235478E+04
        16   1 -2.539691E+06 -3.158267E+05  5.658159E+04 -9.965819E+05  6.803226E+03 -1.213101E+04
        16   2 -2.516986E+06 -3.014653E+05  6.205716E+04 -9.842280E+05  8.938291E+03 -1.317250E+04
        16   3 -2.485812E+06 -2.959019E+05  6.637392E+04 -9.818399E+05  1.106210E+04 -1.418190E+04
        16   4 -2.781611E+06 -4.059668E+05 -2.176862E+03 -1.062836E+06  5.415118E+03 -1.265244E+04
        16   5 -2.785850E+06 -4.015974E+05 -3.124160E+03 -1.057842E+06  7.576676E+03 -1.368427E+04
        16   6 -2.781626E+06 -4.060314E+05 -5.251635E+03 -1.062814E+06  9.726911E+03 -1.468404E+04
        16   7 -3.023472E+06 -4.961024E+05 -6.093935E+04 -1.129065E+06  4.027608E+03 -1.317364E+04
        16   8 -3.054643E+06 -5.017244E+05 -6.831085E+04 -1.131426E+06  6.215706E+03 -1.419581E+04
        16   9 -3.077355E+06 -5.161554E+05 -7.688408E+04 -1.143753E+06  8.392411E+03 -1.518592E+04
        16  10 -2.539691E+06 -3.158269E+05  5.658122E+04 -9.965819E+05 -7.036256E-10  7.708590E-10
        16  11 -2.516986E+06 -3.014655E+05  6.205669E+04 -9.842279E+05 -1.235740E-10 -4.838647E-10
        16  12 -2.485812E+06 -2.959021E+05  6.637332E+04 -9.818397E+05  3.215439E-09 -7.005332E-10
        16  13 -2.781611E+06 -4.059670E+05 -2.177217E+03 -1.062836E+06 -1.732098E-10 -2.095080E-10
        16  14 -2.785850E+06 -4.015976E+05 -3.124619E+03 -1.057842E+06  1.345274E-09 -8.380232E-10
        16  15 -2.781626E+06 -4.060316E+05 -5.252218E+03 -1.062814E+06  2.500990E-09 -3.878014E-10
        16  16 -3.023472E+06 -4.961026E+05 -6.093970E+04 -1.129065E+06 -5.940870E-11 -9.866013E-10
        16  17 -3.054643E+06 -5.017247E+05 -6.831130E+04 -1.131426E+06  5.689929E-10 -8.169601E-10
        16  18 -3.077355E+06 -5.161557E+05 -7.688465E+04 -1.143753E+06  3.952765E-09  2.725514E-10
        16  19 -2.539691E+06 -3.158267E+05  5.658159E+04 -9.965819E+05 -6.803226E+03  1.213101E+04
        16  20 -2.516986E+06 -3.014653E+05  6.205716E+04 -9.842280E+05 -8.938291E+03  1.317250E+04
        16  21 -2.485812E+06 -2.959019E+05  6.637392E+04 -9.818399E+05 -1.106210E+04  1.418190E+04
        16  22 -2.781611E+06 -4.059668E+05 -2.176862E+03 -1.062836E+06 -5.415118E+03  1.265244E+04
        16  23 -2.785850E+06 -4.015974E+05 -3.124160E+03 -1.057842E+06 -7.576676E+03  1.368427E+04
        16  24 -2.781626E+06 -4.060314E+05 -5.251635E+03 -1.062814E+06 -9.726911E+03  1.468404E+04
        16  25 -3.023472E+06 -4.961024E+05 -6.093935E+04 -1.129065E+06 -4.027608E+03  1.317364E+04
        16  26 -3.054643E+06 -5.017244E+05 -6.831085E+04 -1.131426E+06 -6.215706E+03  1.419581E+04
        16  27 -3.077355E+06 -5.161554E+05 -7.688408E+04 -1.143753E+06 -8.392411E+03  1.518592E+04
        17   1 -2.463694E+06 -2.875254E+05  7.032993E+04 -9.759455E+05  1.238075E+04 -1.472135E+04
        17   2 -2.442140E+06 -2.738041E+05  7.093270E+04 -9.640446E+05  1.903332E+04 -1.394503E+04
        17   3 -2.413805E+06 -2.698802E+05  6.658010E+04 -9.612833E+05  2.566138E+04 -1.310074E+04
        17   4 -2.781942E+06 -4.058009E+05 -6.874789E+03 -1.062803E+06  1.106552E+04 -1.521619E+04
        17   5 -2.785434E+06 -4.015912E+05 -1.228109E+04 -1.057975E+06  1.777242E+04 -1.441981E+04
        17   6 -2.782156E+06 -4.071910E+05 -2.268800E+04 -1.062288E+06  2.445452E+04 -1.355554E+04
        17   7 -3.100089E+06 -5.240695E+05 -8.408703E+04 -1.149619E+06  9.751029E+03 -1.571076E+04
        17   8 -3.128610E+06 -5.293699E+05 -9.550338E+04 -1.151859E+06  1.651228E+04 -1.489430E+04
        17   9 -3.150371E+06 -5.444917E+05 -1.119657E+05 -1.163238E+06  2.324844E+04 -1.401005E+04
        17  10 -2.463695E+06 -2.875257E+05  7.032923E+04 -9.759453E+05  2.572557E-09 -1.704215E-10
        17  11 -2.442141E+06 -2.738044E+05  7.093165E+04 -9.640444E+05  4.602051E-09  2.142983E-09
        17  12 -2.413805E+06 -2.698806E+05  6.657854E+04 -9.612830E+05  8.880001E-09  2.706687E-09
        17  13 -2.781942E+06 -4.058012E+05 -6.875453E+03 -1.062803E+06 -1.572571E-10  3.614043E-10
        17  14 -2.785435E+06 -4.015915E+05 -1.228207E+04 -1.057975E+06  6.842858E-10  6.657282E-10
        17  15 -2.782157E+06 -4.071914E+05 -2.268947E+04 -1.062288E+06  2.624652E-10  5.882419E-10
        17  16 -3.100089E+06 -5.240698E+05 -8.408767E+04 -1.149619E+06  6.389406E-10  1.063981E-09
        17  17 -3.128610E+06 -5.293702E+05 -9.550431E+04 -1.151858E+06 -3.748620E-09 -9.572175E-10
        17  18 -3.150372E+06 -5.444921E+05 -1.119670E+05 -1.163238E+06 -5.796095E-09 -1.913940E-09
        17  19 -2.463694E+06 -2.875254E+05  7.032993E+04 -9.759455E+05 -1.238075E+04  1.472135E+04
        17  20 -2.442140E+06 -2.738041E+05  7.093270E+04 -9.640446E+05 -1.903332E+04  1.394503E+04
        17  21 -2.413805E+06 -2.698802E+05  6.658010E+04 -9.612833E+05 -2.566138E+04  1.310074E+04
        17  22 -2.781942E+06 -4.058009E+05 -6.874789E+03 -1.062803E+06 -1.106552E+04  1.521619E+04
        17  23 -2.785434E+06 -4.015912E+05 -1.228109E+04 -1.057975E+06 -1.777242E+04  1.441981E+04
        17  24 -2.782156E+06 -4.071910E+05 -2.268800E+04 -1.062288E+06 -2.445452E+04  1.355554E+04
        17  25 -3.100089E+06 -5.240695E+05 -8.408703E+04 -1.149619E+06 -9.751029E+03  1.571076E+04
        17  26 -3.128610E+06 -5.293699E+05 -9.550338E+04 -1.151859E+06 -1.651228E+04  1.489430E+04
        17  27 -3.150371E+06 -5.444917E+05 -1.119657E+05 -1.163238E+06 -2.324844E+04  1.401005E+04
        18   1 -2.391781E+06 -2.627014E+05  6.458818E+04 -9.606156E+05  3.034381E+04 -1.236499E+04
        18   2 -2.372510E+06 -2.452624E+05  4.630224E+04 -9.427467E+05  5.750579E+04 -3.576479E+03
        18   3 -2.358737E+06 -2.608303E+05  1.226128E+03 -9.277870E+05  8.441449E+04  5.889391E+03
        18   4 -2.783819E+06 -4.046840E+05 -2.981841E+04 -1.063796E+06  2.898251E+04 -1.287790E+04
        18   5 -2.782814E+06 -4.005798E+05 -5.367517E+04 -1.057670E+06  5.670237E+04 -3.880327E+03
        18   6 -2.787427E+06 -4.296066E+05 -1.047797E+05 -1.054453E+06  8.416796E+04  5.793787E+03
        18   7 -3.175706E+06 -5.466588E+05 -1.242368E+05 -1.166918E+06  2.762214E+04 -1.339049E+04
        18   8 -3.192951E+06 -5.558846E+05 -1.536655E+05 -1.172523E+06  5.589953E+04 -4.183955E+03
        18   9 -3.215934E+06 -5.983645E+05 -2.107997E+05 -1.181037E+06  8.392160E+04  5.698253E+03
        18  10 -2.391782E+06 -2.627018E+05  6.458616E+04 -9.606153E+05 -3.952707E-09 -2.196444E-09
        18  11 -2.372514E+06 -2.452633E+05  4.629598E+04 -9.427466E+05 -3.814347E-09 -4.350390E-10
        18  12 -2.358744E+06 -2.608322E+05  1.212619E+03 -9.277874E+05  3.851194E-09  1.980492E-10
        18  13 -2.783820E+06 -4.046844E+05 -2.982030E+04 -1.063795E+06  4.120415E-09  5.076183E-10
        18  14 -2.782817E+06 -4.005807E+05 -5.368127E+04 -1.057669E+06 -3.847286E-09  5.726856E-10
        18  15 -2.787434E+06 -4.296085E+05 -1.047931E+05 -1.054453E+06 -2.330422E-09 -5.498639E-10
        18  16 -3.175707E+06 -5.466592E+05 -1.242386E+05 -1.166917E+06  9.345248E-09  3.604478E-09
        18  17 -3.192954E+06 -5.558854E+05 -1.536715E+05 -1.172523E+06  1.411901E-09  1.137515E-09
        18  18 -3.215941E+06 -5.983664E+05 -2.108130E+05 -1.181037E+06 -4.147222E-09 -1.235170E-09
        18  19 -2.391781E+06 -2.627014E+05  6.458818E+04 -9.606156E+05 -3.034381E+04  1.236499E+04
        18  20 -2.372510E+06 -2.452624E+05  4.630224E+04 -9.427467E+05 -5.750579E+04  3.576479E+03
        18  21 -2.358737E+06 -2.608303E+05  1.226128E+03 -9.277870E+05 -8.441449E+04 -5.889391E+03
        18  22 -2.783819E+06 -4.046840E+05 -2.981841E+04 -1.063796E+06 -2.898251E+04  1.287790E+04
        18  23 -2.782814E+06 -4.005798E+05 -5.367517E+04 -1.057670E+06 -5.670237E+04  3.880327E+03
        18  24 -2.787427E+06 -4.296066E+05 -1.047797E+05 -1.054453E+06 -8.416796E+04 -5.793787E+03
        18  25 -3.175706E+06 -5.466588E+05 -1.242368E+05 -1.166918E+06 -2.762214E+04  1.339049E+04
        18  26 -3.192951E+06 -5.558846E+05 -1.536655E+05 -1.172523E+06 -5.589953E+04  4.183955E+03
        18  27 -3.215934E+06 -5.983645E+05 -2.107997E+05 -1.181037E+06 -8.392160E+04 -5.698253E+03
        19   1 -2.307701E+06 -2.622497E+05 -2.221355E+04 -1.003478E+06  1.062122E+05  1.166450E+04
        19   2 -2.324700E+06 -1.660101E+05 -1.159547E+05 -8.682707E+05  2.184769E+05  5.612197E+04
        19   3 -2.502199E+06 -4.794122E+05 -4.044895E+05 -6.360935E+05  3.254697E+05  1.145918E+05
        19   4 -2.804544E+06 -3.887772E+05 -1.321234E+05 -1.079314E+06  1.018129E+05  1.001797E+04
        19   5 -2.752609E+06 -3.887659E+05 -2.324495E+05 -1.050300E+06  2.258848E+05  5.888449E+04
        19   6 -2.863689E+06 -8.009868E+05 -5.370642E+05 -9.242664E+05  3.446938E+05  1.217168E+05
        19   7 -3.301135E+06 -5.153096E+05 -2.420456E+05 -1.155108E+06  9.741741E+04  8.371842E+03
        19   8 -3.180324E+06 -6.114500E+05 -3.489587E+05 -1.232198E+06  2.332870E+05  6.164298E+04
        19   9 -3.224965E+06 -1.122281E+06 -6.696374E+05 -1.212229E+06  3.639058E+05  1.288228E+05
        19  10 -2.307713E+06 -2.622529E+05 -2.223509E+04 -1.003479E+06 -5.404076E-10 -9.626252E-10
        19  11 -2.324752E+06 -1.660264E+05 -1.160507E+05 -8.682806E+05  3.247924E-09  3.183489E-09
        19  12 -2.502317E+06 -4.794549E+05 -4.047142E+05 -6.361236E+05  4.089462E-09  2.016082E-09
        19  13 -2.804555E+06 -3.887801E+05 -1.321432E+05 -1.079315E+06  2.866613E-09  4.556175E-10
        19  14 -2.752665E+06 -3.887834E+05 -2.325525E+05 -1.050311E+06  6.517097E-10  2.340369E-09
        19  15 -2.863822E+06 -8.010349E+05 -5.373167E+05 -9.243003E+05  2.552490E-09  7.786588E-10
        19  16 -3.301145E+06 -5.153122E+05 -2.420637E+05 -1.155109E+06  5.022934E-09  1.767548E-09
        19  17 -3.180384E+06 -6.114689E+05 -3.490687E+05 -1.232209E+06  5.151758E-09  3.164007E-09
        19  18 -3.225112E+06 -1.122335E+06 -6.699191E+05 -1.212267E+06 -2.323505E-09 -1.666670E-10
        19  19 -2.307701E+06 -2.622497E+05 -2.221355E+04 -1.003478E+06 -1.062122E+05 -1.166450E+04
        19  20 -2.324700E+06 -1.660101E+05 -1.159547E+05 -8.682707E+05 -2.184769E+05 -5.612197E+04
        19  21 -2.502199E+06 -4.794122E+05 -4.044895E+05 -6.360935E+05 -3.254697E+05 -1.145918E+05
        19  22 -2.804544E+06 -3.887772E+05 -1.321234E+05 -1.079314E+06 -1.018129E+05 -1.001797E+04
        19  23 -2.752609E+06 -3.887659E+05 -2.324495E+05 -1.050300E+06 -2.258848E+05 -5.888449E+04
        19  24 -2.863689E+06 -8.009868E+05 -5.370642E+05 -9.242664E+05 -3.446938E+05 -1.217168E+05
        19  25 -3.301135E+06 -5.153096E+05 -2.420456E+05 -1.155108E+06 -9.741741E+04 -8.371842E+03
        19  26 -3.180324E+06 -6.114500E+05 -3.489587E+05 -1.232198E+06 -2.332870E+05 -6.164298E+04
        19  27 -3.224965E+06 -1.122281E+06 -6.696374E+05 -1.212229E+06 -3.639058E+05 -1.288228E+05
        20   1 -7.287516E+05  3.390250E+04  4.070711E+04  1.610951E+04  2.797686E+04  7.267705E-01
        20   2 -7.334505E+05 -8.437906E+01  1.854190E+04  5.619198E+03  1.815577E+04  1.645153E-01
        20   3 -7.287649E+05 -1.664072E+03  1.087827E+04 -4.870849E+03  8.334799E+03 -6.546572E-02
        20   4 -7.287519E+05  3.390201E+04  4.070704E+04 -5.814742E-09  2.797686E+04  5.028612E-10
        20   5 -7.334506E+05 -8.443847E+01  1.854189E+04 -2.912174E-09  1.815577E+04  1.265979E-09
        20   6 -7.287649E+05 -1.664117E+03  1.087826E+04  5.643806E-09  8.334799E+03  4.307091E-10
        20   7 -7.287516E+05  3.390250E+04  4.070711E+04 -1.610951E+04  2.797686E+04 -7.267705E-01
        20   8 -7.334505E+05 -8.437906E+01  1.854190E+04 -5.619198E+03  1.815577E+04 -1.645153E-01
        20   9 -7.287649E+05 -1.664072E+03  1.087827E+04  4.870849E+03  8.334799E+03  6.546572E-02
        20  10 -7.287525E+05  3.390229E+04  4.070563E+04  1.610951E+04 -1.072648E-09 -1.560895E-10
        20  11 -7.334509E+05 -8.446768E+01  1.854128E+04  5.619198E+03 -2.247167E-09 -4.703593E-10
        20  12 -7.287649E+05 -1.664091E+03  1.087814E+04 -4.870849E+03 -1.518615E-09 -1.283429E-10
        20  13 -7.287528E+05  3.390180E+04  4.070556E+04 -1.518585E-09  1.109657E-09 -1.603831E-11
        20  14 -7.334509E+05 -8.452709E+01  1.854127E+04  1.436443E-09  8.408952E-12  5.233921E-11
        20  15 -7.287650E+05 -1.664135E+03  1.087813E+04  3.316987E-09 -2.271431E-09  3.896239E-10
        20  16 -7.287525E+05  3.390229E+04  4.070563E+04 -1.610951E+04  4.305075E-10  1.288934E-10
        20  17 -7.334509E+05 -8.446768E+01  1.854128E+04 -5.619198E+03  1.051202E-09  5.908789E-10
        20  18 -7.287649E+05 -1.664091E+03  1.087814E+04  4.870849E+03 -1.539558E-09  8.871924E-10
        20  19 -7.287516E+05  3.390250E+04  4.070711E+04  1.610951E+04 -2.797686E+04 -7.267705E-01
        20  20 -7.334505E+05 -8.437906E+01  1.854190E+04  5.619198E+03 -1.815577E+04 -1.645153E-01
        20  21 -7.287649E+05 -1.664072E+03  1.087827E+04 -4.870849E+03 -8.334799E+03  6.546572E-02
        20  22 -7.287519E+05  3.390201E+04  4.070704E+04  6.326643E-10 -2.797686E+04 -5.450849E-10
        20  23 -7.334506E+05 -8.443847E+01  1.854189E+04  3.630748E-09 -1.815577E+04 -1.107438E-09
        20  24 -7.287649E+05 -1.664117E+03  1.087826E+04  5.823540E-09 -8.334799E+03  3.370880E-10
        20  25 -7.287516E+05  3.390250E+04  4.070711E+04 -1.610951E+04 -2.797686E+04  7.267705E-01
        20  26 -7.334505E+05 -8.437906E+01  1.854190E+04 -5.619198E+03 -1.815577E+04  1.645153E-01
        20  27 -7.287649E+05 -1.664072E+03  1.087827E+04  4.870849E+03 -8.334799E+03 -6.546572E-02
        21   1 -7.306765E+05  1.858627E+03  8.644314E+03  6.460670E+02  6.792962E+03  7.077048E-03
        21   2 -7.310636E+05 -5.833599E+01  4.667043E+03  1.469176E+02  4.450266E+03  1.054327E-03
        21   3 -7.306781E+05 -1.074043E+02  2.683348E+03 -3.522399E+02  2.107541E+03 -1.197100E-03
        21   4 -7.306765E+05  1.858626E+03  8.644314E+03 -7.399814E-10  6.792962E+03  8.415263E-11
        21   5 -7.310636E+05 -5.833603E+01  4.667043E+03 -5.268704E-09  4.450266E+03 -9.746049E-11
        21   6 -7.306781E+05 -1.074045E+02  2.683348E+03  6.904988E-10  2.107541E+03 -1.657797E-09
        21   7 -7.306765E+05  1.858627E+03  8.644314E+03 -6.460670E+02  6.792962E+03 -7.077048E-03
        21   8 -7.310636E+05 -5.833599E+01  4.667043E+03 -1.469176E+02  4.450266E+03 -1.054328E-03
        21   9 -7.306781E+05 -1.074043E+02  2.683348E+03  3.522399E+02  2.107541E+03  1.197097E-03
        21  10 -7.306766E+05  1.858615E+03  8.644228E+03  6.460670E+02  3.355526E-10  4.383942E-10
        21  11 -7.310636E+05 -5.834131E+01  4.667005E+03  1.469176E+02 -1.383705E-09  7.199399E-10
        21  12 -7.306781E+05 -1.074055E+02  2.683340E+03 -3.522399E+02  7.327420E-11 -3.886200E-10
        21  13 -7.306766E+05  1.858614E+03  8.644227E+03 -5.115975E-09 -9.527800E-10  4.005149E-10
        21  14 -7.310636E+05 -5.834135E+01  4.667005E+03 -8.562786E-09  8.120743E-10  3.041336E-11
        21  15 -7.306781E+05 -1.074057E+02  2.683340E+03 -9.854193E-09  5.632755E-10 -2.469097E-10
        21  16 -7.306766E+05  1.858615E+03  8.644228E+03 -6.460670E+02 -1.471079E-09  3.290853E-10
        21  17 -7.310636E+05 -5.834131E+01  4.667005E+03 -1.469176E+02  1.031857E-09 -6.567307E-10
        21  18 -7.306781E+05 -1.074055E+02  2.683340E+03  3.522399E+02  1.739244E-09 -1.034084E-10
        21  19 -7.306765E+05  1.858627E+03  8.644314E+03  6.460670E+02 -6.792962E+03 -7.077047E-03
        21  20 -7.310636E+05 -5.833599E+01  4.667043E+03  1.469176E+02 -4.450266E+03 -1.054326E-03
        21  21 -7.306781E+05 -1.074043E+02  2.683348E+03 -3.522399E+02 -2.107541E+03  1.197099E-03
        21  22 -7.306765E+05  1.858626E+03  8.644314E+03 -9.502484E-09 -6.792962E+03  7.128541E-10
        21  23 -7.310636E+05 -5.833603E+01  4.667043E+03 -5.400093E-09 -4.450266E+03  1.951587E-10
        21  24 -7.306781E+05 -1.074045E+02  2.683348E+03  8.513990E-10 -2.107541E+03  1.158941E-09
        21  25 -7.306765E+05  1.858627E+03  8.644314E+03 -6.460670E+02 -6.792962E+03  7.077049E-03
        21  26 -7.310636E+05 -5.833599E+01  4.667043E+03 -1.469176E+02 -4.450266E+03  1.054326E-03
        21  27 -7.306781E+05 -1.074043E+02  2.683348E+03  3.522399E+02 -2.107541E+03 -1.197097E-03
        22   1 -7.308273E+05  8.565496E+01  2.047745E+03 -3.241120E+01  1.691261E+03 -8.839542E-05
        22   2 -7.308779E+05 -1.622290E+01  1.135363E+03 -3.643284E+01  1.128432E+03 -6.629486E-05
        22   3 -7.308276E+05 -8.531151E+00  6.171249E+02 -4.045448E+01  5.656043E+02 -3.689673E-05
        22   4 -7.308273E+05  8.565496E+01  2.047745E+03  6.812259E-09  1.691261E+03 -1.312950E-09
        22   5 -7.308779E+05 -1.622290E+01  1.135363E+03 -5.227100E-09  1.128432E+03  6.829470E-10
        22   6 -7.308276E+05 -8.531154E+00  6.171249E+02  3.726238E-09  5.656043E+02  2.425743E-10
        22   7 -7.308273E+05  8.565496E+01  2.047745E+03  3.241120E+01  1.691261E+03  8.839279E-05
        22   8 -7.308779E+05 -1.622290E+01  1.135363E+03  3.643284E+01  1.128432E+03  6.629631E-05
        22   9 -7.308276E+05 -8.531151E+00  6.171249E+02  4.045448E+01  5.656043E+02  3.689732E-05
        22  10 -7.308273E+05  8.565419E+01  2.047740E+03 -3.241120E+01 -1.591090E-10 -5.569700E-10
        22  11 -7.308779E+05 -1.622324E+01  1.135360E+03 -3.643284E+01  6.717040E-11  4.636407E-11
        22  12 -7.308276E+05 -8.531237E+00  6.171243E+02 -4.045448E+01 -5.040333E-10 -5.419505E-11
        22  13 -7.308273E+05  8.565419E+01  2.047740E+03  2.660149E-09 -2.186953E-09 -4.443071E-11
        22  14 -7.308779E+05 -1.622324E+01  1.135360E+03  1.383132E-10 -1.416787E-09  3.204605E-10
        22  15 -7.308276E+05 -8.531240E+00  6.171243E+02  2.993454E-09 -5.762602E-10 -2.003898E-10
        22  16 -7.308273E+05  8.565419E+01  2.047740E+03  3.241120E+01  1.681202E-10  5.268739E-10
        22  17 -7.308779E+05 -1.622324E+01  1.135360E+03  3.643284E+01  1.547817E-09  5.556561E-10
        22  18 -7.308276E+05 -8.531237E+00  6.171243E+02  4.045448E+01 -1.189502E-09 -3.266279E-10
        22  19 -7.308273E+05  8.565496E+01  2.047745E+03 -3.241120E+01 -1.691261E+03  8.839431E-05
        22  20 -7.308779E+05 -1.622290E+01  1.135363E+03 -3.643284E+01 -1.128432E+03  6.629531E-05
        22  21 -7.308276E+05 -8.531151E+00  6.171249E+02 -4.045448E+01 -5.656043E+02  3.689669E-05
        22  22 -7.308273E+05  8.565496E+01  2.047745E+03  7.133899E-09 -1.691261E+03  1.219322E-09
        22  23 -7.308779E+05 -1.622290E+01  1.135363E+03 -5.259685E-09 -1.128432E+03 -5.449897E-11
        22  24 -7.308276E+05 -8.531154E+00  6.171249E+02  7.646056E-09 -5.656043E+02 -6.541096E-10
        22  25 -7.308273E+05  8.565496E+01  2.047745E+03  3.241120E+01 -1.691261E+03 -8.839189E-05
        22  26 -7.308779E+05 -1.622290E+01  1.135363E+03  3.643284E+01 -1.128432E+03 -6.629541E-05
        22  27 -7.308276E+05 -8.531151E+00  6.171249E+02  4.045448E+01 -5.656043E+02 -3.689808E-05
        23   1 -7.308473E+05  1.294737E-01  4.390231E+02 -2.143246E+01  4.704777E+02 -1.625989E-05
        23   2 -7.308535E+05 -2.476833E+00  1.691120E+02 -1.851851E+01  3.868572E+02 -1.155156E-05
        23   3 -7.308474E+05  9.189280E-01 -4.481256E+01 -1.560460E+01  3.032379E+02 -7.630007E-06
        23   4 -7.308473E+05  1.294729E-01  4.390231E+02  5.348898E-09  4.704777E+02  6.892633E-11
        23   5 -7.308535E+05 -2.476834E+00  1.691120E+02  6.369330E-09  3.868572E+02  6.855135E-10
        23   6 -7.308474E+05  9.189276E-01 -4.481256E+01 -6.820141E-10  3.032379E+02  7.977869E-11
        23   7 -7.308473E+05  1.294738E-01  4.390231E+02  2.143246E+01  4.704777E+02  1.626007E-05
        23   8 -7.308535E+05 -2.476833E+00  1.691120E+02  1.851851E+01  3.868572E+02  1.155287E-05
        23   9 -7.308474E+05  9.189280E-01 -4.481256E+01  1.560460E+01  3.032379E+02  7.630179E-06
        23  10 -7.308473E+05  1.294142E-01  4.390227E+02 -2.143246E+01 -5.424971E-10 -1.304403E-10
        23  11 -7.308535E+05 -2.476874E+00  1.691117E+02 -1.851851E+01 -7.439372E-10  1.189972E-10
        23  12 -7.308474E+05  9.189033E-01 -4.481273E+01 -1.560460E+01  1.702316E-10  2.320430E-12
        23  13 -7.308473E+05  1.294134E-01  4.390227E+02  1.187324E-09  1.970766E-09 -2.821887E-10
        23  14 -7.308535E+05 -2.476874E+00  1.691117E+02 -9.797037E-11  1.405031E-10  5.521557E-11
        23  15 -7.308474E+05  9.189029E-01 -4.481273E+01 -2.459922E-09  1.531815E-09 -3.496316E-10
        23  16 -7.308473E+05  1.294142E-01  4.390227E+02  2.143246E+01  1.776476E-09 -4.526647E-10
        23  17 -7.308535E+05 -2.476874E+00  1.691117E+02  1.851851E+01  8.760315E-10 -4.081809E-11
        23  18 -7.308474E+05  9.189033E-01 -4.481273E+01  1.560460E+01  9.757462E-10 -6.899451E-10
        23  19 -7.308473E+05  1.294737E-01  4.390231E+02 -2.143246E+01 -4.704777E+02  1.625969E-05
        23  20 -7.308535E+05 -2.476833E+00  1.691120E+02 -1.851851E+01 -3.868572E+02  1.155200E-05
        23  21 -7.308474E+05  9.189281E-01 -4.481256E+01 -1.560460E+01 -3.032379E+02  7.629987E-06
        23  22 -7.308473E+05  1.294729E-01  4.390231E+02  7.793371E-09 -4.704777E+02 -6.211701E-10
        23  23 -7.308535E+05 -2.476834E+00  1.691120E+02  4.207607E-09 -3.868572E+02 -5.595528E-10
        23  24 -7.308474E+05  9.189276E-01 -4.481256E+01 -9.920924E-10 -3.032379E+02 -7.635101E-10
        23  25 -7.308473E+05  1.294737E-01  4.390231E+02  2.143246E+01 -4.704777E+02 -1.626107E-05
        23  26 -7.308535E+05 -2.476833E+00  1.691120E+02  1.851851E+01 -3.868572E+02 -1.155312E-05
        23  27 -7.308474E+05  9.189281E-01 -4.481256E+01  1.560460E+01 -3.032379E+02 -7.631592E-06
        24   1 -7.308567E+05  8.333564E-01 -1.527165E+02 -1.650297E+01  3.211420E+02 -8.545792E-06
        24   2 -7.308420E+05  6.079437E+00 -4.135496E+02 -2.485682E+01  5.255536E+02 -2.106522E-05
        24   3 -7.308568E+05  2.544512E-01 -8.103463E+02 -3.321079E+01  7.299681E+02 -3.909234E-05
        24   4 -7.308567E+05  8.333559E-01 -1.527165E+02  8.705755E-09  3.211420E+02  1.661054E-10
        24   5 -7.308420E+05  6.079436E+00 -4.135496E+02  4.842914E-09  5.255536E+02  9.282697E-10
        24   6 -7.308568E+05  2.544491E-01 -8.103463E+02  8.779531E-09  7.299681E+02  2.245528E-10
        24   7 -7.308567E+05  8.333564E-01 -1.527165E+02  1.650297E+01  3.211420E+02  8.546252E-06
        24   8 -7.308420E+05  6.079437E+00 -4.135496E+02  2.485682E+01  5.255536E+02  2.106678E-05
        24   9 -7.308568E+05  2.544512E-01 -8.103463E+02  3.321079E+01  7.299681E+02  3.909283E-05
        24  10 -7.308567E+05  8.333287E-01 -1.527167E+02 -1.650297E+01 -1.039332E-09  4.161192E-11
        24  11 -7.308420E+05  6.079363E+00 -4.135501E+02 -2.485682E+01  5.337883E-10  3.071976E-10
        24  12 -7.308568E+05  2.543079E-01 -8.103473E+02 -3.321079E+01  2.782397E-09  7.461913E-10
        24  13 -7.308567E+05  8.333281E-01 -1.527167E+02  3.300496E-10  1.043021E-09 -2.228538E-10
        24  14 -7.308420E+05  6.079362E+00 -4.135501E+02 -1.555014E-09 -1.813092E-09  5.154645E-10
        24  15 -7.308568E+05  2.543059E-01 -8.103473E+02 -4.514634E-09 -2.524967E-09  3.985165E-10
        24  16 -7.308567E+05  8.333287E-01 -1.527167E+02  1.650297E+01  4.429174E-11 -4.301365E-10
        24  17 -7.308420E+05  6.079363E+00 -4.135501E+02  2.485682E+01 -1.482578E-09  7.799200E-10
        24  18 -7.308568E+05  2.543079E-01 -8.103473E+02  3.321079E+01 -2.091434E-09  8.154123E-11
        24  19 -7.308567E+05  8.333564E-01 -1.527165E+02 -1.650297E+01 -3.211420E+02  8.545846E-06
        24  20 -7.308420E+05  6.079437E+00 -4.135496E+02 -2.485682E+01 -5.255536E+02  2.106596E-05
        24  21 -7.308568E+05  2.544512E-01 -8.103463E+02 -3.321079E+01 -7.299681E+02  3.909377E-05
        24  22 -7.308567E+05  8.333559E-01 -1.527165E+02  1.132682E-08 -3.211420E+02 -6.095276E-10
        24  23 -7.308420E+05  6.079436E+00 -4.135496E+02 -3.646313E-09 -5.255536E+02  1.332459E-10
        24  24 -7.308568E+05  2.544491E-01 -8.103463E+02 -2.204624E-09 -7.299681E+02  5.611678E-10
        24  25 -7.308567E+05  8.333564E-01 -1.527165E+02  1.650297E+01 -3.211420E+02 -8.547206E-06
        24  26 -7.308420E+05  6.079437E+00 -4.135496E+02  2.485682E+01 -5.255536E+02 -2.106551E-05
        24  27 -7.308568E+05  2.544512E-01 -8.103463E+02  3.321079E+01 -7.299681E+02 -3.909271E-05
        25   1 -7.308883E+05  1.501393E+01 -1.090634E+03 -6.532518E+01  9.012774E+02 -9.494051E-05
        25   2 -7.308030E+05  2.766458E+01 -1.934763E+03 -5.948756E+01  1.860334E+03 -1.784560E-04
        25   3 -7.308888E+05 -1.434193E+02 -3.449759E+03 -5.364993E+01  2.819390E+03 -2.439164E-04
        25   4 -7.308883E+05  1.501392E+01 -1.090634E+03  3.473731E-09  9.012774E+02  7.091718E-11
        25   5 -7.308030E+05  2.766457E+01 -1.934763E+03 -4.226113E-09  1.860334E+03  2.247952E-10
        25   6 -7.308888E+05 -1.434193E+02 -3.449759E+03  4.598100E-10  2.819390E+03 -1.142354E-09
        25   7 -7.308883E+05  1.501393E+01 -1.090634E+03  6.532518E+01  9.012774E+02  9.494068E-05
        25   8 -7.308030E+05  2.766458E+01 -1.934763E+03  5.948756E+01  1.860334E+03  1.784564E-04
        25   9 -7.308888E+05 -1.434193E+02 -3.449759E+03  5.364993E+01  2.819390E+03  2.439142E-04
        25  10 -7.308883E+05  1.501371E+01 -1.090635E+03 -6.532518E+01 -7.311626E-10  4.479639E-10
        25  11 -7.308030E+05  2.766365E+01 -1.934769E+03 -5.948756E+01 -9.264661E-10 -2.833192E-10
        25  12 -7.308888E+05 -1.434214E+02 -3.449774E+03 -5.364993E+01 -1.203306E-09 -2.814865E-10
        25  13 -7.308883E+05  1.501370E+01 -1.090635E+03  1.193231E-09  1.488278E-10  1.401257E-11
        25  14 -7.308030E+05  2.766364E+01 -1.934769E+03  6.500524E-09 -1.755402E-09 -3.872257E-10
        25  15 -7.308888E+05 -1.434214E+02 -3.449774E+03 -2.192942E-09 -1.720142E-09 -4.128873E-10
        25  16 -7.308883E+05  1.501371E+01 -1.090635E+03  6.532518E+01 -1.413741E-09 -4.191437E-10
        25  17 -7.308030E+05  2.766365E+01 -1.934769E+03  5.948756E+01  1.138304E-10 -5.211601E-10
        25  18 -7.308888E+05 -1.434214E+02 -3.449774E+03  5.364993E+01  1.155227E-09 -5.378591E-10
        25  19 -7.308883E+05  1.501393E+01 -1.090634E+03 -6.532518E+01 -9.012774E+02  9.494155E-05
        25  20 -7.308030E+05  2.766458E+01 -1.934763E+03 -5.948756E+01 -1.860334E+03  1.784557E-04
        25  21 -7.308888E+05 -1.434193E+02 -3.449759E+03 -5.364993E+01 -2.819390E+03  2.439159E-04
        25  22 -7.308883E+05  1.501392E+01 -1.090634E+03  3.224617E-09 -9.012774E+02 -4.973272E-11
        25  23 -7.308030E+05  2.766457E+01 -1.934763E+03  7.535139E-09 -1.860334E+03 -9.903113E-10
        25  24 -7.308888E+05 -1.434193E+02 -3.449759E+03  9.145606E-09 -2.819390E+03  3.314586E-10
        25  25 -7.308883E+05  1.501393E+01 -1.090634E+03  6.532518E+01 -9.012774E+02 -9.494171E-05
        25  26 -7.308030E+05  2.766458E+01 -1.934763E+03  5.948756E+01 -1.860334E+03 -1.784576E-04
        25  27 -7.308888E+05 -1.434193E+02 -3.449759E+03  5.364993E+01 -2.819390E+03 -2.439153E-04
        26   1 -7.311384E+05  1.801656E+02 -4.510249E+03 -5.896202E+02  3.519863E+03 -3.346676E-03
        26   2 -7.304922E+05  9.787751E+01 -7.827981E+03  2.465910E+02  7.449344E+03  2.962169E-03
        26   3 -7.311410E+05 -3.114424E+03 -1.448865E+04  1.082792E+03  1.137875E+04  1.986800E-02
        26   4 -7.311385E+05  1.801650E+02 -4.510249E+03  6.208100E-09  3.519863E+03 -1.387795E-09
        26   5 -7.304922E+05  9.787740E+01 -7.827981E+03 -2.737429E-09  7.449344E+03 -5.830498E-10
        26   6 -7.311410E+05 -3.114426E+03 -1.448865E+04  1.466249E-10  1.137875E+04 -8.934848E-10
        26   7 -7.311384E+05  1.801656E+02 -4.510249E+03  5.896202E+02  3.519863E+03  3.346673E-03
        26   8 -7.304922E+05  9.787751E+01 -7.827981E+03 -2.465910E+02  7.449344E+03 -2.962170E-03
        26   9 -7.311410E+05 -3.114424E+03 -1.448865E+04 -1.082792E+03  1.137875E+04 -1.986800E-02
        26  10 -7.311385E+05  1.801623E+02 -4.510273E+03 -5.896202E+02 -3.756948E-10 -1.827832E-10
        26  11 -7.304923E+05  9.786259E+01 -7.828086E+03  2.465910E+02 -1.304431E-10 -1.616214E-11
        26  12 -7.311411E+05 -3.114458E+03 -1.448890E+04  1.082792E+03  7.441417E-10 -2.627077E-10
        26  13 -7.311385E+05  1.801616E+02 -4.510273E+03  6.312164E-09 -1.461416E-27 -1.748582E-10
        26  14 -7.304923E+05  9.786248E+01 -7.828086E+03  2.629060E-09  8.018100E-10  4.854833E-11
        26  15 -7.311411E+05 -3.114461E+03 -1.448890E+04 -3.752017E-09  1.085405E-09 -3.319668E-10
        26  16 -7.311385E+05  1.801623E+02 -4.510273E+03  5.896202E+02  3.714903E-10 -2.338348E-10
        26  17 -7.304923E+05  9.786259E+01 -7.828086E+03 -2.465910E+02  9.807487E-10  8.211856E-11
        26  18 -7.311411E+05 -3.114458E+03 -1.448890E+04 -1.082792E+03  2.031950E-09 -3.620376E-10
        26  19 -7.311384E+05  1.801656E+02 -4.510249E+03 -5.896202E+02 -3.519863E+03  3.346676E-03
        26  20 -7.304922E+05  9.787751E+01 -7.827981E+03  2.465910E+02 -7.449344E+03 -2.962169E-03
        26  21 -7.311410E+05 -3.114424E+03 -1.448865E+04  1.082792E+03 -1.137875E+04 -1.986800E-02
        26  22 -7.311385E+05  1.801650E+02 -4.510249E+03  6.423579E-09 -3.519863E+03  1.049552E-09
        26  23 -7.304922E+05  9.787740E+01 -7.827981E+03  5.841169E-09 -7.449344E+03  6.425771E-10
        26  24 -7.311410E+05 -3.114426E+03 -1.448865E+04  1.227575E-09 -1.137875E+04  2.070362E-10
        26  25 -7.311384E+05  1.801656E+02 -4.510249E+03  5.896202E+02 -3.519863E+03 -3.346674E-03
        26  26 -7.304922E+05  9.787751E+01 -7.827981E+03 -2.465910E+02 -7.449344E+03  2.962170E-03
        26  27 -7.311410E+05 -3.114424E+03 -1.448865E+04 -1.082792E+03 -1.137875E+04  1.986800E-02
        27   1 -7.343438E+05  2.788751E+03 -1.823034E+04 -8.161770E+03  1.396271E+04 -1.837686E-01
        27   2 -7.264922E+05  1.416757E+02 -3.106767E+04  9.416243E+03  3.042031E+04  4.619051E-01
        27   3 -7.343642E+05 -5.680585E+04 -6.820309E+04  2.699421E+04  4.687820E+04  2.040589E+00
        27   4 -7.343439E+05  2.788626E+03 -1.823036E+04 -4.458630E-09  1.396271E+04 -8.310683E-10
        27   5 -7.264923E+05  1.415089E+02 -3.106769E+04  3.775027E-09  3.042031E+04 -4.282699E-11
        27   6 -7.343649E+05 -5.680722E+04 -6.820328E+04  2.323847E-09  4.687820E+04  2.956749E-11
        27   7 -7.343438E+05  2.788751E+03 -1.823034E+04  8.161770E+03  1.396271E+04  1.837686E-01
        27   8 -7.264922E+05  1.416757E+02 -3.106767E+04 -9.416243E+03  3.042031E+04 -4.619051E-01
        27   9 -7.343642E+05 -5.680585E+04 -6.820309E+04 -2.699421E+04  4.687820E+04 -2.040589E+00
        27  10 -7.343440E+05  2.788699E+03 -1.823070E+04 -8.161770E+03  1.008445E-10 -2.746838E-10
        27  11 -7.264932E+05  1.414269E+02 -3.106941E+04  9.416243E+03  9.627343E-10  1.779612E-11
        27  12 -7.343665E+05 -5.680644E+04 -6.820722E+04  2.699421E+04  1.927871E-10  2.334475E-11
        27  13 -7.343441E+05  2.788573E+03 -1.823072E+04 -8.671734E-09  1.884513E-09 -4.108481E-10
        27  14 -7.264932E+05  1.412601E+02 -3.106943E+04 -6.946499E-09  1.762730E-09 -8.915306E-11
        27  15 -7.343673E+05 -5.680781E+04 -6.820742E+04 -1.452788E-09 -1.952485E-09  9.923208E-12
        27  16 -7.343440E+05  2.788699E+03 -1.823070E+04  8.161770E+03 -8.344323E-10 -5.529345E-10
        27  17 -7.264932E+05  1.414269E+02 -3.106941E+04 -9.416243E+03 -9.868685E-10 -1.786884E-10
        27  18 -7.343665E+05 -5.680644E+04 -6.820722E+04 -2.699421E+04  7.562783E-11 -1.315862E-11
        27  19 -7.343438E+05  2.788751E+03 -1.823034E+04 -8.161770E+03 -1.396271E+04  1.837686E-01
        27  20 -7.264922E+05  1.416757E+02 -3.106767E+04  9.416243E+03 -3.042031E+04 -4.619051E-01
        27  21 -7.343642E+05 -5.680585E+04 -6.820309E+04  2.699421E+04 -4.687820E+04 -2.040589E+00
        27  22 -7.343439E+05  2.788626E+03 -1.823036E+04 -4.269419E-09 -1.396271E+04  4.896179E-12
        27  23 -7.264923E+05  1.415089E+02 -3.106769E+04 -6.903399E-09 -3.042031E+04 -1.393016E-10
        27  24 -7.343649E+05 -5.680722E+04 -6.820328E+04  5.274084E-09 -4.687820E+04 -8.095544E-12
        27  25 -7.343438E+05  2.788751E+03 -1.823034E+04  8.161770E+03 -1.396271E+04 -1.837686E-01
        27  26 -7.264922E+05  1.416757E+02 -3.106767E+04 -9.416243E+03 -3.042031E+04  4.619051E-01
        27  27 -7.343642E+05 -5.680585E+04 -6.820309E+04 -2.699421E+04 -4.687820E+04  2.040589E+00
        28   1  6.476766E+05  2.150931E+06  6.926072E+05 -2.700940E+05  1.910116E+04  2.677042E+05
        28   2  3.216254E+05  1.887624E+06  4.443099E+05 -1.431942E+05  5.860901E+04  1.506712E+05
        28   3  2.553963E+05  1.704901E+06  3.370845E+05 -1.067719E+05  5.685287E+04  3.367157E+04
        28   4  2.640146E+05  6.050277E+05  3.181817E+05 -1.434134E+05  1.917965E+04  2.124732E+05
        28   5 -9.034797E+02  5.680708E+05  1.497712E+05 -9.827566E+04  5.864224E+04  1.333363E+05
        28   6 -1.227795E+04  6.052672E+05  9.636062E+04 -1.435914E+05  5.683232E+04  5.418527E+04
        28   7 -1.197607E+05 -9.386577E+05 -5.639585E+04 -1.704795E+04  1.923582E+04  1.573784E+05
        28   8 -3.235430E+05 -7.498585E+05 -1.448746E+05 -5.345290E+04  5.867301E+04  1.160375E+05
        28   9 -2.800274E+05 -4.932332E+05 -1.444342E+05 -1.803446E+05  5.680931E+04  7.466310E+04
        28  10  6.476570E+05  2.150854E+06  6.924723E+05 -2.700981E+05 -3.205143E-10  7.622271E-10
        28  11  3.216157E+05  1.887598E+06  4.442609E+05 -1.432014E+05 -1.258426E-09  1.389608E-10
        28  12  2.553926E+05  1.704899E+06  3.370763E+05 -1.067734E+05 -1.980986E-09 -1.060583E-09
        28  13  2.640021E+05  6.049791E+05  3.180963E+05 -1.434167E+05  2.128545E-10 -3.864834E-11
        28  14 -9.119415E+02  5.680508E+05  1.497314E+05 -9.828196E+04 -1.839188E-09  2.442904E-11
        28  15 -1.228221E+04  6.052632E+05  9.634904E+04 -1.435939E+05 -8.542699E-10 -5.124898E-10
        28  16 -1.197677E+05 -9.386844E+05 -5.644316E+04 -1.705039E+04  7.806691E-10 -7.484647E-10
        28  17 -3.235503E+05 -7.498739E+05 -1.449064E+05 -5.345839E+04 -7.808783E-10 -3.577840E-10
        28  18 -2.800324E+05 -4.932401E+05 -1.444507E+05 -1.803480E+05 -2.708346E-09  1.323963E-09
        28  19  6.476766E+05  2.150931E+06  6.926072E+05 -2.700940E+05 -1.910116E+04 -2.677042E+05
        28  20  3.216254E+05  1.887624E+06  4.443099E+05 -1.431942E+05 -5.860901E+04 -1.506712E+05
        28  21  2.553963E+05  1.704901E+06  3.370845E+05 -1.067719E+05 -5.685287E+04 -3.367157E+04
        28  22  2.640146E+05  6.050277E+05  3.181817E+05 -1.434134E+05 -1.917965E+04 -2.124732E+05
        28  23 -9.034797E+02  5.680708E+05  1.497712E+05 -9.827566E+04 -5.864224E+04 -1.333363E+05
        28  24 -1.227795E+04  6.052672E+05  9.636062E+04 -1.435914E+05 -5.683232E+04 -5.418527E+04
        28  25 -1.197607E+05 -9.386577E+05 -5.639585E+04 -1.704795E+04 -1.923582E+04 -1.573784E+05
        28  26 -3.235430E+05 -7.498585E+05 -1.448746E+05 -5.345290E+04 -5.867301E+04 -1.160375E+05
        28  27 -2.800274E+05 -4.932332E+05 -1.444342E+05 -1.803446E+05 -5.680931E+04 -7.466310E+04
        29   1  2.375905E+05  1.508307E+06  2.847143E+05 -1.520163E+05  4.588372E+04  3.119064E+04
        29   2  1.687549E+05  1.281047E+06  2.166757E+05 -9.897587E+04  3.575757E+04 -2.582880E+03
        29   3  1.264789E+05  1.064699E+06  1.771926E+05 -1.377568E+05  2.407813E+04 -3.635701E+04
        29   4  1.402471E+04  5.912186E+05  8.299642E+04 -1.438411E+05  4.587655E+04  3.974069E+04
        29   5 -5.893808E+02  5.859507E+05  6.432206E+04 -9.793070E+04  3.574397E+04  7.422925E+03
        29   6  1.112516E+04  5.913104E+05  7.322093E+04 -1.438455E+05  2.405788E+04 -2.490715E+04
        29   7 -2.095971E+05 -3.250849E+05 -1.187726E+05 -1.356777E+05  4.586960E+04  4.827826E+04
        29   8 -1.699659E+05 -1.086944E+05 -8.806061E+04 -9.688649E+04  3.573039E+04  1.741768E+04
        29   9 -1.042433E+05  1.181309E+05 -3.076383E+04 -1.499293E+05  2.403738E+04 -1.346589E+04
        29  10  2.375880E+05  1.508306E+06  2.847086E+05 -1.520174E+05 -1.304715E-09  1.181157E-09
        29  11  1.687535E+05  1.281047E+06  2.166733E+05 -9.897580E+04 -1.091211E-09  8.819461E-10
        29  12  1.264779E+05  1.064698E+06  1.771890E+05 -1.377561E+05 -1.452584E-11 -1.017600E-10
        29  13  1.402203E+04  5.912164E+05  8.298950E+04 -1.438425E+05  1.514452E-09 -2.830773E-10
        29  14 -5.907679E+02  5.859503E+05  6.431955E+04 -9.793091E+04 -3.436099E-09 -2.549229E-11
        29  15  1.112437E+04  5.913095E+05  7.321868E+04 -1.438450E+05  4.641585E-10 -8.804675E-10
        29  16 -2.096000E+05 -3.250880E+05 -1.187809E+05 -1.356795E+05 -7.457501E-10 -9.278364E-10
        29  17 -1.699673E+05 -1.086951E+05 -8.806358E+04 -9.688699E+04  2.139165E-09 -1.391375E-09
        29  18 -1.042440E+05  1.181305E+05 -3.076526E+04 -1.499291E+05 -9.682148E-11  4.264980E-10
        29  19  2.375905E+05  1.508307E+06  2.847143E+05 -1.520163E+05 -4.588372E+04 -3.119064E+04
        29  20  1.687549E+05  1.281047E+06  2.166757E+05 -9.897587E+04 -3.575757E+04  2.582880E+03
        29  21  1.264789E+05  1.064699E+06  1.771926E+05 -1.377568E+05 -2.407813E+04  3.635701E+04
        29  22  1.402471E+04  5.912186E+05  8.299642E+04 -1.438411E+05 -4.587655E+04 -3.974069E+04
        29  23 -5.893808E+02  5.859507E+05  6.432206E+04 -9.793070E+04 -3.574397E+04 -7.422925E+03
        29  24  1.112516E+04  5.913104E+05  7.322093E+04 -1.438455E+05 -2.405788E+04  2.490715E+04
        29  25 -2.095971E+05 -3.250849E+05 -1.187726E+05 -1.356777E+05 -4.586960E+04 -4.827826E+04
        29  26 -1.699659E+05 -1.086944E+05 -8.806061E+04 -9.688649E+04 -3.573039E+04 -1.741768E+04
        29  27 -1.042433E+05  1.181309E+05 -3.076383E+04 -1.499293E+05 -2.403738E+04  1.346589E+04
        30   1  6.215152E+04  8.940995E+05  1.453218E+05 -1.740249E+05  1.610544E+04 -5.016792E+04
        30   2  1.685885E+04  6.442572E+05  1.359786E+05 -6.300337E+04  5.343310E+03 -1.086767E+05
        30   3  1.715852E+05  4.517028E+05  2.146297E+05 -4.325724E+04  5.962927E+02 -1.671547E+05
        30   4 -9.079852E+03  6.019152E+05  8.181447E+04 -1.438266E+05  1.607831E+04 -3.748951E+04
        30   5 -2.116306E+02  5.728121E+05  1.212086E+05 -9.799161E+04  5.335264E+03 -1.014963E+05
        30   6  2.096187E+05  6.018693E+05  2.524029E+05 -1.434126E+05  6.197779E+02 -1.654924E+05
        30   7 -8.031341E+04  3.098131E+05  1.830314E+04 -1.136426E+05  1.605239E+04 -2.481697E+04
        30   8 -1.727780E+04  5.013747E+05  1.064393E+05 -1.329758E+05  5.326410E+03 -9.431681E+04
        30   9  2.476881E+05  7.520777E+05  2.901798E+05 -2.435921E+05  6.427219E+02 -1.638297E+05
        30  10  6.215056E+04  8.940967E+05  1.453166E+05 -1.740243E+05  1.063123E-09 -3.813554E-10
        30  11  1.685565E+04  6.442445E+05  1.359563E+05 -6.300290E+04 -1.285684E-09  3.470756E-10
        30  12  1.715777E+05  4.516728E+05  2.145772E+05 -4.325716E+04 -1.123827E-09  3.294135E-10
        30  13 -9.080506E+03  6.019136E+05  8.181135E+04 -1.438261E+05 -5.967773E-10 -4.824522E-10
        30  14 -2.144231E+02  5.728011E+05  1.211892E+05 -9.799117E+04 -1.459432E-09 -5.912321E-12
        30  15  2.096114E+05  6.018399E+05  2.523515E+05 -1.434125E+05 -6.634700E-10 -9.905461E-10
        30  16 -8.031385E+04  3.098124E+05  1.830150E+04 -1.136423E+05 -1.741403E-09  5.833869E-10
        30  17 -1.728021E+04  5.013651E+05  1.064225E+05 -1.329754E+05 -1.623133E-10 -1.126632E-09
        30  18  2.476809E+05  7.520489E+05  2.901294E+05 -2.435920E+05  9.833707E-10 -4.386580E-11
        30  19  6.215152E+04  8.940995E+05  1.453218E+05 -1.740249E+05 -1.610544E+04  5.016792E+04
        30  20  1.685885E+04  6.442572E+05  1.359786E+05 -6.300337E+04 -5.343310E+03  1.086767E+05
        30  21  1.715852E+05  4.517028E+05  2.146297E+05 -4.325724E+04 -5.962927E+02  1.671547E+05
        30  22 -9.079852E+03  6.019152E+05  8.181447E+04 -1.438266E+05 -1.607831E+04  3.748951E+04
        30  23 -2.116306E+02  5.728121E+05  1.212086E+05 -9.799161E+04 -5.335264E+03  1.014963E+05
        30  24  2.096187E+05  6.018693E+05  2.524029E+05 -1.434126E+05 -6.197779E+02  1.654924E+05
        30  25 -8.031341E+04  3.098131E+05  1.830314E+04 -1.136426E+05 -1.605239E+04  2.481697E+04
        30  26 -1.727780E+04  5.013747E+05  1.064393E+05 -1.329758E+05 -5.326410E+03  9.431681E+04
        30  27  2.476881E+05  7.520777E+05  2.901798E+05 -2.435921E+05 -6.427219E+02  1.638297E+05
        31   1 -1.274684E+06 -3.015110E+05 -1.164759E+05 -4.873564E+05 -6.383960E+04 -2.279639E+04
        31   2 -1.256256E+06 -2.041032E+05 -5.663201E+04 -4.849442E+05 -4.036609E+04 -1.181791E+04
        31   3 -1.263030E+06 -1.843830E+05 -3.463587E+04 -4.700499E+05 -1.601012E+04 -3.191827E+03
        31   4 -1.219721E+06 -2.481186E+05 -9.538365E+04 -4.387039E+05 -6.121097E+04 -2.181495E+04
        31   5 -1.202145E+06 -1.728445E+05 -4.130600E+04 -4.586691E+05 -3.974254E+04 -1.158503E+04
        31   6 -1.209371E+06 -1.748574E+05 -2.348285E+04 -4.661533E+05 -1.739156E+04 -3.709440E+03
        31   7 -1.164753E+06 -1.947188E+05 -7.429159E+04 -3.900468E+05 -5.858214E+04 -2.083307E+04
        31   8 -1.148032E+06 -1.415845E+05 -2.598037E+04 -4.323917E+05 -3.911894E+04 -1.135210E+04
        31   9 -1.155709E+06 -1.653318E+05 -1.232993E+04 -4.622566E+05 -1.877314E+04 -4.227043E+03
        31  10 -1.274688E+06 -3.015127E+05 -1.164846E+05 -4.873576E+05  1.338619E-09  2.784564E-10
        31  11 -1.256258E+06 -2.041038E+05 -5.663534E+04 -4.849446E+05  1.236821E-09  3.939452E-10
        31  12 -1.263030E+06 -1.843831E+05 -3.463637E+04 -4.700499E+05 -5.851741E-11  1.813122E-10
        31  13 -1.219725E+06 -2.481201E+05 -9.539160E+04 -4.387050E+05  2.169241E-10 -2.442756E-11
        31  14 -1.202147E+06 -1.728451E+05 -4.130922E+04 -4.586695E+05 -1.504021E-09 -2.801477E-11
        31  15 -1.209371E+06 -1.748575E+05 -2.348345E+04 -4.661534E+05 -5.361062E-10  5.769763E-10
        31  16 -1.164757E+06 -1.947202E+05 -7.429887E+04 -3.900477E+05  3.328030E-10 -3.970165E-10
        31  17 -1.148034E+06 -1.415850E+05 -2.598349E+04 -4.323921E+05  3.675046E-10 -5.741144E-10
        31  18 -1.155710E+06 -1.653319E+05 -1.233062E+04 -4.622567E+05  1.936162E-09  9.671621E-10
        31  19 -1.274684E+06 -3.015110E+05 -1.164759E+05 -4.873564E+05  6.383960E+04  2.279639E+04
        31  20 -1.256256E+06 -2.041032E+05 -5.663201E+04 -4.849442E+05  4.036609E+04  1.181791E+04
        31  21 -1.263030E+06 -1.843830E+05 -3.463587E+04 -4.700499E+05  1.601012E+04  3.191827E+03
        31  22 -1.219721E+06 -2.481186E+05 -9.538365E+04 -4.387039E+05  6.121097E+04  2.181495E+04
        31  23 -1.202145E+06 -1.728445E+05 -4.130600E+04 -4.586691E+05  3.974254E+04  1.158503E+04
        31  24 -1.209371E+06 -1.748574E+05 -2.348285E+04 -4.661533E+05  1.739156E+04  3.709440E+03
        31  25 -1.164753E+06 -1.947188E+05 -7.429159E+04 -3.900468E+05  5.858214E+04  2.083307E+04
        31  26 -1.148032E+06 -1.415845E+05 -2.598037E+04 -4.323917E+05  3.911894E+04  1.135210E+04
        31  27 -1.155709E+06 -1.653318E+05 -1.232993E+04 -4.622566E+05  1.877314E+04  4.227043E+03
        32   1 -1.237306E+06 -1.951372E+05 -2.642429E+04 -4.717832E+05 -1.341561E+04 -3.127076E+03
        32   2 -1.222905E+06 -1.810758E+05 -1.335880E+04 -4.646370E+05 -8.156459E+03 -2.117664E+03
        32   3 -1.205579E+06 -1.768622E+05 -5.207366E+03 -4.625471E+05 -2.857173E+03 -1.214429E+03
        32   4 -1.206338E+06 -1.820857E+05 -1.862459E+04 -4.617231E+05 -1.408991E+04 -3.379918E+03
        32   5 -1.207496E+06 -1.749606E+05 -9.550329E+03 -4.600221E+05 -8.921100E+03 -2.404336E+03
        32   6 -1.205711E+06 -1.776655E+05 -5.318215E+03 -4.633777E+05 -3.712351E+03 -1.535016E+03
        32   7 -1.175369E+06 -1.690340E+05 -1.082490E+04 -4.516625E+05 -1.476425E+04 -3.632781E+03
        32   8 -1.192087E+06 -1.688455E+05 -5.741886E+03 -4.554072E+05 -9.685759E+03 -2.691016E+03
        32   9 -1.205843E+06 -1.784688E+05 -5.429059E+03 -4.642082E+05 -4.567516E+03 -1.855597E+03
        32  10 -1.237306E+06 -1.951372E+05 -2.642465E+04 -4.717832E+05 -7.577230E-10  3.345791E-10
        32  11 -1.222905E+06 -1.810758E+05 -1.335893E+04 -4.646370E+05 -1.423454E-09 -4.660342E-10
        32  12 -1.205579E+06 -1.768622E+05 -5.207384E+03 -4.625471E+05 -1.327156E-09 -1.077685E-09
        32  13 -1.206338E+06 -1.820858E+05 -1.862499E+04 -4.617232E+05 -1.456329E-10  3.821360E-10
        32  14 -1.207496E+06 -1.749607E+05 -9.550490E+03 -4.600221E+05 -1.597270E-09 -8.001283E-10
        32  15 -1.205711E+06 -1.776655E+05 -5.318246E+03 -4.633777E+05  1.554834E-09 -1.009052E-09
        32  16 -1.175370E+06 -1.690341E+05 -1.082533E+04 -4.516625E+05 -4.472546E-09  2.207958E-10
        32  17 -1.192087E+06 -1.688455E+05 -5.742076E+03 -4.554072E+05 -3.571703E-09 -1.036450E-09
        32  18 -1.205843E+06 -1.784688E+05 -5.429105E+03 -4.642082E+05  4.418907E-10 -9.511490E-10
        32  19 -1.237306E+06 -1.951372E+05 -2.642429E+04 -4.717832E+05  1.341561E+04  3.127076E+03
        32  20 -1.222905E+06 -1.810758E+05 -1.335880E+04 -4.646370E+05  8.156459E+03  2.117664E+03
        32  21 -1.205579E+06 -1.768622E+05 -5.207366E+03 -4.625471E+05  2.857173E+03  1.214429E+03
        32  22 -1.206338E+06 -1.820857E+05 -1.862459E+04 -4.617231E+05  1.408991E+04  3.379918E+03
        32  23 -1.207496E+06 -1.749606E+05 -9.550329E+03 -4.600221E+05  8.921100E+03  2.404336E+03
        32  24 -1.205711E+06 -1.776655E+05 -5.318215E+03 -4.633777E+05  3.712351E+03  1.535016E+03
        32  25 -1.175369E+06 -1.690340E+05 -1.082490E+04 -4.516625E+05  1.476425E+04  3.632781E+03
        32  26 -1.192087E+06 -1.688455E+05 -5.741886E+03 -4.554072E+05  9.685759E+03  2.691016E+03
        32  27 -1.205843E+06 -1.784688E+05 -5.429059E+03 -4.642082E+05  4.567516E+03  1.855597E+03
        33   1 -1.190799E+06 -1.726075E+05 -4.537079E+02 -4.590515E+05 -1.922970E+03 -1.522665E+03
        33   2 -1.176940E+06 -1.636057E+05  5.288014E+03 -4.515814E+05 -4.479570E+02 -2.072724E+03
        33   3 -1.158067E+06 -1.601688E+05  1.012500E+04 -4.501219E+05  1.028126E+03 -2.625393E+03
        33   4 -1.205443E+06 -1.780822E+05 -4.054506E+03 -4.630783E+05 -2.746247E+03 -1.831299E+03
        33   5 -1.207932E+06 -1.751789E+05 -2.219046E+03 -4.601181E+05 -1.273514E+03 -2.382239E+03
        33   6 -1.205408E+06 -1.778401E+05 -1.286436E+03 -4.631686E+05  2.002628E+02 -2.935799E+03
        33   7 -1.220087E+06 -1.835569E+05 -7.655343E+03 -4.671051E+05 -3.569507E+03 -2.139927E+03
        33   8 -1.238925E+06 -1.867522E+05 -9.726271E+03 -4.686545E+05 -2.099035E+03 -2.691740E+03
        33   9 -1.252748E+06 -1.955116E+05 -1.269825E+04 -4.762147E+05 -6.275448E+02 -3.246185E+03
        33  10 -1.190799E+06 -1.726075E+05 -4.537192E+02 -4.590515E+05 -1.826405E-09 -1.058820E-09
        33  11 -1.176940E+06 -1.636057E+05  5.288006E+03 -4.515814E+05 -1.122938E-09 -1.198879E-10
        33  12 -1.158067E+06 -1.601688E+05  1.012499E+04 -4.501219E+05  3.501820E-10 -6.278926E-10
        33  13 -1.205443E+06 -1.780822E+05 -4.054526E+03 -4.630783E+05  2.092054E-09 -7.144983E-10
        33  14 -1.207932E+06 -1.751789E+05 -2.219060E+03 -4.601181E+05 -5.165578E-10  2.305729E-10
        33  15 -1.205408E+06 -1.778401E+05 -1.286452E+03 -4.631686E+05  8.307906E-11 -5.266911E-10
        33  16 -1.220087E+06 -1.835569E+05 -7.655376E+03 -4.671051E+05  2.911545E-09 -2.512668E-11
        33  17 -1.238925E+06 -1.867522E+05 -9.726293E+03 -4.686546E+05 -1.665753E-09  3.002776E-11
        33  18 -1.252748E+06 -1.955116E+05 -1.269827E+04 -4.762147E+05  5.598820E-10 -8.562311E-10
        33  19 -1.190799E+06 -1.726075E+05 -4.537079E+02 -4.590515E+05  1.922970E+03  1.522665E+03
        33  20 -1.176940E+06 -1.636057E+05  5.288014E+03 -4.515814E+05  4.479570E+02  2.072724E+03
        33  21 -1.158067E+06 -1.601688E+05  1.012500E+04 -4.501219E+05 -1.028126E+03  2.625393E+03
        33  22 -1.205443E+06 -1.780822E+05 -4.054506E+03 -4.630783E+05  2.746247E+03  1.831299E+03
        33  23 -1.207932E+06 -1.751789E+05 -2.219046E+03 -4.601181E+05  1.273514E+03  2.382239E+03
        33  24 -1.205408E+06 -1.778401E+05 -1.286436E+03 -4.631686E+05 -2.002628E+02  2.935799E+03
        33  25 -1.220087E+06 -1.835569E+05 -7.655343E+03 -4.671051E+05  3.569507E+03  2.139927E+03
        33  26 -1.238925E+06 -1.867522E+05 -9.726271E+03 -4.686545E+05  2.099035E+03  2.691740E+03
        33  27 -1.252748E+06 -1.955116E+05 -1.269825E+04 -4.762147E+05  6.275448E+02  3.246185E+03
        34   1 -1.144145E+06 -1.550357E+05  1.386272E+04 -4.463366E+05  1.426147E+03 -3.119634E+03
        34   2 -1.130489E+06 -1.463883E+05  1.804344E+04 -4.388995E+05  2.137538E+03 -3.953753E+03
        34   3 -1.111664E+06 -1.429884E+05  2.195886E+04 -4.374561E+05  2.847806E+03 -4.784572E+03
        34   4 -1.205386E+06 -1.778501E+05 -1.018284E+03 -4.631351E+05  6.019212E+02 -3.428700E+03
        34   5 -1.207970E+06 -1.752226E+05 -7.072231E+02 -4.601397E+05  1.316066E+03 -4.261830E+03
        34   6 -1.205385E+06 -1.778430E+05 -6.635657E+02 -4.631380E+05  2.029080E+03 -5.091666E+03
        34   7 -1.266622E+06 -2.006640E+05 -1.589932E+04 -4.799318E+05 -2.222036E+02 -3.737727E+03
        34   8 -1.285444E+06 -2.040563E+05 -1.945815E+04 -4.813773E+05  4.947129E+02 -4.569863E+03
        34   9 -1.299098E+06 -2.126969E+05 -2.328659E+04 -4.888164E+05  1.210491E+03 -5.398709E+03
        34  10 -1.144145E+06 -1.550357E+05  1.386270E+04 -4.463366E+05 -3.059804E-09 -1.408416E-09
        34  11 -1.130489E+06 -1.463884E+05  1.804340E+04 -4.388994E+05 -1.332903E-10 -2.393199E-10
        34  12 -1.111664E+06 -1.429884E+05  2.195880E+04 -4.374561E+05  4.161185E-10 -4.583138E-10
        34  13 -1.205386E+06 -1.778501E+05 -1.018306E+03 -4.631351E+05  1.142628E-09 -7.549498E-10
        34  14 -1.207970E+06 -1.752227E+05 -7.072605E+02 -4.601397E+05  2.207280E-09  9.919543E-12
        34  15 -1.205385E+06 -1.778430E+05 -6.636222E+02 -4.631380E+05  1.971501E-09 -8.678481E-10
        34  16 -1.266622E+06 -2.006640E+05 -1.589934E+04 -4.799318E+05  1.954632E-09  1.418719E-10
        34  17 -1.285444E+06 -2.040563E+05 -1.945819E+04 -4.813773E+05 -1.164753E-09  2.159450E-10
        34  18 -1.299098E+06 -2.126969E+05 -2.328664E+04 -4.888164E+05 -4.506141E-10 -1.165564E-09
        34  19 -1.144145E+06 -1.550357E+05  1.386272E+04 -4.463366E+05 -1.426147E+03  3.119634E+03
        34  20 -1.130489E+06 -1.463883E+05  1.804344E+04 -4.388995E+05 -2.137538E+03  3.953753E+03
        34  21 -1.111664E+06 -1.429884E+05  2.195886E+04 -4.374561E+05 -2.847806E+03  4.784572E+03
        34  22 -1.205386E+06 -1.778501E+05 -1.018284E+03 -4.631351E+05 -6.019212E+02  3.428700E+03
        34  23 -1.207970E+06 -1.752226E+05 -7.072231E+02 -4.601397E+05 -1.316066E+03  4.261830E+03
        34  24 -1.205385E+06 -1.778430E+05 -6.635657E+02 -4.631380E+05 -2.029080E+03  5.091666E+03
        34  25 -1.266622E+06 -2.006640E+05 -1.589932E+04 -4.799318E+05  2.222036E+02  3.737727E+03
        34  26 -1.285444E+06 -2.040563E+05 -1.945815E+04 -4.813773E+05 -4.947129E+02  4.569863E+03
        34  27 -1.299098E+06 -2.126969E+05 -2.328659E+04 -4.888164E+05 -1.210491E+03  5.398709E+03
        35   1 -1.097950E+06 -1.378483E+05  2.533232E+04 -4.336887E+05  3.168583E+03 -5.300358E+03
        35   2 -1.084488E+06 -1.293376E+05  2.880586E+04 -4.263589E+05  4.049751E+03 -6.055982E+03
        35   3 -1.065960E+06 -1.260112E+05  3.188182E+04 -4.249330E+05  4.928544E+03 -6.804686E+03
        35   4 -1.205408E+06 -1.778256E+05 -7.268353E+02 -4.631197E+05  2.353800E+03 -5.606015E+03
        35   5 -1.207943E+06 -1.752430E+05 -1.063499E+03 -4.601641E+05  3.240715E+03 -6.359565E+03
        35   6 -1.205413E+06 -1.778462E+05 -1.802439E+03 -4.631127E+05  4.125238E+03 -7.106197E+03
        35   7 -1.312855E+06 -2.178023E+05 -2.678700E+04 -4.925461E+05  1.539166E+03 -5.911615E+03
        35   8 -1.331383E+06 -2.211474E+05 -3.093408E+04 -4.939632E+05  2.431852E+03 -6.663083E+03
        35   9 -1.344847E+06 -2.296798E+05 -3.548814E+04 -5.012845E+05  3.322128E+03 -7.407636E+03
        35  10 -1.097950E+06 -1.378484E+05  2.533225E+04 -4.336887E+05 -1.686912E-09 -1.067454E-09
        35  11 -1.084488E+06 -1.293376E+05  2.880576E+04 -4.263589E+05  7.267926E-10  9.701235E-11
        35  12 -1.065960E+06 -1.260113E+05  3.188169E+04 -4.249330E+05 -1.019865E-09 -4.840725E-10
        35  13 -1.205408E+06 -1.778257E+05 -7.269047E+02 -4.631197E+05  1.026960E-09 -7.498609E-10
        35  14 -1.207943E+06 -1.752430E+05 -1.063594E+03 -4.601640E+05  2.414694E-10  3.189822E-10
        35  15 -1.205413E+06 -1.778463E+05 -1.802566E+03 -4.631126E+05 -4.452624E-10 -4.361813E-10
        35  16 -1.312855E+06 -2.178024E+05 -2.678707E+04 -4.925461E+05  1.052248E-09 -1.896326E-10
        35  17 -1.331383E+06 -2.211475E+05 -3.093417E+04 -4.939631E+05  2.996159E-09  2.168437E-10
        35  18 -1.344847E+06 -2.296799E+05 -3.548826E+04 -5.012845E+05 -3.568372E-09 -2.898703E-10
        35  19 -1.097950E+06 -1.378483E+05  2.533232E+04 -4.336887E+05 -3.168583E+03  5.300358E+03
        35  20 -1.084488E+06 -1.293376E+05  2.880586E+04 -4.263589E+05 -4.049751E+03  6.055982E+03
        35  21 -1.065960E+06 -1.260112E+05  3.188182E+04 -4.249330E+05 -4.928544E+03  6.804686E+03
        35  22 -1.205408E+06 -1.778256E+05 -7.268353E+02 -4.631197E+05 -2.353800E+03  5.606015E+03
        35  23 -1.207943E+06 -1.752430E+05 -1.063499E+03 -4.601641E+05 -3.240715E+03  6.359565E+03
        35  24 -1.205413E+06 -1.778462E+05 -1.802439E+03 -4.631127E+05 -4.125238E+03  7.106197E+03
        35  25 -1.312855E+06 -2.178023E+05 -2.678700E+04 -4.925461E+05 -1.539166E+03  5.911615E+03
        35  26 -1.331383E+06 -2.211474E+05 -3.093408E+04 -4.939632E+05 -2.431852E+03  6.663083E+03
        35  27 -1.344847E+06 -2.296798E+05 -3.548814E+04 -5.012845E+05 -3.322128E+03  7.407636E+03
        36   1 -1.052521E+06 -1.209833E+05  3.469026E+04 -4.213379E+05  5.476709E+03 -7.224710E+03
        36   2 -1.039248E+06 -1.125638E+05  3.655495E+04 -4.140525E+05  7.919779E+03 -7.367497E+03
        36   3 -1.021410E+06 -1.097497E+05  3.671623E+04 -4.124784E+05  1.035423E+04 -7.486492E+03
        36   4 -1.205504E+06 -1.777846E+05 -2.363431E+03 -4.631288E+05  4.674474E+03 -7.525876E+03
        36   5 -1.207819E+06 -1.752177E+05 -4.226008E+03 -4.601845E+05  7.137200E+03 -7.661392E+03
        36   6 -1.205574E+06 -1.782604E+05 -7.807925E+03 -4.629516E+05  9.591258E+03 -7.773132E+03
        36   7 -1.358464E+06 -2.345840E+05 -3.941865E+04 -5.049101E+05  3.872459E+03 -7.826960E+03
        36   8 -1.376363E+06 -2.378697E+05 -4.500907E+04 -5.063051E+05  6.354852E+03 -7.955201E+03
        36   9 -1.389706E+06 -2.467690E+05 -5.233484E+04 -5.134114E+05  8.828530E+03 -8.059681E+03
        36  10 -1.052521E+06 -1.209834E+05  3.469011E+04 -4.213379E+05 -3.164412E-09 -9.162887E-10
        36  11 -1.039248E+06 -1.125638E+05  3.655473E+04 -4.140524E+05 -1.984881E-09  7.192919E-10
        36  12 -1.021410E+06 -1.097498E+05  3.671592E+04 -4.124784E+05 -1.914181E-09  3.343103E-10
        36  13 -1.205504E+06 -1.777847E+05 -2.363579E+03 -4.631288E+05 -2.776663E-09 -6.220772E-10
        36  14 -1.207819E+06 -1.752178E+05 -4.226214E+03 -4.601844E+05 -2.251897E-09 -2.322557E-11
        36  15 -1.205574E+06 -1.782605E+05 -7.808212E+03 -4.629515E+05  2.638616E-10 -2.586156E-10
        36  16 -1.358464E+06 -2.345841E+05 -3.941879E+04 -5.049101E+05 -2.350633E-09 -2.928084E-10
        36  17 -1.376363E+06 -2.378698E+05 -4.500926E+04 -5.063050E+05  2.418875E-09 -7.739768E-10
        36  18 -1.389706E+06 -2.467691E+05 -5.233510E+04 -5.134113E+05  3.270393E-09 -4.277547E-10
        36  19 -1.052521E+06 -1.209833E+05  3.469026E+04 -4.213379E+05 -5.476709E+03  7.224710E+03
        36  20 -1.039248E+06 -1.125638E+05  3.655495E+04 -4.140525E+05 -7.919779E+03  7.367497E+03
        36  21 -1.021410E+06 -1.097497E+05  3.671623E+04 -4.124784E+05 -1.035423E+04  7.486492E+03
        36  22 -1.205504E+06 -1.777846E+05 -2.363431E+03 -4.631288E+05 -4.674474E+03  7.525876E+03
        36  23 -1.207819E+06 -1.752177E+05 -4.226008E+03 -4.601845E+05 -7.137200E+03  7.661392E+03
        36  24 -1.205574E+06 -1.782604E+05 -7.807925E+03 -4.629516E+05 -9.591258E+03  7.773132E+03
        36  25 -1.358464E+06 -2.345840E+05 -3.941865E+04 -5.049101E+05 -3.872459E+03  7.826960E+03
        36  26 -1.376363E+06 -2.378697E+05 -4.500907E+04 -5.063051E+05 -6.354852E+03  7.955201E+03
        36  27 -1.389706E+06 -2.467690E+05 -5.233484E+04 -5.134114E+05 -8.828530E+03  8.059681E+03
        37   1 -1.007793E+06 -1.050556E+05  3.752585E+04 -4.106219E+05  1.210694E+04 -7.474400E+03
        37   2 -9.950826E+05 -9.522159E+04  3.297702E+04 -4.011660E+05  2.150301E+04 -4.892390E+03
        37   3 -9.819185E+05 -9.902485E+04  1.930635E+04 -3.953830E+05  3.076737E+04 -1.958676E+03
        37   4 -1.206129E+06 -1.774188E+05 -1.026226E+04 -4.634898E+05  1.124882E+04 -7.796808E+03
        37   5 -1.206935E+06 -1.748470E+05 -1.846605E+04 -4.600501E+05  2.094156E+04 -5.103589E+03
        37   6 -1.207348E+06 -1.859737E+05 -3.602950E+04 -4.602833E+05  3.050232E+04 -2.058778E+03
        37   7 -1.404426E+06 -2.497796E+05 -5.805325E+04 -5.163425E+05  1.039100E+04 -8.119108E+03
        37   8 -1.418743E+06 -2.544689E+05 -6.991231E+04 -5.189156E+05  2.038032E+04 -5.314709E+03
        37   9 -1.432727E+06 -2.729176E+05 -9.136890E+04 -5.251615E+05  3.023738E+04 -2.158838E+03
        37  10 -1.007793E+06 -1.050557E+05  3.752547E+04 -4.106218E+05 -1.434954E-09 -6.994099E-10
        37  11 -9.950831E+05 -9.522174E+04  3.297610E+04 -4.011660E+05  1.201262E-09 -4.461953E-10
        37  12 -9.819196E+05 -9.902511E+04  1.930456E+04 -3.953830E+05  8.070702E-11 -3.535531E-10
        37  13 -1.206129E+06 -1.774189E+05 -1.026261E+04 -4.634898E+05  8.450942E-11 -1.355432E-10
        37  14 -1.206936E+06 -1.748472E+05 -1.846692E+04 -4.600500E+05  1.756675E-09 -7.542456E-11
        37  15 -1.207349E+06 -1.859739E+05 -3.603126E+04 -4.602833E+05 -4.391905E-10 -2.061217E-10
        37  16 -1.404426E+06 -2.497797E+05 -5.805357E+04 -5.163424E+05  1.231642E-09  2.209943E-10
        37  17 -1.418744E+06 -2.544690E+05 -6.991315E+04 -5.189155E+05  1.037250E-09  2.461089E-10
        37  18 -1.432728E+06 -2.729178E+05 -9.137063E+04 -5.251614E+05 -2.440669E-09  1.210302E-10
        37  19 -1.007793E+06 -1.050556E+05  3.752585E+04 -4.106219E+05 -1.210694E+04  7.474400E+03
        37  20 -9.950826E+05 -9.522159E+04  3.297702E+04 -4.011660E+05 -2.150301E+04  4.892390E+03
        37  21 -9.819185E+05 -9.902485E+04  1.930635E+04 -3.953830E+05 -3.076737E+04  1.958676E+03
        37  22 -1.206129E+06 -1.774188E+05 -1.026226E+04 -4.634898E+05 -1.124882E+04  7.796808E+03
        37  23 -1.206935E+06 -1.748470E+05 -1.846605E+04 -4.600501E+05 -2.094156E+04  5.103589E+03
        37  24 -1.207348E+06 -1.859737E+05 -3.602950E+04 -4.602833E+05 -3.050232E+04  2.058778E+03
        37  25 -1.404426E+06 -2.497796E+05 -5.805325E+04 -5.163425E+05 -1.039100E+04  8.119108E+03
        37  26 -1.418743E+06 -2.544689E+05 -6.991231E+04 -5.189156E+05 -2.038032E+04  5.314709E+03
        37  27 -1.432727E+06 -2.729176E+05 -9.136890E+04 -5.251615E+05 -3.023738E+04  2.158838E+03
        38   1 -9.580891E+05 -9.716906E+04  1.265499E+04 -4.196717E+05  3.932612E+04 -1.822883E+02
        38   2 -9.576679E+05 -6.019888E+04 -1.742477E+04 -3.697917E+05  7.547084E+04  1.434498E+04
        38   3 -1.009490E+06 -1.658460E+05 -1.124962E+05 -2.893442E+05  1.087610E+05  3.647430E+04
        38   4 -1.213254E+06 -1.719492E+05 -4.543122E+04 -4.688100E+05  3.678325E+04 -1.136521E+03
        38   5 -1.196528E+06 -1.708161E+05 -7.991992E+04 -4.574983E+05  7.939118E+04  1.581449E+04
        38   6 -1.233356E+06 -3.136252E+05 -1.845481E+05 -4.156126E+05  1.191444E+05  4.036308E+04
        38   7 -1.468356E+06 -2.467302E+05 -1.035217E+05 -5.179329E+05  3.424151E+04 -2.090540E+03
        38   8 -1.435332E+06 -2.814199E+05 -1.424198E+05 -5.451712E+05  8.330989E+04  1.728304E+04
        38   9 -1.457161E+06 -4.613604E+05 -2.566033E+05 -5.418294E+05  1.295237E+05  4.424764E+04
        38  10 -9.580907E+05 -9.716947E+04  1.265208E+04 -4.196717E+05 -4.391870E-10 -4.794673E-10
        38  11 -9.576740E+05 -6.020064E+04 -1.743588E+04 -3.697926E+05  1.227681E-09  6.425471E-10
        38  12 -1.009503E+06 -1.658506E+05 -1.125209E+05 -2.893474E+05 -9.332082E-10  1.617644E-10
        38  13 -1.213256E+06 -1.719495E+05 -4.543377E+04 -4.688100E+05 -1.008162E-09 -2.653690E-10
        38  14 -1.196535E+06 -1.708180E+05 -7.993226E+04 -4.574993E+05 -2.136539E-09 -3.013484E-11
        38  15 -1.233371E+06 -3.136308E+05 -1.845779E+05 -4.156165E+05 -5.701294E-10  1.166540E-10
        38  16 -1.468357E+06 -2.467306E+05 -1.035240E+05 -5.179328E+05  3.565048E-10 -4.830743E-12
        38  17 -1.435339E+06 -2.814221E+05 -1.424335E+05 -5.451724E+05 -6.888637E-10 -3.657517E-10
        38  18 -1.457180E+06 -4.613671E+05 -2.566386E+05 -5.418340E+05 -1.151627E-09  3.169359E-12
        38  19 -9.580891E+05 -9.716906E+04  1.265499E+04 -4.196717E+05 -3.932612E+04  1.822883E+02
        38  20 -9.576679E+05 -6.019888E+04 -1.742477E+04 -3.697917E+05 -7.547084E+04 -1.434498E+04
        38  21 -1.009490E+06 -1.658460E+05 -1.124962E+05 -2.893442E+05 -1.087610E+05 -3.647430E+04
        38  22 -1.213254E+06 -1.719492E+05 -4.543122E+04 -4.688100E+05 -3.678325E+04  1.136521E+03
        38  23 -1.196528E+06 -1.708161E+05 -7.991992E+04 -4.574983E+05 -7.939118E+04 -1.581449E+04
        38  24 -1.233356E+06 -3.136252E+05 -1.845481E+05 -4.156126E+05 -1.191444E+05 -4.036308E+04
        38  25 -1.468356E+06 -2.467302E+05 -1.035217E+05 -5.179329E+05 -3.424151E+04  2.090540E+03
        38  26 -1.435332E+06 -2.814199E+05 -1.424198E+05 -5.451712E+05 -8.330989E+04 -1.728304E+04
        38  27 -1.457161E+06 -4.613604E+05 -2.566033E+05 -5.418294E+05 -1.295237E+05 -4.424764E+04
        39   1 -1.212902E+05  4.908071E+04  5.893261E+04  2.333627E+04  4.052023E+04  1.523396E+00
        39   2 -1.280826E+05 -1.184538E+02  2.684963E+04  8.140818E+03  2.629637E+04  3.448859E-01
        39   3 -1.212942E+05 -2.408680E+03  1.575637E+04 -7.054410E+03  1.207247E+04 -1.372030E-01
        39   4 -1.212908E+05  4.907969E+04  5.893246E+04  6.140597E-09  4.052023E+04  2.247592E-10
        39   5 -1.280827E+05 -1.185784E+02  2.684961E+04  4.550138E-09  2.629637E+04  1.403839E-10
        39   6 -1.212943E+05 -2.408773E+03  1.575636E+04 -2.152417E-09  1.207247E+04 -1.732526E-09
        39   7 -1.212902E+05  4.908071E+04  5.893261E+04 -2.333627E+04  4.052023E+04 -1.523396E+00
        39   8 -1.280826E+05 -1.184538E+02  2.684963E+04 -8.140818E+03  2.629637E+04 -3.448859E-01
        39   9 -1.212942E+05 -2.408680E+03  1.575637E+04  7.054410E+03  1.207247E+04  1.372030E-01
        39  10 -1.212920E+05  4.908027E+04  5.892952E+04  2.333627E+04 -6.227040E-10 -1.091309E-10
        39  11 -1.280834E+05 -1.186395E+02  2.684833E+04  8.140818E+03  6.070702E-10 -6.168008E-10
        39  12 -1.212944E+05 -2.408719E+03  1.575610E+04 -7.054410E+03  2.467225E-09 -1.264320E-09
        39  13 -1.212926E+05  4.907925E+04  5.892937E+04  3.878395E-09 -1.682614E-11 -1.473952E-10
        39  14 -1.280834E+05 -1.187641E+02  2.684831E+04  4.421313E-09  1.153485E-09 -7.292690E-10
        39  15 -1.212945E+05 -2.408813E+03  1.575608E+04 -2.035657E-09 -5.456887E-10 -1.416477E-09
        39  16 -1.212920E+05  4.908027E+04  5.892952E+04 -2.333627E+04  7.160984E-11 -1.715378E-10
        39  17 -1.280834E+05 -1.186395E+02  2.684833E+04 -8.140818E+03  2.139539E-09 -8.766692E-10
        39  18 -1.212944E+05 -2.408719E+03  1.575610E+04  7.054410E+03  1.764853E-10 -1.579776E-09
        39  19 -1.212902E+05  4.908071E+04  5.893261E+04  2.333627E+04 -4.052023E+04 -1.523396E+00
        39  20 -1.280826E+05 -1.184538E+02  2.684963E+04  8.140818E+03 -2.629637E+04 -3.448859E-01
        39  21 -1.212942E+05 -2.408680E+03  1.575637E+04 -7.054410E+03 -1.207247E+04  1.372030E-01
        39  22 -1.212908E+05  4.907969E+04  5.893246E+04  1.023120E-08 -4.052023E+04 -5.221772E-10
        39  23 -1.280827E+05 -1.185784E+02  2.684961E+04  9.674955E-09 -2.629637E+04 -1.603521E-09
        39  24 -1.212943E+05 -2.408773E+03  1.575636E+04 -2.184451E-09 -1.207247E+04 -1.100411E-09
        39  25 -1.212902E+05  4.908071E+04  5.893261E+04 -2.333627E+04 -4.052023E+04  1.523396E+00
        39  26 -1.280826E+05 -1.184538E+02  2.684963E+04 -8.140818E+03 -2.629637E+04  3.448859E-01
        39  27 -1.212942E+05 -2.408680E+03  1.575637E+04  7.054410E+03 -1.207247E+04 -1.372030E-01
        40   1 -1.240631E+05  2.689879E+03  1.252316E+04  9.356008E+02  9.837845E+03  1.482857E-02
        40   2 -1.246225E+05 -8.439867E+01  6.768972E+03  2.130827E+02  6.439414E+03  2.210566E-03
        40   3 -1.240636E+05 -1.556743E+02  3.903396E+03 -5.094262E+02  3.041048E+03 -2.495817E-03
        40   4 -1.240631E+05  2.689877E+03  1.252316E+04  6.007806E-09  9.837845E+03 -1.315044E-09
        40   5 -1.246225E+05 -8.439876E+01  6.768972E+03  3.202579E-09  6.439414E+03  1.050212E-09
        40   6 -1.240636E+05 -1.556748E+02  3.903396E+03  5.510728E-09  3.041048E+03  4.950266E-10
        40   7 -1.240631E+05  2.689879E+03  1.252316E+04 -9.356008E+02  9.837845E+03 -1.482857E-02
        40   8 -1.246225E+05 -8.439867E+01  6.768972E+03 -2.130827E+02  6.439414E+03 -2.210564E-03
        40   9 -1.240636E+05 -1.556743E+02  3.903396E+03  5.094262E+02  3.041048E+03  2.495818E-03
        40  10 -1.240632E+05  2.689853E+03  1.252298E+04  9.356008E+02 -1.070434E-09 -5.182051E-10
        40  11 -1.246226E+05 -8.440981E+01  6.768894E+03  2.130827E+02 -7.122298E-10  1.120128E-09
        40  12 -1.240636E+05 -1.556768E+02  3.903379E+03 -5.094262E+02  1.965665E-09  2.019751E-10
        40  13 -1.240632E+05  2.689851E+03  1.252298E+04  4.496129E-09 -1.074827E-09 -6.144310E-10
        40  14 -1.246226E+05 -8.440989E+01  6.768894E+03 -2.085788E-09 -5.384630E-10  1.184776E-09
        40  15 -1.240636E+05 -1.556773E+02  3.903379E+03 -3.284699E-09  2.182300E-09  3.306656E-10
        40  16 -1.240632E+05  2.689853E+03  1.252298E+04 -9.356008E+02  2.673397E-09 -7.014114E-10
        40  17 -1.246226E+05 -8.440981E+01  6.768894E+03 -2.130827E+02  1.261022E-09  1.243153E-09
        40  18 -1.240636E+05 -1.556768E+02  3.903379E+03  5.094262E+02 -1.436174E-09  4.682670E-10
        40  19 -1.240631E+05  2.689879E+03  1.252316E+04  9.356008E+02 -9.837845E+03 -1.482857E-02
        40  20 -1.246225E+05 -8.439867E+01  6.768972E+03  2.130827E+02 -6.439414E+03 -2.210564E-03
        40  21 -1.240636E+05 -1.556743E+02  3.903396E+03 -5.094262E+02 -3.041048E+03  2.495817E-03
        40  22 -1.240631E+05  2.689877E+03  1.252316E+04  7.291454E-09 -9.837845E+03  8.427159E-11
        40  23 -1.246225E+05 -8.439876E+01  6.768972E+03  3.395934E-09 -6.439414E+03  1.319742E-09
        40  24 -1.240636E+05 -1.556748E+02  3.903396E+03  2.192068E-09 -3.041048E+03  1.659029E-10
        40  25 -1.240631E+05  2.689879E+03  1.252316E+04 -9.356008E+02 -9.837845E+03  1.482857E-02
        40  26 -1.246225E+05 -8.439867E+01  6.768972E+03 -2.130827E+02 -6.439414E+03  2.210566E-03
        40  27 -1.240636E+05 -1.556743E+02  3.903396E+03  5.094262E+02 -3.041048E+03 -2.495817E-03
        41   1 -1.242791E+05  1.237632E+02  2.988076E+03 -4.629577E+01  2.434198E+03 -1.815542E-04
        41   2 -1.243533E+05 -2.405389E+01  1.682831E+03 -5.101592E+01  1.599879E+03 -1.314924E-04
        41   3 -1.242792E+05 -1.319564E+01  9.605287E+02 -5.573615E+01  7.655490E+02 -6.874044E-05
        41   4 -1.242791E+05  1.237632E+02  2.988076E+03  4.245738E-09  2.434198E+03  1.316315E-10
        41   5 -1.243533E+05 -2.405389E+01  1.682831E+03 -2.402918E-09  1.599879E+03  8.036884E-10
        41   6 -1.242792E+05 -1.319565E+01  9.605287E+02  2.796509E-09  7.655490E+02  6.835065E-10
        41   7 -1.242791E+05  1.237632E+02  2.988076E+03  4.629577E+01  2.434198E+03  1.815544E-04
        41   8 -1.243533E+05 -2.405389E+01  1.682831E+03  5.101592E+01  1.599879E+03  1.314939E-04
        41   9 -1.242792E+05 -1.319564E+01  9.605287E+02  5.573615E+01  7.655490E+02  6.874180E-05
        41  10 -1.242791E+05  1.237616E+02  2.988065E+03 -4.629577E+01 -1.333014E-09 -4.584178E-10
        41  11 -1.243533E+05 -2.405457E+01  1.682826E+03 -5.101592E+01  5.193005E-11 -2.140672E-10
        41  12 -1.242792E+05 -1.319580E+01  9.605276E+02 -5.573615E+01 -3.140715E-11  1.890425E-11
        41  13 -1.242791E+05  1.237616E+02  2.988065E+03  2.276460E-09  2.155949E-09 -1.150690E-10
        41  14 -1.243533E+05 -2.405458E+01  1.682826E+03  8.354707E-09 -5.609922E-10  3.033777E-10
        41  15 -1.242792E+05 -1.319581E+01  9.605276E+02  8.508848E-09  2.642743E-10 -2.355722E-10
        41  16 -1.242791E+05  1.237616E+02  2.988065E+03  4.629577E+01  7.699180E-10  2.528273E-10
        41  17 -1.243533E+05 -2.405457E+01  1.682826E+03  5.101592E+01  1.013726E-09  8.108451E-10
        41  18 -1.242792E+05 -1.319580E+01  9.605276E+02  5.573615E+01 -1.059853E-09 -4.917196E-10
        41  19 -1.242791E+05  1.237632E+02  2.988076E+03 -4.629577E+01 -2.434198E+03  1.815533E-04
        41  20 -1.243533E+05 -2.405389E+01  1.682831E+03 -5.101592E+01 -1.599879E+03  1.314919E-04
        41  21 -1.242792E+05 -1.319564E+01  9.605287E+02 -5.573615E+01 -7.655490E+02  6.874049E-05
        41  22 -1.242791E+05  1.237632E+02  2.988076E+03  1.107703E-08 -2.434198E+03 -3.586054E-10
        41  23 -1.243533E+05 -2.405389E+01  1.682831E+03  6.188381E-09 -1.599879E+03 -2.005140E-10
        41  24 -1.242792E+05 -1.319565E+01  9.605287E+02  2.233334E-10 -7.655490E+02 -1.151222E-09
        41  25 -1.242791E+05  1.237632E+02  2.988076E+03  4.629577E+01 -2.434198E+03 -1.815540E-04
        41  26 -1.243533E+05 -2.405389E+01  1.682831E+03  5.101592E+01 -1.599879E+03 -1.314923E-04
        41  27 -1.242792E+05 -1.319564E+01  9.605287E+02  5.573615E+01 -7.655490E+02 -6.874279E-05
        42   1 -1.243059E+05 -3.794491E-01  7.237485E+02 -2.791338E+01  6.136644E+02 -2.759606E-05
        42   2 -1.243199E+05 -5.849534E+00  3.976967E+02 -1.961494E+01  4.170594E+02 -1.317987E-05
        42   3 -1.243059E+05 -1.449732E+00  2.021303E+02 -1.131649E+01  2.204544E+02 -4.017492E-06
        42   4 -1.243059E+05 -3.794506E-01  7.237485E+02  6.677066E-09  6.136644E+02  1.306613E-11
        42   5 -1.243199E+05 -5.849535E+00  3.976967E+02 -8.961245E-10  4.170594E+02 -2.664796E-10
        42   6 -1.243059E+05 -1.449732E+00  2.021303E+02 -9.286404E-10  2.204544E+02  1.580677E-09
        42   7 -1.243059E+05 -3.794491E-01  7.237485E+02  2.791338E+01  6.136644E+02  2.759606E-05
        42   8 -1.243199E+05 -5.849534E+00  3.976967E+02  1.961494E+01  4.170594E+02  1.317935E-05
        42   9 -1.243059E+05 -1.449732E+00  2.021303E+02  1.131649E+01  2.204544E+02  4.020679E-06
        42  10 -1.243059E+05 -3.795502E-01  7.237477E+02 -2.791338E+01  1.312167E-09 -1.920889E-10
        42  11 -1.243199E+05 -5.849581E+00  3.976964E+02 -1.961494E+01 -1.172214E-09 -2.147372E-10
        42  12 -1.243059E+05 -1.449745E+00  2.021302E+02 -1.131649E+01 -2.650514E-09  1.154253E-09
        42  13 -1.243059E+05 -3.795517E-01  7.237477E+02  8.902811E-09 -1.029859E-09 -4.800008E-10
        42  14 -1.243199E+05 -5.849582E+00  3.976964E+02 -6.126530E-09  1.592901E-09  8.450014E-11
        42  15 -1.243059E+05 -1.449745E+00  2.021302E+02 -7.694372E-09 -2.041705E-09  1.041922E-09
        42  16 -1.243059E+05 -3.795502E-01  7.237477E+02  2.791338E+01 -1.347989E-09 -7.736634E-10
        42  17 -1.243199E+05 -5.849581E+00  3.976964E+02  1.961494E+01  6.797641E-10  3.815271E-10
        42  18 -1.243059E+05 -1.449745E+00  2.021302E+02  1.131649E+01  3.511634E-10  9.331049E-10
        42  19 -1.243059E+05 -3.794491E-01  7.237485E+02 -2.791338E+01 -6.136644E+02  2.759567E-05
        42  20 -1.243199E+05 -5.849534E+00  3.976967E+02 -1.961494E+01 -4.170594E+02  1.317948E-05
        42  21 -1.243059E+05 -1.449732E+00  2.021303E+02 -1.131649E+01 -2.204544E+02  4.019803E-06
        42  22 -1.243059E+05 -3.794506E-01  7.237485E+02  3.639579E-10 -6.136644E+02 -9.719967E-10
        42  23 -1.243199E+05 -5.849535E+00  3.976967E+02 -4.893575E-09 -4.170594E+02  4.416844E-10
        42  24 -1.243059E+05 -1.449732E+00  2.021303E+02  6.004535E-09 -2.204544E+02  5.017800E-10
        42  25 -1.243059E+05 -3.794491E-01  7.237485E+02  2.791338E+01 -6.136644E+02 -2.759763E-05
        42  26 -1.243199E+05 -5.849534E+00  3.976967E+02  1.961494E+01 -4.170594E+02 -1.317859E-05
        42  27 -1.243059E+05 -1.449732E+00  2.021303E+02  1.131649E+01 -2.204544E+02 -4.018815E-06
        43   1 -1.243120E+05 -1.506759E+00  1.312074E+02 -9.801217E+00  1.902268E+02 -3.002278E-06
        43   2 -1.243123E+05 -2.271052E-01  1.476340E+01 -8.914494E+00  1.829637E+02 -2.629001E-06
        43   3 -1.243120E+05 -2.795666E-01 -9.728532E+01 -8.027784E+00  1.757006E+02 -2.272812E-06
        43   4 -1.243120E+05 -1.506759E+00  1.312074E+02  3.213225E-08  1.902268E+02  1.101870E-09
        43   5 -1.243123E+05 -2.271054E-01  1.476340E+01 -7.014994E-09  1.829637E+02 -1.548817E-09
        43   6 -1.243120E+05 -2.795667E-01 -9.728532E+01 -2.893244E-08  1.757006E+02 -7.364329E-10
        43   7 -1.243120E+05 -1.506759E+00  1.312074E+02  9.801217E+00  1.902268E+02  3.004477E-06
        43   8 -1.243123E+05 -2.271052E-01  1.476340E+01  8.914494E+00  1.829637E+02  2.625882E-06
        43   9 -1.243120E+05 -2.795665E-01 -9.728532E+01  8.027784E+00  1.757006E+02  2.271324E-06
        43  10 -1.243120E+05 -1.506769E+00  1.312074E+02 -9.801217E+00 -7.854572E-09  6.785662E-10
        43  11 -1.243123E+05 -2.271142E-01  1.476333E+01 -8.914494E+00 -1.724639E-09 -1.309051E-09
        43  12 -1.243120E+05 -2.795748E-01 -9.728538E+01 -8.027784E+00  7.823762E-09 -3.387140E-10
        43  13 -1.243120E+05 -1.506769E+00  1.312074E+02 -4.368675E-09 -1.031991E-09  3.320809E-10
        43  14 -1.243123E+05 -2.271144E-01  1.476333E+01 -3.883349E-09 -4.935312E-10 -1.529646E-09
        43  15 -1.243120E+05 -2.795749E-01 -9.728538E+01 -3.398812E-09 -1.999047E-10 -6.377993E-10
        43  16 -1.243120E+05 -1.506769E+00  1.312074E+02  9.801217E+00  6.242872E-09 -1.018772E-11
        43  17 -1.243123E+05 -2.271142E-01  1.476333E+01  8.914494E+00 -6.764926E-10 -1.758544E-09
        43  18 -1.243120E+05 -2.795748E-01 -9.728538E+01  8.027784E+00 -7.986458E-09 -9.250864E-10
        43  19 -1.243120E+05 -1.506759E+00  1.312074E+02 -9.801217E+00 -1.902268E+02  3.003646E-06
        43  20 -1.243123E+05 -2.271052E-01  1.476340E+01 -8.914494E+00 -1.829637E+02  2.626405E-06
        43  21 -1.243120E+05 -2.795665E-01 -9.728532E+01 -8.027784E+00 -1.757006E+02  2.272124E-06
        43  22 -1.243120E+05 -1.506759E+00  1.312074E+02 -3.871498E-08 -1.902268E+02 -4.371372E-10
        43  23 -1.243123E+05 -2.271054E-01  1.476340E+01  1.402531E-09 -1.829637E+02 -1.514896E-09
        43  24 -1.243120E+05 -2.795667E-01 -9.728532E+01  3.505878E-08 -1.757006E+02 -5.393731E-10
        43  25 -1.243120E+05 -1.506759E+00  1.312074E+02  9.801217E+00 -1.902268E+02 -3.004501E-06
        43  26 -1.243123E+05 -2.271052E-01  1.476340E+01  8.914494E+00 -1.829637E+02 -2.629423E-06
        43  27 -1.243120E+05 -2.795666E-01 -9.728532E+01  8.027784E+00 -1.757006E+02 -2.273198E-06
        44   1 -1.243188E+05  2.267633E+00 -1.617139E+02 -1.378282E+01  1.989964E+02 -4.418353E-06
        44   2 -1.243038E+05  4.767080E+00 -3.344384E+02 -1.208363E+01  3.648511E+02 -7.102696E-06
        44   3 -1.243189E+05 -2.650094E+01 -6.235978E+02 -1.038441E+01  5.307081E+02 -8.878714E-06
        44   4 -1.243188E+05  2.267633E+00 -1.617139E+02  9.161683E-09  1.989964E+02  7.328036E-11
        44   5 -1.243038E+05  4.767080E+00 -3.344384E+02  4.755651E-09  3.648511E+02 -6.861531E-12
        44   6 -1.243189E+05 -2.650094E+01 -6.235978E+02  5.197601E-09  5.307081E+02  1.884296E-10
        44   7 -1.243188E+05  2.267633E+00 -1.617139E+02  1.378282E+01  1.989964E+02  4.418498E-06
        44   8 -1.243038E+05  4.767080E+00 -3.344384E+02  1.208363E+01  3.648511E+02  7.102666E-06
        44   9 -1.243189E+05 -2.650094E+01 -6.235978E+02  1.038441E+01  5.307081E+02  8.879068E-06
        44  10 -1.243188E+05  2.267623E+00 -1.617139E+02 -1.378282E+01  2.400746E-09  5.195334E-10
        44  11 -1.243038E+05  4.767044E+00 -3.344386E+02 -1.208363E+01  1.681516E-09  3.862946E-10
        44  12 -1.243189E+05 -2.650101E+01 -6.235983E+02 -1.038441E+01 -9.608212E-10 -2.075209E-10
        44  13 -1.243188E+05  2.267622E+00 -1.617139E+02  4.930770E-09  1.029916E-09  2.719652E-10
        44  14 -1.243038E+05  4.767044E+00 -3.344386E+02 -1.727298E-09  4.711085E-10  4.144469E-10
        44  15 -1.243189E+05 -2.650101E+01 -6.235983E+02 -6.231790E-09  1.764729E-09  6.688905E-11
        44  16 -1.243188E+05  2.267623E+00 -1.617139E+02  1.378282E+01 -1.265597E-09  1.981668E-11
        44  17 -1.243038E+05  4.767044E+00 -3.344386E+02  1.208363E+01 -2.568308E-09  4.347126E-10
        44  18 -1.243189E+05 -2.650101E+01 -6.235983E+02  1.038441E+01  2.726631E-10  3.407839E-10
        44  19 -1.243188E+05  2.267633E+00 -1.617139E+02 -1.378282E+01 -1.989964E+02  4.419401E-06
        44  20 -1.243038E+05  4.767080E+00 -3.344384E+02 -1.208363E+01 -3.648511E+02  7.103484E-06
        44  21 -1.243189E+05 -2.650094E+01 -6.235978E+02 -1.038441E+01 -5.307081E+02  8.878317E-06
        44  22 -1.243188E+05  2.267633E+00 -1.617139E+02  2.856722E-09 -1.989964E+02  4.704080E-10
        44  23 -1.243038E+05  4.767080E+00 -3.344384E+02 -4.979486E-09 -3.648511E+02  8.281843E-10
        44  24 -1.243189E+05 -2.650094E+01 -6.235978E+02  9.154349E-10 -5.307081E+02 -5.189098E-11
        44  25 -1.243188E+05  2.267633E+00 -1.617139E+02  1.378282E+01 -1.989964E+02 -4.418464E-06
        44  26 -1.243038E+05  4.767080E+00 -3.344384E+02  1.208363E+01 -3.648511E+02 -7.101825E-06
        44  27 -1.243189E+05 -2.650094E+01 -6.235978E+02  1.038441E+01 -5.307081E+02 -8.878420E-06
        45   1 -1.243651E+05  3.308646E+01 -8.224252E+02 -1.092076E+02  6.579645E+02 -1.157607E-04
        45   2 -1.242460E+05  1.792791E+01 -1.438687E+03  4.517829E+01  1.380333E+03  1.004677E-04
        45   3 -1.243652E+05 -5.741509E+02 -2.669540E+03  1.995643E+02  2.102700E+03  6.760325E-04
        45   4 -1.243651E+05  3.308644E+01 -8.224252E+02  8.669726E-09  6.579645E+02  7.269688E-10
        45   5 -1.242460E+05  1.792790E+01 -1.438687E+03 -5.718284E-10  1.380333E+03  7.941574E-10
        45   6 -1.243652E+05 -5.741510E+02 -2.669540E+03 -6.602182E-10  2.102700E+03 -1.303881E-09
        45   7 -1.243651E+05  3.308646E+01 -8.224252E+02  1.092076E+02  6.579645E+02  1.157622E-04
        45   8 -1.242460E+05  1.792791E+01 -1.438687E+03 -4.517829E+01  1.380333E+03 -1.004662E-04
        45   9 -1.243652E+05 -5.741509E+02 -2.669540E+03 -1.995643E+02  2.102700E+03 -6.760350E-04
        45  10 -1.243651E+05  3.308634E+01 -8.224260E+02 -1.092076E+02 -3.338361E-10  1.518159E-10
        45  11 -1.242460E+05  1.792739E+01 -1.438691E+03  4.517829E+01  1.569742E-09  7.422698E-10
        45  12 -1.243652E+05 -5.741521E+02 -2.669548E+03  1.995643E+02  2.695313E-09 -9.963512E-10
        45  13 -1.243651E+05  3.308632E+01 -8.224260E+02  6.718849E-09  1.076919E-09  2.274660E-10
        45  14 -1.242460E+05  1.792739E+01 -1.438691E+03 -3.913539E-09  1.592978E-09  4.486829E-10
        45  15 -1.243652E+05 -5.741522E+02 -2.669548E+03 -9.699784E-09  1.222024E-09 -8.611540E-10
        45  16 -1.243651E+05  3.308634E+01 -8.224260E+02  1.092076E+02 -2.483732E-10  3.019283E-10
        45  17 -1.242460E+05  1.792739E+01 -1.438691E+03 -4.517829E+01 -7.625784E-10  1.509546E-10
        45  18 -1.243652E+05 -5.741521E+02 -2.669548E+03 -1.995643E+02 -1.690606E-09 -7.291753E-10
        45  19 -1.243651E+05  3.308646E+01 -8.224252E+02 -1.092076E+02 -6.579645E+02  1.157611E-04
        45  20 -1.242460E+05  1.792791E+01 -1.438687E+03  4.517829E+01 -1.380333E+03 -1.004662E-04
        45  21 -1.243652E+05 -5.741509E+02 -2.669540E+03  1.995643E+02 -2.102700E+03 -6.760344E-04
        45  22 -1.243651E+05  3.308644E+01 -8.224252E+02  9.075654E-09 -6.579645E+02 -2.702841E-10
        45  23 -1.242460E+05  1.792790E+01 -1.438687E+03 -7.943801E-10 -1.380333E+03  1.023372E-10
        45  24 -1.243652E+05 -5.741510E+02 -2.669540E+03 -1.509405E-09 -2.102700E+03 -4.187569E-10
        45  25 -1.243651E+05  3.308646E+01 -8.224252E+02  1.092076E+02 -6.579645E+02 -1.157616E-04
        45  26 -1.242460E+05  1.792791E+01 -1.438687E+03 -4.517829E+01 -1.380333E+03  1.004664E-04
        45  27 -1.243652E+05 -5.741509E+02 -2.669540E+03 -1.995643E+02 -2.102700E+03  6.760336E-04
        46   1 -1.249563E+05  5.141204E+02 -3.360501E+03 -1.505860E+03  2.579094E+03 -6.256916E-03
        46   2 -1.235073E+05  2.530423E+01 -5.729252E+03  1.737548E+03  5.614559E+03  1.571665E-02
        46   3 -1.249569E+05 -1.047553E+04 -1.257750E+04  4.980896E+03  8.649981E+03  6.941138E-02
        46   4 -1.249563E+05  5.141161E+02 -3.360502E+03  1.510879E-09  2.579094E+03 -1.464166E-09
        46   5 -1.235073E+05  2.529855E+01 -5.729253E+03  2.685135E-09  5.614559E+03  3.200068E-10
        46   6 -1.249569E+05 -1.047558E+04 -1.257751E+04 -1.788264E-10  8.649981E+03  3.216951E-10
        46   7 -1.249563E+05  5.141204E+02 -3.360501E+03  1.505860E+03  2.579094E+03  6.256913E-03
        46   8 -1.235073E+05  2.530423E+01 -5.729252E+03 -1.737548E+03  5.614559E+03 -1.571665E-02
        46   9 -1.249569E+05 -1.047553E+04 -1.257750E+04 -4.980896E+03  8.649981E+03 -6.941138E-02
        46  10 -1.249563E+05  5.141186E+02 -3.360514E+03 -1.505860E+03 -2.296823E-09 -1.239279E-09
        46  11 -1.235074E+05  2.529576E+01 -5.729311E+03  1.737548E+03 -2.319029E-10  2.280113E-10
        46  12 -1.249570E+05 -1.047555E+04 -1.257764E+04  4.980896E+03  1.342795E-10  2.646656E-10
        46  13 -1.249563E+05  5.141144E+02 -3.360514E+03 -6.808986E-09 -2.067487E-09 -1.073442E-09
        46  14 -1.235074E+05  2.529009E+01 -5.729312E+03 -1.501358E-09 -1.615373E-09 -5.505578E-11
        46  15 -1.249570E+05 -1.047560E+04 -1.257765E+04 -1.577818E-09  5.550408E-10  1.119906E-10
        46  16 -1.249563E+05  5.141186E+02 -3.360514E+03  1.505860E+03  1.666792E-10 -9.030827E-10
        46  17 -1.235074E+05  2.529576E+01 -5.729311E+03 -1.737548E+03 -5.426147E-10 -3.340721E-10
        46  18 -1.249570E+05 -1.047555E+04 -1.257764E+04 -4.980896E+03 -1.268305E-09 -4.102640E-11
        46  19 -1.249563E+05  5.141204E+02 -3.360501E+03 -1.505860E+03 -2.579094E+03  6.256914E-03
        46  20 -1.235073E+05  2.530423E+01 -5.729252E+03  1.737548E+03 -5.614559E+03 -1.571665E-02
        46  21 -1.249569E+05 -1.047553E+04 -1.257750E+04  4.980896E+03 -8.649981E+03 -6.941138E-02
        46  22 -1.249563E+05  5.141161E+02 -3.360502E+03 -6.514002E-09 -2.579094E+03 -6.824105E-10
        46  23 -1.235073E+05  2.529855E+01 -5.729253E+03 -8.918486E-09 -5.614559E+03 -4.293270E-10
        46  24 -1.249569E+05 -1.047558E+04 -1.257751E+04 -4.592313E-09 -8.649981E+03 -9.885641E-11
        46  25 -1.249563E+05  5.141204E+02 -3.360501E+03  1.505860E+03 -2.579094E+03 -6.256915E-03
        46  26 -1.235073E+05  2.530423E+01 -5.729252E+03 -1.737548E+03 -5.614559E+03  1.571665E-02
        46  27 -1.249569E+05 -1.047553E+04 -1.257750E+04 -4.980896E+03 -8.649981E+03  6.941138E-02
        47   1  2.523635E+05  6.754519E+05  2.550033E+05 -1.112386E+05  1.058239E+04  5.916574E+04
        47   2  1.759379E+05  5.227174E+05  1.824644E+05 -7.023181E+04  3.187628E+04  2.642197E+04
        47   3  1.388061E+05  3.842131E+05  1.410788E+05 -8.846941E+04  2.974735E+04 -6.318416E+03
        47   4  3.688761E+04 -1.917292E+05  4.456676E+04 -9.341975E+04  1.059216E+04  2.902531E+04
        47   5 -1.626585E+02 -1.969588E+05  2.151789E+04 -6.380393E+04  3.188315E+04  1.767827E+04
        47   6 -1.605387E+03 -1.916721E+05  1.478902E+04 -9.343378E+04  2.974037E+04  6.326712E+03
        47   7 -1.786418E+05 -1.058221E+06 -1.659205E+05 -7.562574E+04  1.060020E+04 -1.073196E+03
        47   8 -1.762983E+05 -9.161525E+05 -1.394610E+05 -5.738350E+04  3.188984E+04  8.944583E+03
        47   9 -1.420389E+05 -7.672467E+05 -1.115203E+05 -9.839340E+04  2.973318E+04  1.896026E+04
        47  10  2.523625E+05  6.754481E+05  2.549965E+05 -1.112391E+05 -6.146302E-10 -2.763153E-10
        47  11  1.759367E+05  5.227164E+05  1.824612E+05 -7.023248E+04  1.525046E-10 -3.885723E-10
        47  12  1.388051E+05  3.842128E+05  1.410770E+05 -8.846926E+04  8.409815E-10 -1.037399E-10
        47  13  3.688726E+04 -1.917301E+05  4.456497E+04 -9.341999E+04 -7.978045E-11  5.863065E-11
        47  14 -1.638340E+02 -1.969594E+05  2.151540E+04 -6.380438E+04 -9.750047E-10  1.946846E-10
        47  15 -1.606347E+03 -1.916724E+05  1.478728E+04 -9.343393E+04  1.735942E-09  1.419162E-10
        47  16 -1.786420E+05 -1.058221E+06 -1.659207E+05 -7.562574E+04 -1.059069E-10  2.861219E-10
        47  17 -1.762994E+05 -9.161529E+05 -1.394630E+05 -5.738373E+04 -9.638978E-10  1.478218E-10
        47  18 -1.420399E+05 -7.672473E+05 -1.115226E+05 -9.839386E+04 -3.198669E-09 -2.307382E-11
        47  19  2.523635E+05  6.754519E+05  2.550033E+05 -1.112386E+05 -1.058239E+04 -5.916574E+04
        47  20  1.759379E+05  5.227174E+05  1.824644E+05 -7.023181E+04 -3.187628E+04 -2.642197E+04
        47  21  1.388061E+05  3.842131E+05  1.410788E+05 -8.846941E+04 -2.974735E+04  6.318416E+03
        47  22  3.688761E+04 -1.917292E+05  4.456676E+04 -9.341975E+04 -1.059216E+04 -2.902531E+04
        47  23 -1.626585E+02 -1.969588E+05  2.151789E+04 -6.380393E+04 -3.188315E+04 -1.767827E+04
        47  24 -1.605387E+03 -1.916721E+05  1.478902E+04 -9.343378E+04 -2.974037E+04 -6.326712E+03
        47  25 -1.786418E+05 -1.058221E+06 -1.659205E+05 -7.562574E+04 -1.060020E+04  1.073196E+03
        47  26 -1.762983E+05 -9.161525E+05 -1.394610E+05 -5.738350E+04 -3.188984E+04 -8.944583E+03
        47  27 -1.420389E+05 -7.672467E+05 -1.115203E+05 -9.839340E+04 -2.973318E+04 -1.896026E+04
        48   1  1.133448E+05  2.629096E+05  1.139196E+05 -9.518289E+04  2.285784E+04 -1.891810E+03
        48   2  7.574779E+04  1.163243E+05  8.039756E+04 -6.363928E+04  1.601572E+04 -8.662306E+03
        48   3  4.329331E+04 -2.815266E+04  5.254835E+04 -9.239819E+04  8.469184E+03 -1.543481E+04
        48   4  1.950371E+03 -1.935414E+05  1.338481E+04 -9.366501E+04  2.285422E+04  4.031754E+03
        48   5 -6.389299E+01 -1.945167E+05  1.219006E+04 -6.351253E+04  1.601042E+04 -2.093530E+03
        48   6  2.955166E+03 -1.935147E+05  1.622286E+04 -9.366409E+04  8.461992E+03 -8.222362E+03
        48   7 -1.094580E+05 -6.497976E+05 -8.716263E+04 -9.214821E+04  2.285063E+04  9.951014E+03
        48   8 -7.588201E+04 -5.052672E+05 -5.602316E+04 -6.338581E+04  1.600512E+04  4.471998E+03
        48   9 -3.738477E+04 -3.588510E+05 -2.010411E+04 -9.492964E+04  8.454770E+03 -1.011809E+03
        48  10  1.133443E+05  2.629095E+05  1.139186E+05 -9.518285E+04  9.330332E-10  2.188908E-09
        48  11  7.574749E+04  1.163241E+05  8.039693E+04 -6.363917E+04  1.145280E-09 -5.343165E-10
        48  12  4.329317E+04 -2.815294E+04  5.254777E+04 -9.239809E+04 -7.000104E-10 -1.685717E-09
        48  13  1.949806E+03 -1.935415E+05  1.338380E+04 -9.366508E+04 -6.760217E-11  3.458614E-10
        48  14 -6.416939E+01 -1.945168E+05  1.218957E+04 -6.351250E+04  9.074028E-10  4.763913E-10
        48  15  2.955071E+03 -1.935148E+05  1.622259E+04 -9.366404E+04  4.581465E-10  1.727225E-10
        48  16 -1.094586E+05 -6.497978E+05 -8.716380E+04 -9.214839E+04 -1.215208E-09 -2.148707E-09
        48  17 -7.588229E+04 -5.052673E+05 -5.602368E+04 -6.338587E+04 -7.713322E-10  4.825214E-11
        48  18 -3.738485E+04 -3.588510E+05 -2.010425E+04 -9.492964E+04 -5.522566E-10  1.525814E-09
        48  19  1.133448E+05  2.629096E+05  1.139196E+05 -9.518289E+04 -2.285784E+04  1.891810E+03
        48  20  7.574779E+04  1.163243E+05  8.039756E+04 -6.363928E+04 -1.601572E+04  8.662306E+03
        48  21  4.329331E+04 -2.815266E+04  5.254835E+04 -9.239819E+04 -8.469184E+03  1.543481E+04
        48  22  1.950371E+03 -1.935414E+05  1.338481E+04 -9.366501E+04 -2.285422E+04 -4.031754E+03
        48  23 -6.389299E+01 -1.945167E+05  1.219006E+04 -6.351253E+04 -1.601042E+04  2.093530E+03
        48  24  2.955166E+03 -1.935147E+05  1.622286E+04 -9.366409E+04 -8.461992E+03  8.222362E+03
        48  25 -1.094580E+05 -6.497976E+05 -8.716263E+04 -9.214821E+04 -2.285063E+04 -9.951014E+03
        48  26 -7.588201E+04 -5.052672E+05 -5.602316E+04 -6.338581E+04 -1.600512E+04 -4.471998E+03
        48  27 -3.738477E+04 -3.588510E+05 -2.010411E+04 -9.492964E+04 -8.454770E+03  1.011809E+03
        49   1  8.918912E+03 -1.444670E+05  2.883914E+04 -1.011914E+05  2.899701E+03 -2.020237E+04
        49   2 -2.433844E+04 -2.967321E+05  7.105870E+03 -5.470465E+04 -3.295802E+03 -2.898598E+04
        49   3 -8.113001E+03 -4.355759E+05  3.436193E+03 -6.822427E+04 -1.828775E+03 -3.776083E+04
        49   4 -2.319851E+03 -1.907035E+05  1.898316E+04 -9.361064E+04  2.889909E+03 -1.105313E+04
        49   5 -2.389174E+01 -1.980078E+05  2.982361E+04 -6.358417E+04 -3.297488E+03 -2.682620E+04
        49   6  5.296267E+04 -1.907062E+05  6.357827E+04 -9.355953E+04 -1.822466E+03 -4.259248E+04
        49   7 -1.355849E+04 -2.369376E+05  9.127402E+03 -8.603048E+04  2.880340E+03 -1.904559E+03
        49   8  2.429027E+04 -9.927427E+04  5.254076E+04 -7.246511E+04 -3.299236E+03 -2.466607E+04
        49   9  1.140363E+05  5.421948E+04  1.237164E+05 -1.189048E+05 -1.815763E+03 -4.742604E+04
        49  10  8.918793E+03 -1.444674E+05  2.883836E+04 -1.011913E+05 -3.869569E-10  1.364257E-09
        49  11 -2.433868E+04 -2.967330E+05  7.104270E+03 -5.470473E+04 -1.449515E-09  2.047014E-11
        49  12 -8.113387E+03 -4.355775E+05  3.433506E+03 -6.822432E+04 -5.513318E-10  2.347692E-10
        49  13 -2.319893E+03 -1.907036E+05  1.898292E+04 -9.361062E+04  1.131785E-10  4.890859E-10
        49  14 -2.409669E+01 -1.980086E+05  2.982224E+04 -6.358424E+04  3.207450E-09  5.006663E-10
        49  15  5.296218E+04 -1.907082E+05  6.357486E+04 -9.355959E+04  4.211755E-10  1.733441E-10
        49  16 -1.355850E+04 -2.369376E+05  9.127380E+03 -8.603047E+04  6.583207E-11 -1.346302E-09
        49  17  2.429010E+04 -9.927493E+04  5.253960E+04 -7.246517E+04  7.596321E-10 -6.113630E-10
        49  18  1.140357E+05  5.421707E+04  1.237121E+05 -1.189049E+05  7.665468E-10 -3.847978E-10
        49  19  8.918912E+03 -1.444670E+05  2.883914E+04 -1.011914E+05 -2.899701E+03  2.020237E+04
        49  20 -2.433844E+04 -2.967321E+05  7.105870E+03 -5.470465E+04  3.295802E+03  2.898598E+04
        49  21 -8.113001E+03 -4.355759E+05  3.436193E+03 -6.822427E+04  1.828775E+03  3.776083E+04
        49  22 -2.319851E+03 -1.907035E+05  1.898316E+04 -9.361064E+04 -2.889909E+03  1.105313E+04
        49  23 -2.389174E+01 -1.980078E+05  2.982361E+04 -6.358417E+04  3.297488E+03  2.682620E+04
        49  24  5.296267E+04 -1.907062E+05  6.357827E+04 -9.355953E+04  1.822466E+03  4.259248E+04
        49  25 -1.355849E+04 -2.369376E+05  9.127402E+03 -8.603048E+04 -2.880340E+03  1.904559E+03
        49  26  2.429027E+04 -9.927427E+04  5.254076E+04 -7.246511E+04  3.299236E+03  2.466607E+04
        49  27  1.140363E+05  5.421948E+04  1.237164E+05 -1.189048E+05  1.815763E+03  4.742604E+04
        50   1 -5.767839E+05 -1.435986E+05 -5.763938E+04 -2.194827E+05 -2.483679E+04 -7.949080E+03
        50   2 -5.621952E+05 -1.043248E+05 -3.304159E+04 -2.143788E+05 -1.570749E+04 -1.812410E+03
        50   3 -5.537118E+05 -9.542059E+04 -2.288792E+04 -2.083457E+05 -5.573213E+03  1.644862E+03
        50   4 -4.938454E+05 -1.009977E+05 -3.324516E+04 -1.851513E+05 -2.166534E+04 -6.760452E+03
        50   5 -4.892215E+05 -7.327395E+04 -1.440103E+04 -1.904009E+05 -1.482148E+04 -1.480365E+03
        50   6 -4.902486E+05 -7.546514E+04 -8.188125E+03 -1.947218E+05 -6.972811E+03  1.120154E+03
        50   7 -4.109011E+05 -5.839495E+04 -8.851931E+03 -1.508157E+05 -1.849348E+04 -5.571519E+03
        50   8 -4.162428E+05 -4.222235E+04  4.239027E+03 -1.664203E+05 -1.393536E+04 -1.148265E+03
        50   9 -4.267809E+05 -5.550951E+04  6.511533E+03 -1.810967E+05 -8.372576E+03  5.954049E+02
        50  10 -5.767846E+05 -1.435988E+05 -5.764066E+04 -2.194828E+05  1.433487E-08  6.005649E-09
        50  11 -5.621955E+05 -1.043249E+05 -3.304206E+04 -2.143788E+05 -4.935942E-09 -1.025995E-10
        50  12 -5.537118E+05 -9.542060E+04 -2.288798E+04 -2.083457E+05 -1.901014E-08 -7.218330E-09
        50  13 -4.938459E+05 -1.009978E+05 -3.324613E+04 -1.851514E+05  1.134439E-09  1.278816E-11
        50  14 -4.892218E+05 -7.327401E+04 -1.440144E+04 -1.904009E+05 -5.155679E-09 -3.661756E-12
        50  15 -4.902486E+05 -7.546515E+04 -8.188219E+03 -1.947218E+05  6.685435E-10 -5.678170E-11
        50  16 -4.109015E+05 -5.839508E+04 -8.852632E+03 -1.508158E+05 -1.560378E-08 -5.877072E-09
        50  17 -4.162430E+05 -4.222240E+04  4.238659E+03 -1.664204E+05 -2.733363E-09  5.411688E-10
        50  18 -4.267810E+05 -5.550953E+04  6.511400E+03 -1.810967E+05  1.974952E-08  7.273730E-09
        50  19 -5.767839E+05 -1.435986E+05 -5.763938E+04 -2.194827E+05  2.483679E+04  7.949080E+03
        50  20 -5.621952E+05 -1.043248E+05 -3.304159E+04 -2.143788E+05  1.570749E+04  1.812410E+03
        50  21 -5.537118E+05 -9.542059E+04 -2.288792E+04 -2.083457E+05  5.573213E+03 -1.644862E+03
        50  22 -4.938454E+05 -1.009977E+05 -3.324516E+04 -1.851513E+05  2.166534E+04  6.760452E+03
        50  23 -4.892215E+05 -7.327395E+04 -1.440103E+04 -1.904009E+05  1.482148E+04  1.480365E+03
        50  24 -4.902486E+05 -7.546514E+04 -8.188125E+03 -1.947218E+05  6.972811E+03 -1.120154E+03
        50  25 -4.109011E+05 -5.839495E+04 -8.851931E+03 -1.508157E+05  1.849348E+04  5.571519E+03
        50  26 -4.162428E+05 -4.222235E+04  4.239027E+03 -1.664203E+05  1.393536E+04  1.148265E+03
        50  27 -4.267809E+05 -5.550951E+04  6.511533E+03 -1.810967E+05  8.372576E+03 -5.954049E+02
        51   1 -5.366318E+05 -9.618113E+04 -1.811596E+04 -2.067446E+05 -5.036762E+03  9.477761E+02
        51   2 -5.236349E+05 -8.621968E+04 -1.123493E+04 -1.999048E+05 -2.956969E+03  8.664636E+02
        51   3 -5.065833E+05 -8.275111E+04 -6.123358E+03 -1.983209E+05 -8.318204E+02  6.641689E+02
        51   4 -4.891764E+05 -7.799731E+04 -6.494689E+03 -1.931938E+05 -5.629547E+03  7.255254E+02
        51   5 -4.911050E+05 -7.399082E+04 -3.332533E+03 -1.908544E+05 -3.652850E+03  6.055857E+02
        51   6 -4.889587E+05 -7.645660E+04 -1.857972E+03 -1.937709E+05 -1.630865E+03  3.646461E+02
        51   7 -4.417186E+05 -5.981325E+04  5.126447E+03 -1.796419E+05 -6.222384E+03  5.032542E+02
        51   8 -4.585743E+05 -6.176198E+04  4.569711E+03 -1.818036E+05 -4.348764E+03  3.446946E+02
        51   9 -4.713342E+05 -7.016220E+04  2.407301E+03 -1.892208E+05 -2.429919E+03  6.512067E+01
        51  10 -5.366318E+05 -9.618113E+04 -1.811600E+04 -2.067446E+05 -2.066675E-09 -1.421050E-09
        51  11 -5.236349E+05 -8.621968E+04 -1.123495E+04 -1.999048E+05 -2.226521E-09 -1.340999E-09
        51  12 -5.065833E+05 -8.275111E+04 -6.123360E+03 -1.983209E+05  1.718753E-10 -7.655473E-10
        51  13 -4.891764E+05 -7.799732E+04 -6.494749E+03 -1.931938E+05 -7.659248E-10 -3.271684E-10
        51  14 -4.911050E+05 -7.399082E+04 -3.332559E+03 -1.908544E+05  6.829968E-11 -6.981170E-10
        51  15 -4.889587E+05 -7.645660E+04 -1.857977E+03 -1.937709E+05  1.058398E-10 -1.228112E-10
        51  16 -4.417187E+05 -5.981326E+04  5.126374E+03 -1.796419E+05  1.900420E-09  4.552135E-10
        51  17 -4.585743E+05 -6.176198E+04  4.569676E+03 -1.818036E+05  4.639759E-10 -7.176239E-10
        51  18 -4.713342E+05 -7.016220E+04  2.407290E+03 -1.892208E+05  4.160293E-10  4.623623E-10
        51  19 -5.366318E+05 -9.618113E+04 -1.811596E+04 -2.067446E+05  5.036762E+03 -9.477761E+02
        51  20 -5.236349E+05 -8.621968E+04 -1.123493E+04 -1.999048E+05  2.956969E+03 -8.664636E+02
        51  21 -5.065833E+05 -8.275111E+04 -6.123358E+03 -1.983209E+05  8.318204E+02 -6.641689E+02
        51  22 -4.891764E+05 -7.799731E+04 -6.494689E+03 -1.931938E+05  5.629547E+03 -7.255254E+02
        51  23 -4.911050E+05 -7.399082E+04 -3.332533E+03 -1.908544E+05  3.652850E+03 -6.055857E+02
        51  24 -4.889587E+05 -7.645660E+04 -1.857972E+03 -1.937709E+05  1.630865E+03 -3.646461E+02
        51  25 -4.417186E+05 -5.981325E+04  5.126447E+03 -1.796419E+05  6.222384E+03 -5.032542E+02
        51  26 -4.585743E+05 -6.176198E+04  4.569711E+03 -1.818036E+05  4.348764E+03 -3.446946E+02
        51  27 -4.713342E+05 -7.016220E+04  2.407301E+03 -1.892208E+05  2.429919E+03 -6.512067E+01
        52   1 -4.933431E+05 -7.825406E+04 -2.451199E+03 -1.948930E+05 -4.040317E+02  2.114113E+02
        52   2 -4.805288E+05 -7.005983E+04  1.814797E+03 -1.879295E+05  3.272969E+02 -5.370223E+02
        52   3 -4.629127E+05 -6.686102E+04  5.760028E+03 -1.865636E+05  1.060509E+03 -1.290341E+03
        52   4 -4.888640E+05 -7.660351E+04 -1.418306E+03 -1.936687E+05 -1.167042E+03 -7.459947E+01
        52   5 -4.912591E+05 -7.406398E+04 -7.814619E+02 -1.908856E+05 -4.399026E+02 -8.246181E+02
        52   6 -4.888519E+05 -7.651919E+04 -4.620843E+02 -1.937002E+05  2.891080E+02 -1.579524E+03
        52   7 -4.843848E+05 -7.495293E+04 -3.853921E+02 -1.924444E+05 -1.930070E+03 -3.606171E+02
        52   8 -5.019894E+05 -7.806817E+04 -3.377768E+03 -1.938416E+05 -1.207098E+03 -1.112212E+03
        52   9 -5.147906E+05 -8.617743E+04 -6.684325E+03 -2.008366E+05 -4.822665E+02 -1.868698E+03
        52  10 -4.933431E+05 -7.825406E+04 -2.451199E+03 -1.948930E+05 -1.666245E-09 -7.172602E-10
        52  11 -4.805288E+05 -7.005983E+04  1.814797E+03 -1.879295E+05  5.865177E-09  2.223956E-09
        52  12 -4.629127E+05 -6.686103E+04  5.760022E+03 -1.865636E+05  1.345807E-08  6.015614E-09
        52  13 -4.888640E+05 -7.660351E+04 -1.418309E+03 -1.936687E+05 -1.496290E-09 -2.270669E-10
        52  14 -4.912591E+05 -7.406398E+04 -7.814635E+02 -1.908856E+05  5.317844E-10 -6.261634E-10
        52  15 -4.888519E+05 -7.651920E+04 -4.620892E+02 -1.937002E+05  1.613657E-09  1.209889E-09
        52  16 -4.843848E+05 -7.495293E+04 -3.853993E+02 -1.924444E+05  1.354921E-09  3.707515E-10
        52  17 -5.019894E+05 -7.806817E+04 -3.377773E+03 -1.938416E+05 -6.479292E-09 -3.356127E-09
        52  18 -5.147906E+05 -8.617743E+04 -6.684332E+03 -2.008366E+05 -1.075930E-08 -2.883458E-09
        52  19 -4.933431E+05 -7.825406E+04 -2.451199E+03 -1.948930E+05  4.040317E+02 -2.114113E+02
        52  20 -4.805288E+05 -7.005983E+04  1.814797E+03 -1.879295E+05 -3.272969E+02  5.370223E+02
        52  21 -4.629127E+05 -6.686102E+04  5.760028E+03 -1.865636E+05 -1.060509E+03  1.290341E+03
        52  22 -4.888640E+05 -7.660351E+04 -1.418306E+03 -1.936687E+05  1.167042E+03  7.459947E+01
        52  23 -4.912591E+05 -7.406398E+04 -7.814619E+02 -1.908856E+05  4.399026E+02  8.246181E+02
        52  24 -4.888519E+05 -7.651919E+04 -4.620843E+02 -1.937002E+05 -2.891080E+02  1.579524E+03
        52  25 -4.843848E+05 -7.495293E+04 -3.853921E+02 -1.924444E+05  1.930070E+03  3.606171E+02
        52  26 -5.019894E+05 -7.806817E+04 -3.377768E+03 -1.938416E+05  1.207098E+03  1.112212E+03
        52  27 -5.147906E+05 -8.617743E+04 -6.684325E+03 -2.008366E+05  4.822665E+02  1.868698E+03
        53   1 -4.499664E+05 -6.205474E+04  9.080644E+03 -1.830330E+05  1.324457E+03 -1.790884E+03
        53   2 -4.372081E+05 -5.397552E+04  1.279237E+04 -1.760728E+05  1.800562E+03 -2.640188E+03
        53   3 -4.195895E+05 -5.078698E+04  1.639932E+04 -1.747110E+05  2.276442E+03 -3.488697E+03
        53   4 -4.888435E+05 -7.652397E+04 -3.729755E+02 -1.936901E+05  5.551056E+02 -2.079309E+03
        53   5 -4.912734E+05 -7.407770E+04 -2.788372E+02 -1.908913E+05  1.031857E+03 -2.928398E+03
        53   6 -4.888434E+05 -7.652207E+04 -2.899421E+02 -1.936909E+05  1.508382E+03 -3.776698E+03
        53   7 -5.277183E+05 -9.099282E+04 -9.826500E+03 -2.043464E+05 -2.141784E+02 -2.367710E+03
        53   8 -5.453355E+05 -9.417956E+04 -1.335017E+04 -2.057086E+05  2.632281E+02 -3.216580E+03
        53   9 -5.580931E+05 -1.022570E+05 -1.697970E+04 -2.126690E+05  7.404096E+02 -4.064666E+03
        53  10 -4.499664E+05 -6.205474E+04  9.080635E+03 -1.830330E+05 -9.385149E-09 -2.726435E-09
        53  11 -4.372081E+05 -5.397553E+04  1.279235E+04 -1.760728E+05 -5.037881E-09 -2.998940E-09
        53  12 -4.195896E+05 -5.078699E+04  1.639928E+04 -1.747110E+05  3.114981E-09  1.246033E-10
        53  13 -4.888435E+05 -7.652398E+04 -3.729842E+02 -1.936901E+05  1.274313E-09  1.602364E-09
        53  14 -4.912734E+05 -7.407771E+04 -2.788553E+02 -1.908913E+05 -7.140848E-10 -7.372494E-10
        53  15 -4.888434E+05 -7.652209E+04 -2.899731E+02 -1.936909E+05 -9.754688E-10 -9.541598E-10
        53  16 -5.277183E+05 -9.099283E+04 -9.826510E+03 -2.043464E+05  1.357021E-08  5.994020E-09
        53  17 -5.453355E+05 -9.417957E+04 -1.335019E+04 -2.057086E+05  3.902772E-09  1.919656E-09
        53  18 -5.580931E+05 -1.022571E+05 -1.697974E+04 -2.126690E+05 -2.018798E-09 -1.873756E-09
        53  19 -4.499664E+05 -6.205474E+04  9.080644E+03 -1.830330E+05 -1.324457E+03  1.790884E+03
        53  20 -4.372081E+05 -5.397552E+04  1.279237E+04 -1.760728E+05 -1.800562E+03  2.640188E+03
        53  21 -4.195895E+05 -5.078698E+04  1.639932E+04 -1.747110E+05 -2.276442E+03  3.488697E+03
        53  22 -4.888435E+05 -7.652397E+04 -3.729755E+02 -1.936901E+05 -5.551056E+02  2.079309E+03
        53  23 -4.912734E+05 -7.407770E+04 -2.788372E+02 -1.908913E+05 -1.031857E+03  2.928398E+03
        53  24 -4.888434E+05 -7.652207E+04 -2.899421E+02 -1.936909E+05 -1.508382E+03  3.776698E+03
        53  25 -5.277183E+05 -9.099282E+04 -9.826500E+03 -2.043464E+05  2.141784E+02  2.367710E+03
        53  26 -5.453355E+05 -9.417956E+04 -1.335017E+04 -2.057086E+05 -2.632281E+02  3.216580E+03
        53  27 -5.580931E+05 -1.022570E+05 -1.697970E+04 -2.126690E+05 -7.404096E+02  4.064666E+03
        54   1 -4.067088E+05 -4.597478E+04  1.957998E+04 -1.711843E+05  2.523211E+03 -3.993179E+03
        54   2 -3.940071E+05 -3.793693E+04  2.299782E+04 -1.642564E+05  3.113003E+03 -4.795451E+03
        54   3 -3.764856E+05 -3.477753E+04  2.622321E+04 -1.629004E+05  3.701978E+03 -5.595182E+03
        54   4 -4.888527E+05 -7.651707E+04 -3.315832E+02 -1.936862E+05  1.756359E+03 -4.280757E+03
        54   5 -4.912637E+05 -7.408312E+04 -5.125495E+02 -1.908983E+05  2.348256E+03 -5.082298E+03
        54   6 -4.888554E+05 -7.652812E+04 -8.875964E+02 -1.936826E+05  2.939328E+03 -5.881298E+03
        54   7 -5.709899E+05 -1.070589E+05 -2.024364E+04 -2.161854E+05  9.896181E+02 -4.568294E+03
        54   8 -5.885107E+05 -1.102286E+05 -2.402354E+04 -2.175364E+05  1.583641E+03 -5.369095E+03
        54   9 -6.012121E+05 -1.182776E+05 -2.799918E+04 -2.244595E+05  2.176831E+03 -6.167357E+03
        54  10 -4.067088E+05 -4.597480E+04  1.957994E+04 -1.711843E+05  4.305255E-10 -5.918316E-10
        54  11 -3.940071E+05 -3.793695E+04  2.299775E+04 -1.642563E+05 -4.641859E-10 -5.470135E-11
        54  12 -3.764856E+05 -3.477757E+04  2.622313E+04 -1.629004E+05  2.329872E-10  6.457070E-10
        54  13 -4.888527E+05 -7.651709E+04 -3.316234E+02 -1.936862E+05  1.189394E-09 -2.948304E-10
        54  14 -4.912637E+05 -7.408315E+04 -5.126084E+02 -1.908983E+05  4.230440E-10  5.585399E-10
        54  15 -4.888554E+05 -7.652816E+04 -8.876776E+02 -1.936826E+05 -1.107648E-09  2.886864E-10
        54  16 -5.709899E+05 -1.070589E+05 -2.024368E+04 -2.161854E+05  3.028861E-10 -4.428786E-11
        54  17 -5.885107E+05 -1.102286E+05 -2.402360E+04 -2.175364E+05 -1.835625E-09  1.309540E-09
        54  18 -6.012121E+05 -1.182777E+05 -2.799926E+04 -2.244595E+05 -6.877570E-10  3.789747E-12
        54  19 -4.067088E+05 -4.597478E+04  1.957998E+04 -1.711843E+05 -2.523211E+03  3.993179E+03
        54  20 -3.940071E+05 -3.793693E+04  2.299782E+04 -1.642564E+05 -3.113003E+03  4.795451E+03
        54  21 -3.764856E+05 -3.477753E+04  2.622321E+04 -1.629004E+05 -3.701978E+03  5.595182E+03
        54  22 -4.888527E+05 -7.651707E+04 -3.315832E+02 -1.936862E+05 -1.756359E+03  4.280757E+03
        54  23 -4.912637E+05 -7.408312E+04 -5.125495E+02 -1.908983E+05 -2.348256E+03  5.082298E+03
        54  24 -4.888554E+05 -7.652812E+04 -8.875964E+02 -1.936826E+05 -2.939328E+03  5.881298E+03
        54  25 -5.709899E+05 -1.070589E+05 -2.024364E+04 -2.161854E+05 -9.896181E+02  4.568294E+03
        54  26 -5.885107E+05 -1.102286E+05 -2.402354E+04 -2.175364E+05 -1.583641E+03  5.369095E+03
        54  27 -6.012121E+05 -1.182776E+05 -2.799918E+04 -2.244595E+05 -2.176831E+03  6.167357E+03
        55   1 -3.636870E+05 -3.000132E+04  2.914396E+04 -1.594439E+05  4.069377E+03 -6.052046E+03
        55   2 -3.510324E+05 -2.197890E+04  3.178641E+04 -1.525121E+05  5.438511E+03 -6.551153E+03
        55   3 -3.337870E+05 -1.905831E+04  3.358779E+04 -1.510742E+05  6.801680E+03 -7.033677E+03
        55   4 -4.888964E+05 -7.650122E+04 -1.168596E+03 -1.936944E+05  3.304548E+03 -6.339024E+03
        55   5 -4.912078E+05 -7.406759E+04 -2.098105E+03 -1.909031E+05  4.687544E+03 -6.833017E+03
        55   6 -4.889316E+05 -7.673887E+04 -3.879893E+03 -1.936060E+05  6.064545E+03 -7.310434E+03
        55   7 -6.140910E+05 -1.230003E+05 -3.148249E+04 -2.279387E+05  2.539884E+03 -6.625940E+03
        55   8 -6.313642E+05 -1.261551E+05 -3.598418E+04 -2.292862E+05  3.936761E+03 -7.114813E+03
        55   9 -6.440524E+05 -1.344178E+05 -4.134936E+04 -2.361281E+05  5.327611E+03 -7.587117E+03
        55  10 -3.636870E+05 -3.000137E+04  2.914386E+04 -1.594439E+05 -6.452225E-10  5.197080E-10
        55  11 -3.510325E+05 -2.197895E+04  3.178628E+04 -1.525121E+05  2.511273E-09  1.277042E-09
        55  12 -3.337871E+05 -1.905837E+04  3.358761E+04 -1.510742E+05  4.968877E-09 -9.837357E-11
        55  13 -4.888964E+05 -7.650126E+04 -1.168692E+03 -1.936944E+05 -3.735388E-10  5.075939E-10
        55  14 -4.912079E+05 -7.406764E+04 -2.098234E+03 -1.909030E+05  3.475556E-10  1.153777E-09
        55  15 -4.889317E+05 -7.673894E+04 -3.880063E+03 -1.936060E+05  4.791059E-10 -5.122286E-11
        55  16 -6.140910E+05 -1.230003E+05 -3.148258E+04 -2.279387E+05  2.697054E-09  6.273022E-10
        55  17 -6.313642E+05 -1.261551E+05 -3.598430E+04 -2.292862E+05  2.165210E-09  1.108748E-09
        55  18 -6.440525E+05 -1.344179E+05 -4.134952E+04 -2.361281E+05 -2.168072E-09 -2.914742E-10
        55  19 -3.636870E+05 -3.000132E+04  2.914396E+04 -1.594439E+05 -4.069377E+03  6.052046E+03
        55  20 -3.510324E+05 -2.197890E+04  3.178641E+04 -1.525121E+05 -5.438511E+03  6.551153E+03
        55  21 -3.337870E+05 -1.905831E+04  3.358779E+04 -1.510742E+05 -6.801680E+03  7.033677E+03
        55  22 -4.888964E+05 -7.650122E+04 -1.168596E+03 -1.936944E+05 -3.304548E+03  6.339024E+03
        55  23 -4.912078E+05 -7.406759E+04 -2.098105E+03 -1.909031E+05 -4.687544E+03  6.833017E+03
        55  24 -4.889316E+05 -7.673887E+04 -3.879893E+03 -1.936060E+05 -6.064545E+03  7.310434E+03
        55  25 -6.140910E+05 -1.230003E+05 -3.148249E+04 -2.279387E+05 -2.539884E+03  6.625940E+03
        55  26 -6.313642E+05 -1.261551E+05 -3.598418E+04 -2.292862E+05 -3.936761E+03  7.114813E+03
        55  27 -6.440524E+05 -1.344178E+05 -4.134936E+04 -2.361281E+05 -5.327611E+03  7.587117E+03
        56   1 -3.208462E+05 -1.442952E+04  3.552230E+04 -1.484666E+05  7.813710E+03 -7.275416E+03
        56   2 -3.084180E+05 -5.666343E+03  3.501326E+04 -1.404261E+05  1.252316E+04 -6.436285E+03
        56   3 -2.933953E+05 -5.991455E+03  3.006462E+04 -1.368896E+05  1.711777E+04 -5.290314E+03
        56   4 -4.892028E+05 -7.632553E+04 -5.100358E+03 -1.938782E+05  6.987746E+03 -7.585557E+03
        56   5 -4.907748E+05 -7.388022E+04 -9.178765E+03 -1.908293E+05  1.195767E+04 -6.648792E+03
        56   6 -4.898049E+05 -8.057571E+04 -1.790426E+04 -1.922844E+05  1.681265E+04 -5.405194E+03
        56   7 -6.575306E+05 -1.382194E+05 -4.572488E+04 -2.392784E+05  6.162030E+03 -7.895608E+03
        56   8 -6.730987E+05 -1.420917E+05 -5.337326E+04 -2.412190E+05  1.139236E+04 -6.861231E+03
        56   9 -6.861774E+05 -1.551572E+05 -6.587631E+04 -2.476634E+05  1.650763E+04 -5.520033E+03
        56  10 -3.208463E+05 -1.442959E+04  3.552209E+04 -1.484665E+05 -4.086242E-10 -1.144848E-09
        56  11 -3.084181E+05 -5.666430E+03  3.501289E+04 -1.404260E+05  4.061518E-09  2.211404E-09
        56  12 -2.933956E+05 -5.991563E+03  3.006402E+04 -1.368895E+05  3.003209E-09  8.631805E-10
        56  13 -4.892029E+05 -7.632560E+04 -5.100558E+03 -1.938781E+05  2.089388E-09  1.013782E-10
        56  14 -4.907750E+05 -7.388031E+04 -9.179117E+03 -1.908292E+05  5.105513E-09  1.995216E-09
        56  15 -4.898052E+05 -8.057581E+04 -1.790484E+04 -1.922844E+05  8.196833E-10  3.144343E-10
        56  16 -6.575306E+05 -1.382195E+05 -4.572506E+04 -2.392783E+05  4.872903E-09  1.490298E-09
        56  17 -6.730989E+05 -1.420918E+05 -5.337360E+04 -2.412189E+05  3.079921E-09  1.867225E-09
        56  18 -6.861777E+05 -1.551574E+05 -6.587688E+04 -2.476634E+05 -5.201053E-10 -2.407953E-10
        56  19 -3.208462E+05 -1.442952E+04  3.552230E+04 -1.484666E+05 -7.813710E+03  7.275416E+03
        56  20 -3.084180E+05 -5.666343E+03  3.501326E+04 -1.404261E+05 -1.252316E+04  6.436285E+03
        56  21 -2.933953E+05 -5.991455E+03  3.006462E+04 -1.368896E+05 -1.711777E+04  5.290314E+03
        56  22 -4.892028E+05 -7.632553E+04 -5.100358E+03 -1.938782E+05 -6.987746E+03  7.585557E+03
        56  23 -4.907748E+05 -7.388022E+04 -9.178765E+03 -1.908293E+05 -1.195767E+04  6.648792E+03
        56  24 -4.898049E+05 -8.057571E+04 -1.790426E+04 -1.922844E+05 -1.681265E+04  5.405194E+03
        56  25 -6.575306E+05 -1.382194E+05 -4.572488E+04 -2.392784E+05 -6.162030E+03  7.895608E+03
        56  26 -6.730987E+05 -1.420917E+05 -5.337326E+04 -2.412190E+05 -1.139236E+04  6.861231E+03
        56  27 -6.861774E+05 -1.551572E+05 -6.587631E+04 -2.476634E+05 -1.650763E+04  5.520033E+03
        57   1 -2.752879E+05 -2.740227E+03  2.814758E+04 -1.472069E+05  2.247767E+04 -4.614428E+03
        57   2 -2.690315E+05  1.950149E+04  1.532701E+04 -1.191571E+05  3.781385E+04  1.877373E+03
        57   3 -2.859229E+05 -3.086614E+04 -2.775367E+04 -7.853767E+04  5.061522E+04  1.511879E+04
        57   4 -4.927581E+05 -7.359723E+04 -2.257616E+04 -1.965026E+05  2.014105E+04 -5.491692E+03
        57   5 -4.855827E+05 -7.190343E+04 -3.971219E+04 -1.895771E+05  4.123133E+04  3.159718E+03
        57   6 -5.027063E+05 -1.439762E+05 -9.167763E+04 -1.700794E+05  5.978601E+04  1.856048E+04
        57   7 -7.101815E+05 -1.444535E+05 -7.330307E+04 -2.457838E+05  1.780532E+04 -6.368717E+03
        57   8 -7.020866E+05 -1.633010E+05 -9.475493E+04 -2.599732E+05  4.464751E+04  4.441423E+03
        57   9 -7.194400E+05 -2.570680E+05 -1.556053E+05 -2.615875E+05  6.895324E+04  2.199967E+04
        57  10 -2.752884E+05 -2.740386E+03  2.814659E+04 -1.472068E+05  1.382598E-09 -1.684814E-09
        57  11 -2.690330E+05  1.950111E+04  1.532432E+04 -1.191571E+05 -1.165708E-09 -5.676564E-10
        57  12 -2.859257E+05 -3.086707E+04 -2.775891E+04 -7.853828E+04 -1.476792E-09 -1.688060E-11
        57  13 -4.927585E+05 -7.359737E+04 -2.257698E+04 -1.965025E+05 -2.121536E-09 -2.293824E-10
        57  14 -4.855846E+05 -7.190389E+04 -3.971541E+04 -1.895772E+05 -3.088509E-09 -1.814152E-09
        57  15 -5.027102E+05 -1.439775E+05 -9.168500E+04 -1.700803E+05 -3.915739E-10 -1.012889E-10
        57  16 -7.101818E+05 -1.444536E+05 -7.330374E+04 -2.457837E+05  1.351709E-10  2.763755E-10
        57  17 -7.020888E+05 -1.633016E+05 -9.475872E+04 -2.599734E+05  1.667575E-09 -5.114968E-10
        57  18 -7.194452E+05 -2.570698E+05 -1.556151E+05 -2.615887E+05 -6.059310E-12 -1.433188E-12
        57  19 -2.752879E+05 -2.740227E+03  2.814758E+04 -1.472069E+05 -2.247767E+04  4.614428E+03
        57  20 -2.690315E+05  1.950149E+04  1.532701E+04 -1.191571E+05 -3.781385E+04 -1.877373E+03
        57  21 -2.859229E+05 -3.086614E+04 -2.775367E+04 -7.853767E+04 -5.061522E+04 -1.511879E+04
        57  22 -4.927581E+05 -7.359723E+04 -2.257616E+04 -1.965026E+05 -2.014105E+04  5.491692E+03
        57  23 -4.855827E+05 -7.190343E+04 -3.971219E+04 -1.895771E+05 -4.123133E+04 -3.159718E+03
        57  24 -5.027063E+05 -1.439762E+05 -9.167763E+04 -1.700794E+05 -5.978601E+04 -1.856048E+04
        57  25 -7.101815E+05 -1.444535E+05 -7.330307E+04 -2.457838E+05 -1.780532E+04  6.368717E+03
        57  26 -7.020866E+05 -1.633010E+05 -9.475493E+04 -2.599732E+05 -4.464751E+04 -4.441423E+03
        57  27 -7.194400E+05 -2.570680E+05 -1.556053E+05 -2.615875E+05 -6.895324E+04 -2.199967E+04
        58   1 -7.866991E+03  9.739549E+03  1.169342E+04  4.631289E+03  8.046402E+03  6.002532E-02
        58   2 -9.214245E+03 -2.332144E+01  5.323756E+03  1.615408E+03  5.225683E+03  1.359742E-02
        58   3 -7.867068E+03 -4.778709E+02  3.117663E+03 -1.400510E+03  2.404922E+03 -5.425223E-03
        58   4 -7.867014E+03  9.739509E+03  1.169342E+04 -1.378633E-09  8.046402E+03  1.855381E-10
        58   5 -9.214247E+03 -2.332634E+01  5.323756E+03  1.743369E-10  5.225683E+03  4.692632E-10
        58   6 -7.867070E+03 -4.778746E+02  3.117663E+03  7.111908E-09  2.404922E+03  7.363067E-11
        58   7 -7.866991E+03  9.739549E+03  1.169342E+04 -4.631289E+03  8.046402E+03 -6.002532E-02
        58   8 -9.214245E+03 -2.332144E+01  5.323756E+03 -1.615408E+03  5.225683E+03 -1.359742E-02
        58   9 -7.867068E+03 -4.778709E+02  3.117663E+03  1.400510E+03  2.404922E+03  5.425223E-03
        58  10 -7.867060E+03  9.739532E+03  1.169330E+04  4.631289E+03 -9.614419E-11  1.459197E-10
        58  11 -9.214274E+03 -2.332877E+01  5.323705E+03  1.615408E+03 -4.309277E-10  3.714863E-10
        58  12 -7.867074E+03 -4.778725E+02  3.117652E+03 -1.400510E+03  1.739536E-09  1.289181E-10
        58  13 -7.867083E+03  9.739492E+03  1.169330E+04 -3.380740E-09 -2.661437E-12  2.382791E-10
        58  14 -9.214277E+03 -2.333367E+01  5.323704E+03  3.442312E-09  5.347742E-10  6.977818E-10
        58  15 -7.867076E+03 -4.778762E+02  3.117652E+03  2.727125E-09  1.618586E-09  6.011041E-10
        58  16 -7.867060E+03  9.739532E+03  1.169330E+04 -4.631289E+03  6.311977E-10  3.246203E-10
        58  17 -9.214274E+03 -2.332877E+01  5.323705E+03 -1.615408E+03  6.914134E-10  1.027871E-09
        58  18 -7.867074E+03 -4.778725E+02  3.117652E+03  1.400510E+03 -1.405410E-09  1.073766E-09
        58  19 -7.866991E+03  9.739549E+03  1.169342E+04  4.631289E+03 -8.046402E+03 -6.002532E-02
        58  20 -9.214245E+03 -2.332144E+01  5.323756E+03  1.615408E+03 -5.225683E+03 -1.359742E-02
        58  21 -7.867068E+03 -4.778709E+02  3.117663E+03 -1.400510E+03 -2.404922E+03  5.425223E-03
        58  22 -7.867014E+03  9.739509E+03  1.169342E+04 -3.229227E-09 -8.046402E+03  2.906826E-10
        58  23 -9.214247E+03 -2.332634E+01  5.323756E+03  2.485432E-10 -5.225683E+03  9.282393E-10
        58  24 -7.867070E+03 -4.778746E+02  3.117663E+03  2.649623E-09 -2.404922E+03  1.127639E-09
        58  25 -7.866991E+03  9.739549E+03  1.169342E+04 -4.631289E+03 -8.046402E+03  6.002532E-02
        58  26 -9.214245E+03 -2.332144E+01  5.323756E+03 -1.615408E+03 -5.225683E+03  1.359742E-02
        58  27 -7.867068E+03 -4.778709E+02  3.117663E+03  1.400510E+03 -2.404922E+03 -5.425221E-03
        59   1 -8.416836E+03  5.338266E+02  2.472655E+03  1.851738E+02  1.963409E+03  5.856261E-04
        59   2 -8.527059E+03 -1.640817E+01  1.320691E+03  4.115057E+01  1.300125E+03  8.617669E-05
        59   3 -8.416843E+03 -3.036143E+01  7.346312E+02 -1.028728E+02  6.368424E+02 -1.055248E-04
        59   4 -8.416836E+03  5.338265E+02  2.472655E+03  7.885624E-09  1.963409E+03 -7.044179E-10
        59   5 -8.527059E+03 -1.640818E+01  1.320691E+03 -2.071491E-09  1.300125E+03 -8.580140E-10
        59   6 -8.416843E+03 -3.036145E+01  7.346312E+02 -3.682073E-09  6.368424E+02  1.588057E-09
        59   7 -8.416836E+03  5.338266E+02  2.472655E+03 -1.851738E+02  1.963409E+03 -5.856274E-04
        59   8 -8.527059E+03 -1.640817E+01  1.320691E+03 -4.115057E+01  1.300125E+03 -8.617843E-05
        59   9 -8.416843E+03 -3.036143E+01  7.346312E+02  1.028728E+02  6.368424E+02  1.055280E-04
        59  10 -8.416840E+03  5.338255E+02  2.472648E+03  1.851738E+02  1.765135E-09 -1.721798E-10
        59  11 -8.527060E+03 -1.640863E+01  1.320688E+03  4.115057E+01 -9.639995E-10 -1.170933E-10
        59  12 -8.416843E+03 -3.036154E+01  7.346304E+02 -1.028728E+02 -1.867479E-09  8.013879E-10
        59  13 -8.416840E+03  5.338255E+02  2.472648E+03  5.441130E-09 -2.156332E-09 -1.274272E-11
        59  14 -8.527060E+03 -1.640863E+01  1.320688E+03 -9.582273E-10 -4.763955E-12 -6.332955E-10
        59  15 -8.416843E+03 -3.036156E+01  7.346304E+02 -2.511123E-09 -1.880998E-09  3.421827E-10
        59  16 -8.416840E+03  5.338255E+02  2.472648E+03 -1.851738E+02 -2.302296E-09  1.453577E-10
        59  17 -8.527060E+03 -1.640863E+01  1.320688E+03 -4.115057E+01  1.228741E-09 -1.150044E-09
        59  18 -8.416843E+03 -3.036154E+01  7.346304E+02  1.028728E+02  4.559312E-10 -1.168439E-10
        59  19 -8.416836E+03  5.338266E+02  2.472655E+03  1.851738E+02 -1.963409E+03 -5.856264E-04
        59  20 -8.527059E+03 -1.640817E+01  1.320691E+03  4.115057E+01 -1.300125E+03 -8.617694E-05
        59  21 -8.416843E+03 -3.036143E+01  7.346312E+02 -1.028728E+02 -6.368424E+02  1.055264E-04
        59  22 -8.416836E+03  5.338265E+02  2.472655E+03  5.150533E-09 -1.963409E+03  6.785771E-10
        59  23 -8.527059E+03 -1.640818E+01  1.320691E+03 -1.998666E-09 -1.300125E+03 -4.085674E-10
        59  24 -8.416843E+03 -3.036145E+01  7.346312E+02  1.352376E-09 -6.368424E+02 -9.034745E-10
        59  25 -8.416836E+03  5.338266E+02  2.472655E+03 -1.851738E+02 -1.963409E+03  5.856278E-04
        59  26 -8.527059E+03 -1.640817E+01  1.320691E+03 -4.115057E+01 -1.300125E+03  8.617615E-05
        59  27 -8.416843E+03 -3.036143E+01  7.346312E+02  1.028728E+02 -6.368424E+02 -1.055282E-04
        60   1 -8.460632E+03  2.487240E+01  5.400184E+02 -1.107508E+01  5.248528E+02 -9.361019E-06
        60   2 -8.472326E+03 -3.400728E+00  2.414554E+02 -1.459608E+01  4.049655E+02 -9.521418E-06
        60   3 -8.460633E+03 -5.651787E-01  2.871922E+01 -1.811702E+01  2.850801E+02 -8.319780E-06
        60   4 -8.460632E+03  2.487240E+01  5.400184E+02 -2.074733E-09  5.248528E+02  1.995118E-09
        60   5 -8.472326E+03 -3.400728E+00  2.414554E+02 -4.664044E-09  4.049655E+02  3.570111E-11
        60   6 -8.460633E+03 -5.651794E-01  2.871922E+01  2.708598E-09  2.850801E+02 -7.306286E-10
        60   7 -8.460632E+03  2.487240E+01  5.400184E+02  1.107508E+01  5.248528E+02  9.365012E-06
        60   8 -8.472326E+03 -3.400728E+00  2.414554E+02  1.459608E+01  4.049655E+02  9.521492E-06
        60   9 -8.460633E+03 -5.651787E-01  2.871922E+01  1.811702E+01  2.850801E+02  8.318324E-06
        60  10 -8.460632E+03  2.487232E+01  5.400179E+02 -1.107508E+01  7.133468E-10  6.712948E-10
        60  11 -8.472326E+03 -3.400772E+00  2.414551E+02 -1.459608E+01  4.358558E-10 -3.931623E-10
        60  12 -8.460633E+03 -5.652006E-01  2.871906E+01 -1.811702E+01 -1.736153E-09 -1.227846E-10
        60  13 -8.460632E+03  2.487232E+01  5.400179E+02 -8.994065E-11  3.605005E-12  6.722162E-10
        60  14 -8.472326E+03 -3.400772E+00  2.414551E+02  6.185606E-10 -3.769397E-09  1.098679E-11
        60  15 -8.460633E+03 -5.652012E-01  2.871906E+01  1.327128E-09  1.891120E-09 -3.248729E-10
        60  16 -8.460632E+03  2.487232E+01  5.400179E+02  1.107508E+01 -1.703084E-10  6.743089E-10
        60  17 -8.472326E+03 -3.400772E+00  2.414551E+02  1.459608E+01  3.819451E-10  4.148682E-10
        60  18 -8.460633E+03 -5.652005E-01  2.871906E+01  1.811702E+01 -6.870498E-10 -5.279423E-10
        60  19 -8.460632E+03  2.487240E+01  5.400184E+02 -1.107508E+01 -5.248528E+02  9.362366E-06
        60  20 -8.472326E+03 -3.400728E+00  2.414554E+02 -1.459608E+01 -4.049655E+02  9.520637E-06
        60  21 -8.460633E+03 -5.651787E-01  2.871922E+01 -1.811702E+01 -2.850801E+02  8.319542E-06
        60  22 -8.460632E+03  2.487240E+01  5.400184E+02  1.894919E-09 -5.248528E+02 -6.505019E-10
        60  23 -8.472326E+03 -3.400728E+00  2.414554E+02 -2.714680E-09 -4.049655E+02 -1.394053E-11
        60  24 -8.460633E+03 -5.651793E-01  2.871922E+01  4.791712E-09 -2.850801E+02  8.070468E-11
        60  25 -8.460632E+03  2.487240E+01  5.400184E+02  1.107508E+01 -5.248528E+02 -9.363654E-06
        60  26 -8.472326E+03 -3.400728E+00  2.414554E+02  1.459608E+01 -4.049655E+02 -9.520669E-06
        60  27 -8.460633E+03 -5.651787E-01  2.871922E+01  1.811702E+01 -2.850801E+02 -8.319377E-06
        61   1 -8.470079E+03  1.273168E+00 -7.021192E+01 -1.328244E+01  2.890541E+02 -6.184018E-06
        61   2 -8.460520E+03  4.357557E+00 -2.936734E+02 -2.157427E+01  4.341076E+02 -1.508532E-05
        61   3 -8.470081E+03  6.504464E+00 -6.118042E+02 -2.986623E+01  5.791633E+02 -2.786354E-05
        61   4 -8.470079E+03  1.273168E+00 -7.021192E+01  1.830485E-09  2.890541E+02 -4.319023E-11
        61   5 -8.460520E+03  4.357557E+00 -2.936734E+02 -1.106136E-08  4.341076E+02  6.237223E-10
        61   6 -8.470081E+03  6.504462E+00 -6.118042E+02  5.478362E-10  5.791633E+02 -1.334394E-09
        61   7 -8.470079E+03  1.273168E+00 -7.021192E+01  1.328244E+01  2.890541E+02  6.183929E-06
        61   8 -8.460520E+03  4.357557E+00 -2.936734E+02  2.157427E+01  4.341076E+02  1.508656E-05
        61   9 -8.470081E+03  6.504464E+00 -6.118042E+02  2.986623E+01  5.791633E+02  2.786088E-05
        61  10 -8.470080E+03  1.273146E+00 -7.021208E+01 -1.328244E+01 -6.775806E-10  1.959716E-10
        61  11 -8.460520E+03  4.357507E+00 -2.936737E+02 -2.157427E+01  5.101913E-10 -1.156710E-10
        61  12 -8.470081E+03  6.504374E+00 -6.118048E+02 -2.986623E+01  1.965636E-09 -8.575376E-10
        61  13 -8.470080E+03  1.273146E+00 -7.021208E+01  1.991588E-09 -2.629313E-13 -8.816566E-11
        61  14 -8.460520E+03  4.357506E+00 -2.936737E+02 -3.579227E-09 -2.152291E-09  1.661087E-10
        61  15 -8.470081E+03  6.504372E+00 -6.118048E+02  1.081179E-09 -1.214745E-09 -6.410502E-10
        61  16 -8.470080E+03  1.273146E+00 -7.021208E+01  1.328244E+01  1.214515E-09 -3.728854E-10
        61  17 -8.460520E+03  4.357507E+00 -2.936737E+02  2.157427E+01  3.133059E-11  4.481201E-10
        61  18 -8.470081E+03  6.504374E+00 -6.118048E+02  2.986623E+01 -1.022108E-09 -4.246497E-10
        61  19 -8.470079E+03  1.273168E+00 -7.021192E+01 -1.328244E+01 -2.890541E+02  6.184412E-06
        61  20 -8.460520E+03  4.357557E+00 -2.936734E+02 -2.157427E+01 -4.341076E+02  1.508509E-05
        61  21 -8.470081E+03  6.504464E+00 -6.118042E+02 -2.986623E+01 -5.791633E+02  2.786183E-05
        61  22 -8.470079E+03  1.273168E+00 -7.021192E+01  6.460672E-09 -2.890541E+02 -1.329937E-10
        61  23 -8.460520E+03  4.357557E+00 -2.936734E+02 -2.558909E-09 -4.341076E+02 -2.912905E-10
        61  24 -8.470081E+03  6.504462E+00 -6.118042E+02  2.682183E-10 -5.791633E+02  5.240995E-11
        61  25 -8.470079E+03  1.273168E+00 -7.021192E+01  1.328244E+01 -2.890541E+02 -6.184679E-06
        61  26 -8.460520E+03  4.357557E+00 -2.936734E+02  2.157427E+01 -4.341076E+02 -1.508568E-05
        61  27 -8.470081E+03  6.504464E+00 -6.118042E+02  2.986623E+01 -5.791633E+02 -2.786172E-05
        62   1 -8.489235E+03  6.325457E+00 -8.344632E+02 -3.644065E+01  7.103257E+02 -4.169538E-05
        62   2 -8.436579E+03  2.200825E+01 -1.495848E+03 -6.800388E+01  1.449825E+03 -1.588100E-04
        62   3 -8.489237E+03  1.595622E+00 -2.647704E+03 -9.956713E+01  2.189324E+03 -3.511211E-04
        62   4 -8.489235E+03  6.325455E+00 -8.344632E+02  2.173343E-09  7.103257E+02 -1.264248E-09
        62   5 -8.436579E+03  2.200824E+01 -1.495848E+03  5.023970E-11  1.449825E+03  6.078923E-10
        62   6 -8.489237E+03  1.595603E+00 -2.647704E+03  9.235317E-09  2.189324E+03 -6.638275E-10
        62   7 -8.489235E+03  6.325457E+00 -8.344632E+02  3.644065E+01  7.103257E+02  4.169286E-05
        62   8 -8.436579E+03  2.200825E+01 -1.495848E+03  6.800388E+01  1.449825E+03  1.588112E-04
        62   9 -8.489237E+03  1.595622E+00 -2.647704E+03  9.956713E+01  2.189324E+03  3.511197E-04
        62  10 -8.489235E+03  6.325322E+00 -8.344641E+02 -3.644065E+01 -2.492658E-09 -5.794659E-10
        62  11 -8.436581E+03  2.200769E+01 -1.495852E+03 -6.800388E+01 -1.970376E-09  6.338594E-10
        62  12 -8.489242E+03  1.594335E+00 -2.647713E+03 -9.956713E+01 -7.690500E-10  6.669523E-10
        62  13 -8.489235E+03  6.325319E+00 -8.344641E+02  6.818338E-09 -5.753454E-12 -5.449122E-10
        62  14 -8.436581E+03  2.200768E+01 -1.495852E+03  6.596229E-09 -1.082788E-09  4.818901E-10
        62  15 -8.489242E+03  1.594317E+00 -2.647713E+03  1.445144E-08 -2.020550E-09  2.756468E-10
        62  16 -8.489235E+03  6.325322E+00 -8.344641E+02  3.644065E+01  1.414217E-09 -5.105187E-10
        62  17 -8.436581E+03  2.200769E+01 -1.495852E+03  6.800388E+01  8.919680E-10  3.302224E-10
        62  18 -8.489242E+03  1.594335E+00 -2.647713E+03  9.956713E+01 -4.406673E-10 -1.154263E-10
        62  19 -8.489235E+03  6.325457E+00 -8.344632E+02 -3.644065E+01 -7.103257E+02  4.169421E-05
        62  20 -8.436579E+03  2.200825E+01 -1.495848E+03 -6.800388E+01 -1.449825E+03  1.588113E-04
        62  21 -8.489237E+03  1.595622E+00 -2.647704E+03 -9.956713E+01 -2.189324E+03  3.511224E-04
        62  22 -8.489235E+03  6.325455E+00 -8.344632E+02  5.001294E-09 -7.103257E+02  1.743107E-10
        62  23 -8.436579E+03  2.200824E+01 -1.495848E+03  8.834268E-09 -1.449825E+03  3.558950E-10
        62  24 -8.489237E+03  1.595603E+00 -2.647704E+03  8.090033E-09 -2.189324E+03  1.211154E-09
        62  25 -8.489235E+03  6.325457E+00 -8.344632E+02  3.644065E+01 -7.103257E+02 -4.169389E-05
        62  26 -8.436579E+03  2.200825E+01 -1.495848E+03  6.800388E+01 -1.449825E+03 -1.588106E-04
        62  27 -8.489237E+03  1.595622E+00 -2.647704E+03  9.956713E+01 -2.189324E+03 -3.511200E-04
        63   1 -8.585049E+03  4.797742E+01 -3.494343E+03 -2.001356E+02  2.743293E+03 -8.843572E-04
        63   2 -8.316810E+03  8.707123E+01 -6.091174E+03 -1.835271E+02  5.763383E+03 -1.703759E-03
        63   3 -8.585034E+03 -4.467232E+02 -1.079741E+04 -1.669188E+02  8.783415E+03 -2.361558E-03
        63   4 -8.585049E+03  4.797735E+01 -3.494343E+03 -4.539585E-09  2.743293E+03 -1.414912E-09
        63   5 -8.316810E+03  8.707117E+01 -6.091175E+03  4.113262E-09  5.763383E+03 -3.142681E-10
        63   6 -8.585034E+03 -4.467233E+02 -1.079741E+04  9.804313E-09  8.783415E+03  1.338825E-09
        63   7 -8.585049E+03  4.797742E+01 -3.494343E+03  2.001356E+02  2.743293E+03  8.843544E-04
        63   8 -8.316810E+03  8.707123E+01 -6.091174E+03  1.835271E+02  5.763383E+03  1.703758E-03
        63   9 -8.585034E+03 -4.467232E+02 -1.079741E+04  1.669188E+02  8.783415E+03  2.361561E-03
        63  10 -8.585058E+03  4.797540E+01 -3.494357E+03 -2.001356E+02 -9.508181E-10  1.392072E-10
        63  11 -8.316845E+03  8.706231E+01 -6.091237E+03 -1.835271E+02 -1.415683E-09  2.990025E-11
        63  12 -8.585117E+03 -4.467439E+02 -1.079755E+04 -1.669188E+02 -2.500353E-09  1.425057E-09
        63  13 -8.585058E+03  4.797533E+01 -3.494357E+03 -2.628181E-10 -1.072563E-09 -8.243495E-11
        63  14 -8.316845E+03  8.706225E+01 -6.091237E+03  3.118045E-09 -5.366340E-10  4.299107E-11
        63  15 -8.585117E+03 -4.467440E+02 -1.079755E+04  6.498689E-09 -1.479207E-09  7.173569E-10
        63  16 -8.585058E+03  4.797540E+01 -3.494357E+03  2.001356E+02  9.509535E-10 -3.051468E-10
        63  17 -8.316845E+03  8.706231E+01 -6.091237E+03  1.835271E+02 -7.304662E-10  5.585330E-11
        63  18 -8.585117E+03 -4.467439E+02 -1.079755E+04  1.669188E+02 -1.255991E-10  6.597522E-12
        63  19 -8.585049E+03  4.797742E+01 -3.494343E+03 -2.001356E+02 -2.743293E+03  8.843576E-04
        63  20 -8.316810E+03  8.707123E+01 -6.091174E+03 -1.835271E+02 -5.763383E+03  1.703759E-03
        63  21 -8.585034E+03 -4.467232E+02 -1.079741E+04 -1.669188E+02 -8.783415E+03  2.361561E-03
        63  22 -8.585049E+03  4.797735E+01 -3.494343E+03  6.168314E-09 -2.743293E+03  1.249992E-09
        63  23 -8.316810E+03  8.707117E+01 -6.091175E+03  2.123105E-09 -5.763383E+03  4.013310E-10
        63  24 -8.585034E+03 -4.467233E+02 -1.079741E+04  1.396331E-08 -8.783415E+03  1.117276E-10
        63  25 -8.585049E+03  4.797742E+01 -3.494343E+03  2.001356E+02 -2.743293E+03 -8.843551E-04
        63  26 -8.316810E+03  8.707123E+01 -6.091174E+03  1.835271E+02 -5.763383E+03 -1.703758E-03
        63  27 -8.585034E+03 -4.467232E+02 -1.079741E+04  1.669188E+02 -8.783415E+03 -2.361561E-03
        64   1 -9.362984E+03  5.621632E+02 -1.410003E+04 -1.839138E+03  1.097608E+04 -3.251565E-02
        64   2 -7.344146E+03  3.047085E+02 -2.444224E+04  7.695423E+02  2.324868E+04  2.881774E-02
        64   3 -9.362540E+03 -9.711157E+03 -4.521309E+04  3.378281E+03  3.552127E+04  1.932920E-01
        64   4 -9.362988E+03  5.621569E+02 -1.410003E+04 -5.952071E-09  1.097608E+04  1.281158E-09
        64   5 -7.344146E+03  3.047074E+02 -2.444224E+04  1.015137E-08  2.324868E+04 -1.264698E-10
        64   6 -9.362552E+03 -9.711178E+03 -4.521310E+04  3.756323E-08  3.552127E+04 -3.789494E-10
        64   7 -9.362984E+03  5.621632E+02 -1.410003E+04  1.839138E+03  1.097608E+04  3.251565E-02
        64   8 -7.344146E+03  3.047085E+02 -2.444224E+04 -7.695423E+02  2.324868E+04 -2.881774E-02
        64   9 -9.362540E+03 -9.711157E+03 -4.521309E+04 -3.378281E+03  3.552127E+04 -1.932920E-01
        64  10 -9.363114E+03  5.621309E+02 -1.410025E+04 -1.839138E+03  1.725358E-09  9.821664E-10
        64  11 -7.344726E+03  3.045634E+02 -2.444325E+04  7.695423E+02 -3.200594E-09 -1.451020E-09
        64  12 -9.363895E+03 -9.711495E+03 -4.521547E+04  3.378281E+03 -7.654299E-09 -1.621950E-09
        64  13 -9.363117E+03  5.621245E+02 -1.410025E+04  6.557362E-09 -1.079587E-09  5.469606E-10
        64  14 -7.344727E+03  3.045623E+02 -2.444325E+04  1.667470E-09  5.395265E-10 -5.645079E-10
        64  15 -9.363907E+03 -9.711517E+03 -4.521547E+04 -4.838002E-09 -1.617435E-09 -8.987566E-10
        64  16 -9.363114E+03  5.621309E+02 -1.410025E+04  1.839138E+03 -2.789888E-09  1.177241E-10
        64  17 -7.344726E+03  3.045634E+02 -2.444325E+04 -7.695423E+02  2.928293E-09  3.282845E-10
        64  18 -9.363895E+03 -9.711495E+03 -4.521547E+04 -3.378281E+03  5.766305E-09 -1.767878E-10
        64  19 -9.362984E+03  5.621632E+02 -1.410003E+04 -1.839138E+03 -1.097608E+04  3.251565E-02
        64  20 -7.344146E+03  3.047085E+02 -2.444224E+04  7.695423E+02 -2.324868E+04 -2.881775E-02
        64  21 -9.362540E+03 -9.711157E+03 -4.521309E+04  3.378281E+03 -3.552127E+04 -1.932920E-01
        64  22 -9.362988E+03  5.621569E+02 -1.410003E+04  1.906492E-08 -1.097608E+04 -1.862814E-10
        64  23 -7.344146E+03  3.047074E+02 -2.444224E+04 -4.664247E-09 -2.324868E+04 -9.967422E-10
        64  24 -9.362552E+03 -9.711178E+03 -4.521310E+04 -2.112428E-08 -3.552127E+04 -1.415139E-09
        64  25 -9.362984E+03  5.621632E+02 -1.410003E+04  1.839138E+03 -1.097608E+04 -3.251565E-02
        64  26 -7.344146E+03  3.047085E+02 -2.444224E+04 -7.695423E+02 -2.324868E+04  2.881775E-02
        64  27 -9.362540E+03 -9.711157E+03 -4.521309E+04 -3.378281E+03 -3.552127E+04  1.932920E-01
        65   1 -1.935751E+04  8.698301E+03 -5.688245E+04 -2.547171E+04  4.358833E+04 -1.788401E+00
        65   2  5.154873E+03  4.270504E+02 -9.691295E+04  2.939786E+04  9.494846E+04  4.495958E+00
        65   3 -1.934690E+04 -1.771767E+05 -2.127053E+05  8.426449E+04  1.463090E+05  1.985831E+01
        65   4 -1.935821E+04  8.697082E+03 -5.688262E+04 -1.501813E-08  4.358833E+04 -2.729300E-11
        65   5  5.153945E+03  4.254264E+02 -9.691318E+04 -2.077495E-09  9.494846E+04  3.597205E-10
        65   6 -1.935452E+04 -1.771900E+05 -2.127072E+05  6.020458E-09  1.463090E+05 -4.452039E-10
        65   7 -1.935751E+04  8.698301E+03 -5.688245E+04  2.547171E+04  4.358833E+04  1.788401E+00
        65   8  5.154873E+03  4.270504E+02 -9.691295E+04 -2.939786E+04  9.494846E+04 -4.495958E+00
        65   9 -1.934690E+04 -1.771767E+05 -2.127053E+05 -8.426449E+04  1.463090E+05 -1.985831E+01
        65  10 -1.935955E+04  8.697791E+03 -5.688602E+04 -2.547171E+04  6.399746E-09 -4.008906E-10
        65  11  5.145191E+03  4.246300E+02 -9.692989E+04  2.939786E+04  2.721500E-09  1.119687E-09
        65  12 -1.936989E+04 -1.771824E+05 -2.127456E+05  8.426449E+04 -1.241886E-09  5.204617E-10
        65  13 -1.936025E+04  8.696572E+03 -5.688619E+04  3.961804E-09 -6.015728E-11 -4.368838E-10
        65  14  5.144263E+03  4.230060E+02 -9.693013E+04  2.019735E-09  1.103395E-09  3.622437E-10
        65  15 -1.937751E+04 -1.771958E+05 -2.127475E+05 -4.231312E-09  3.945141E-10  2.204781E-10
        65  16 -1.935955E+04  8.697791E+03 -5.688602E+04  2.547171E+04 -6.424778E-09 -4.880151E-10
        65  17  5.145191E+03  4.246300E+02 -9.692989E+04 -2.939786E+04 -4.332173E-09 -4.870609E-10
        65  18 -1.936989E+04 -1.771824E+05 -2.127456E+05 -8.426449E+04  6.000723E-10 -5.960539E-11
        65  19 -1.935751E+04  8.698301E+03 -5.688245E+04 -2.547171E+04 -4.358833E+04  1.788401E+00
        65  20  5.154873E+03  4.270504E+02 -9.691295E+04  2.939786E+04 -9.494846E+04 -4.495958E+00
        65  21 -1.934690E+04 -1.771767E+05 -2.127053E+05  8.426449E+04 -1.463090E+05 -1.985831E+01
        65  22 -1.935821E+04  8.697082E+03 -5.688262E+04  3.802416E-08 -4.358833E+04 -8.556722E-10
        65  23  5.153945E+03  4.254264E+02 -9.691318E+04  1.257695E-08 -9.494846E+04  3.859215E-10
        65  24 -1.935452E+04 -1.771900E+05 -2.127072E+05 -9.908239E-09 -1.463090E+05  6.298771E-10
        65  25 -1.935751E+04  8.698301E+03 -5.688245E+04  2.547171E+04 -4.358833E+04 -1.788401E+00
        65  26  5.154873E+03  4.270504E+02 -9.691295E+04 -2.939786E+04 -9.494846E+04  4.495958E+00
        65  27 -1.934690E+04 -1.771767E+05 -2.127053E+05 -8.426449E+04 -1.463090E+05  1.985831E+01
        66   1  1.277596E+05  4.581325E+05  1.258066E+05 -4.584256E+04  6.221919E+03  2.113857E+04
        66   2  1.043656E+05  3.884630E+05  9.824585E+04 -3.067663E+04  1.906291E+04  7.533469E+03
        66   3  8.756189E+04  3.222652E+05  8.119702E+04 -4.303600E+04  1.866187E+04 -6.071414E+03
        66   4  4.590268E+03 -3.762751E+04  5.593801E+03 -4.357790E+04  6.224431E+03  3.379782E+03
        66   5 -4.009944E+01 -3.830552E+04  2.896353E+03 -2.981530E+04  1.906528E+04  1.860623E+03
        66   6 -1.749585E+02 -3.761082E+04  2.322956E+03 -4.357887E+04  1.866008E+04  3.402982E+02
        66   7 -1.185969E+05 -5.331625E+05 -1.146355E+05 -4.131504E+04  6.226815E+03 -1.436488E+04
        66   8 -1.044582E+05 -4.649043E+05 -9.246448E+04 -2.895455E+04  1.906763E+04 -3.808367E+03
        66   9 -8.792044E+04 -3.973656E+05 -7.655882E+04 -4.412141E+04  1.865828E+04  6.748341E+03
        66  10  1.277594E+05  4.581320E+05  1.258056E+05 -4.584266E+04  8.486609E-10  8.823021E-10
        66  11  1.043652E+05  3.884629E+05  9.824506E+04 -3.067675E+04  2.031449E-10  7.640971E-10
        66  12  8.756151E+04  3.222651E+05  8.119630E+04 -4.303591E+04  1.303039E-09 -1.095706E-10
        66  13  4.590223E+03 -3.762753E+04  5.593707E+03 -4.357792E+04 -7.690697E-10 -5.717497E-11
        66  14 -4.049068E+01 -3.830562E+04  2.895663E+03 -2.981533E+04 -6.151333E-10  1.083892E-10
        66  15 -1.753324E+02 -3.761092E+04  2.322301E+03 -4.357888E+04  2.053509E-09 -1.299325E-10
        66  16 -1.185970E+05 -5.331627E+05 -1.146360E+05 -4.131497E+04  1.384206E-09 -9.323185E-10
        66  17 -1.044586E+05 -4.649045E+05 -9.246519E+04 -2.895449E+04 -8.910785E-10 -8.819245E-10
        66  18 -8.792082E+04 -3.973657E+05 -7.655956E+04 -4.412151E+04  1.241019E-09 -1.966117E-10
        66  19  1.277596E+05  4.581325E+05  1.258066E+05 -4.584256E+04 -6.221919E+03 -2.113857E+04
        66  20  1.043656E+05  3.884630E+05  9.824585E+04 -3.067663E+04 -1.906291E+04 -7.533469E+03
        66  21  8.756189E+04  3.222652E+05  8.119702E+04 -4.303600E+04 -1.866187E+04  6.071414E+03
        66  22  4.590268E+03 -3.762751E+04  5.593801E+03 -4.357790E+04 -6.224431E+03 -3.379782E+03
        66  23 -4.009944E+01 -3.830552E+04  2.896353E+03 -2.981530E+04 -1.906528E+04 -1.860623E+03
        66  24 -1.749585E+02 -3.761082E+04  2.322956E+03 -4.357887E+04 -1.866008E+04 -3.402982E+02
        66  25 -1.185969E+05 -5.331625E+05 -1.146355E+05 -4.131504E+04 -6.226815E+03  1.436488E+04
        66  26 -1.044582E+05 -4.649043E+05 -9.246448E+04 -2.895455E+04 -1.906763E+04  3.808367E+03
        66  27 -8.792044E+04 -3.973656E+05 -7.655882E+04 -4.412141E+04 -1.865828E+04 -6.748341E+03
        67   1  7.444240E+04  2.663539E+05  6.928801E+04 -4.405442E+04  1.525679E+04 -2.618525E+03
        67   2  5.760784E+04  1.982668E+05  5.452076E+04 -2.970064E+04  1.217007E+04 -4.453345E+03
        67   3  4.197273E+04  1.307096E+05  4.124436E+04 -4.344850E+04  8.547814E+03 -6.289289E+03
        67   4  2.235401E+02 -3.780961E+04  2.315879E+03 -4.370667E+04  1.525613E+04 -4.605723E+01
        67   5 -1.435332E+01 -3.802526E+04  2.678263E+03 -2.965537E+04  1.216877E+04 -1.391956E+03
        67   6  8.628477E+02 -3.780020E+04  4.192468E+03 -4.370633E+04  8.545764E+03 -2.739172E+03
        67   7 -7.400152E+04 -3.418867E+05 -6.466190E+04 -4.335909E+04  1.525547E+04  2.525166E+03
        67   8 -5.764027E+04 -2.742651E+05 -4.916760E+04 -2.961012E+04  1.216747E+04  1.668283E+03
        67   9 -4.024893E+04 -2.062834E+05 -3.286111E+04 -4.396409E+04  8.543710E+03  8.099922E+02
        67  10  7.444214E+04  2.663539E+05  6.928756E+04 -4.405438E+04  2.029938E-09  1.342344E-09
        67  11  5.760767E+04  1.982668E+05  5.452044E+04 -2.970059E+04  2.403446E-09  6.920281E-10
        67  12  4.197264E+04  1.307095E+05  4.124415E+04 -4.344845E+04 -1.709836E-10 -2.275827E-09
        67  13  2.232902E+02 -3.780967E+04  2.315441E+03 -4.370667E+04  2.602627E-09 -4.216730E-10
        67  14 -1.451284E+01 -3.802530E+04  2.677981E+03 -2.965536E+04 -1.071601E-09  2.701219E-10
        67  15  8.627673E+02 -3.780022E+04  4.192316E+03 -4.370631E+04  7.395443E-10 -2.089593E-10
        67  16 -7.400177E+04 -3.418867E+05 -6.466235E+04 -4.335912E+04  9.563549E-10 -1.760727E-09
        67  17 -5.764043E+04 -2.742652E+05 -4.916788E+04 -2.961013E+04  1.041266E-09 -9.389769E-10
        67  18 -4.024901E+04 -2.062834E+05 -3.286125E+04 -4.396410E+04  1.143859E-09  1.753082E-09
        67  19  7.444240E+04  2.663539E+05  6.928801E+04 -4.405442E+04 -1.525679E+04  2.618525E+03
        67  20  5.760784E+04  1.982668E+05  5.452076E+04 -2.970064E+04 -1.217007E+04  4.453345E+03
        67  21  4.197273E+04  1.307096E+05  4.124436E+04 -4.344850E+04 -8.547814E+03  6.289289E+03
        67  22  2.235401E+02 -3.780961E+04  2.315879E+03 -4.370667E+04 -1.525613E+04  4.605723E+01
        67  23 -1.435332E+01 -3.802526E+04  2.678263E+03 -2.965537E+04 -1.216877E+04  1.391956E+03
        67  24  8.628477E+02 -3.780020E+04  4.192468E+03 -4.370633E+04 -8.545764E+03  2.739172E+03
        67  25 -7.400152E+04 -3.418867E+05 -6.466190E+04 -4.335909E+04 -1.525547E+04 -2.525166E+03
        67  26 -5.764027E+04 -2.742651E+05 -4.916760E+04 -2.961012E+04 -1.216747E+04 -1.668283E+03
        67  27 -4.024893E+04 -2.062834E+05 -3.286111E+04 -4.396409E+04 -8.543710E+03 -8.099922E+02
        68   1  2.685807E+04  7.609010E+04  2.971980E+04 -4.592341E+04  6.144768E+03 -7.228834E+03
        68   2  1.101317E+04  6.282382E+03  1.814201E+04 -2.716853E+04  2.661325E+03 -1.053138E+04
        68   3  9.468202E+03 -5.955497E+04  1.227992E+04 -3.648360E+04  4.260565E+02 -1.383305E+04
        68   4 -6.805237E+02 -3.696972E+04  5.100617E+03 -4.370177E+04  6.142376E+03 -3.480329E+03
        68   5 -7.906037E-01 -3.904976E+04  8.385600E+03 -2.966202E+04  2.659667E+03 -7.921274E+03
        68   6  1.517679E+04 -3.696759E+04  1.817663E+04 -4.369176E+04  4.252098E+02 -1.236165E+04
        68   7 -2.821994E+04 -1.500175E+05 -1.951928E+04 -4.148053E+04  6.140011E+03  2.675024E+02
        68   8 -1.101486E+04 -8.437994E+04 -1.370901E+03 -3.215532E+04  2.657987E+03 -5.311352E+03
        68   9  2.088552E+04 -1.437963E+04  2.407333E+04 -5.090018E+04  4.243290E+02 -1.089021E+04
        68  10  2.685801E+04  7.609004E+04  2.971964E+04 -4.592338E+04  3.329465E-10  3.057037E-10
        68  11  1.101313E+04  6.282261E+03  1.814179E+04 -2.716851E+04  1.773612E-10  7.121377E-10
        68  12  9.468151E+03 -5.955518E+04  1.227956E+04 -3.648360E+04  2.098872E-10 -1.656464E-09
        68  13 -6.805674E+02 -3.696974E+04  5.100524E+03 -4.370175E+04  1.928369E-09 -6.132063E-10
        68  14 -8.150438E-01 -3.904983E+04  8.385469E+03 -2.966200E+04  1.273114E-09  3.340547E-10
        68  15  1.517674E+04 -3.696775E+04  1.817634E+04 -4.369176E+04  1.984640E-10 -2.543752E-10
        68  16 -2.821998E+04 -1.500175E+05 -1.951935E+04 -4.148054E+04  1.909479E-09 -9.435463E-10
        68  17 -1.101487E+04 -8.437997E+04 -1.370967E+03 -3.215531E+04 -1.036886E-10 -1.055047E-09
        68  18  2.088549E+04 -1.437976E+04  2.407311E+04 -5.090018E+04  2.797927E-10  1.066488E-09
        68  19  2.685807E+04  7.609010E+04  2.971980E+04 -4.592341E+04 -6.144768E+03  7.228834E+03
        68  20  1.101317E+04  6.282382E+03  1.814201E+04 -2.716853E+04 -2.661325E+03  1.053138E+04
        68  21  9.468202E+03 -5.955497E+04  1.227992E+04 -3.648360E+04 -4.260565E+02  1.383305E+04
        68  22 -6.805237E+02 -3.696972E+04  5.100617E+03 -4.370177E+04 -6.142376E+03  3.480329E+03
        68  23 -7.906037E-01 -3.904976E+04  8.385600E+03 -2.966202E+04 -2.659667E+03  7.921274E+03
        68  24  1.517679E+04 -3.696759E+04  1.817663E+04 -4.369176E+04 -4.252098E+02  1.236165E+04
        68  25 -2.821994E+04 -1.500175E+05 -1.951928E+04 -4.148053E+04 -6.140011E+03 -2.675024E+02
        68  26 -1.101486E+04 -8.437994E+04 -1.370901E+03 -3.215532E+04 -2.657987E+03  5.311352E+03
        68  27  2.088552E+04 -1.437963E+04  2.407333E+04 -5.090018E+04 -4.243290E+02  1.089021E+04
        69   1 -4.708727E+04 -6.868563E+03  2.400930E+03 -2.302600E+04 -1.399907E+03 -9.945920E+02
        69   2 -4.388558E+04 -1.115222E+03  5.145635E+03 -2.152863E+04 -5.909468E+02 -1.833745E+03
        69   3 -4.069413E+04  3.660778E+02  6.724944E+03 -2.059719E+04 -2.206174E+01 -2.032668E+03
        69   4 -7.305949E+04 -1.518139E+04 -4.205860E+03 -2.861407E+04 -2.528430E+03 -1.417798E+03
        69   5 -7.277305E+04 -1.137667E+04 -1.824221E+03 -2.893655E+04 -1.172840E+03 -2.051969E+03
        69   6 -7.260521E+04 -1.195233E+04 -1.041056E+03 -2.982495E+04 -5.731828E+01 -2.045898E+03
        69   7 -9.903082E+04 -2.349413E+04 -1.081263E+04 -3.420190E+04 -3.656891E+03 -1.840986E+03
        69   8 -1.016596E+05 -2.163805E+04 -8.794112E+03 -3.634415E+04 -1.754703E+03 -2.270184E+03
        69   9 -1.045154E+05 -2.427069E+04 -8.807162E+03 -3.905231E+04 -9.257296E+01 -2.059128E+03
        69  10 -4.708727E+04 -6.868564E+03  2.400924E+03 -2.302600E+04  7.862748E-10 -4.235210E-10
        69  11 -4.388559E+04 -1.115226E+03  5.145628E+03 -2.152863E+04  4.635154E-09  1.229911E-09
        69  12 -4.069414E+04  3.660734E+02  6.724936E+03 -2.059719E+04  4.162270E-09  3.589164E-09
        69  13 -7.305950E+04 -1.518139E+04 -4.205875E+03 -2.861407E+04 -2.335611E-10 -1.477823E-10
        69  14 -7.277305E+04 -1.137668E+04 -1.824231E+03 -2.893656E+04 -2.710952E-09  8.631600E-11
        69  15 -7.260521E+04 -1.195234E+04 -1.041064E+03 -2.982495E+04 -8.936112E-10  1.373971E-09
        69  16 -9.903083E+04 -2.349414E+04 -1.081266E+04 -3.420190E+04  9.808868E-10  1.505568E-10
        69  17 -1.016596E+05 -2.163806E+04 -8.794128E+03 -3.634416E+04 -4.445681E-09 -1.063104E-09
        69  18 -1.045154E+05 -2.427070E+04 -8.807170E+03 -3.905231E+04 -5.701441E-09 -8.173667E-10
        69  19 -4.708727E+04 -6.868563E+03  2.400930E+03 -2.302600E+04  1.399907E+03  9.945920E+02
        69  20 -4.388558E+04 -1.115222E+03  5.145635E+03 -2.152863E+04  5.909468E+02  1.833745E+03
        69  21 -4.069413E+04  3.660778E+02  6.724944E+03 -2.059719E+04  2.206174E+01  2.032668E+03
        69  22 -7.305949E+04 -1.518139E+04 -4.205860E+03 -2.861407E+04  2.528430E+03  1.417798E+03
        69  23 -7.277305E+04 -1.137667E+04 -1.824221E+03 -2.893655E+04  1.172840E+03  2.051969E+03
        69  24 -7.260521E+04 -1.195233E+04 -1.041056E+03 -2.982495E+04  5.731828E+01  2.045898E+03
        69  25 -9.903082E+04 -2.349413E+04 -1.081263E+04 -3.420190E+04  3.656891E+03  1.840986E+03
        69  26 -1.016596E+05 -2.163805E+04 -8.794112E+03 -3.634415E+04  1.754703E+03  2.270184E+03
        69  27 -1.045154E+05 -2.427069E+04 -8.807162E+03 -3.905231E+04  9.257296E+01  2.059128E+03
        70   1 -3.707093E+04  8.356932E+02  7.753933E+03 -1.998800E+04  3.286471E+02 -1.974087E+03
        70   2 -3.396484E+04  3.018579E+03  8.999179E+03 -1.831905E+04  6.197131E+02 -2.153493E+03
        70   3 -2.977614E+04  3.824309E+03  1.004565E+04 -1.795994E+04  8.999782E+02 -2.304060E+03
        70   4 -7.247718E+04 -1.226517E+04 -8.286946E+02 -2.962313E+04  1.003482E+02 -2.059717E+03
        70   5 -7.300243E+04 -1.147683E+04 -4.346551E+02 -2.900472E+04  4.160243E+02 -2.229898E+03
        70   6 -7.244998E+04 -1.207057E+04 -2.589025E+02 -2.969619E+04  7.208973E+02 -2.371241E+03
        70   7 -1.078821E+05 -2.536593E+04 -9.411397E+03 -3.925775E+04 -1.279362E+02 -2.145341E+03
        70   8 -1.120383E+05 -2.597206E+04 -9.868541E+03 -3.968973E+04  2.123506E+02 -2.306298E+03
        70   9 -1.151216E+05 -2.796516E+04 -1.056348E+04 -4.143161E+04  5.418314E+02 -2.438417E+03
        70  10 -3.707093E+04  8.356890E+02  7.753925E+03 -1.998800E+04 -7.787305E-09 -6.658425E-10
        70  11 -3.396484E+04  3.018574E+03  8.999170E+03 -1.831905E+04 -5.578171E-09 -1.077268E-09
        70  12 -2.977614E+04  3.824303E+03  1.004564E+04 -1.795994E+04  1.877131E-10 -6.352561E-10
        70  13 -7.247719E+04 -1.226518E+04 -8.287025E+02 -2.962313E+04 -1.761083E-09  1.550493E-09
        70  14 -7.300244E+04 -1.147684E+04 -4.346648E+02 -2.900472E+04  1.466785E-09  3.105932E-10
        70  15 -7.244999E+04 -1.207057E+04 -2.589140E+02 -2.969619E+04  5.938959E-10 -1.249282E-09
        70  16 -1.078821E+05 -2.536594E+04 -9.411406E+03 -3.925775E+04  2.582515E-09  3.825354E-09
        70  17 -1.120383E+05 -2.597207E+04 -9.868551E+03 -3.968973E+04  3.204845E-09  1.598040E-09
        70  18 -1.151216E+05 -2.796517E+04 -1.056349E+04 -4.143161E+04  1.914175E-09 -1.794681E-09
        70  19 -3.707093E+04  8.356932E+02  7.753933E+03 -1.998800E+04 -3.286471E+02  1.974087E+03
        70  20 -3.396484E+04  3.018579E+03  8.999179E+03 -1.831905E+04 -6.197131E+02  2.153493E+03
        70  21 -2.977614E+04  3.824309E+03  1.004565E+04 -1.795994E+04 -8.999782E+02  2.304060E+03
        70  22 -7.247718E+04 -1.226517E+04 -8.286946E+02 -2.962313E+04 -1.003482E+02  2.059717E+03
        70  23 -7.300243E+04 -1.147683E+04 -4.346551E+02 -2.900472E+04 -4.160243E+02  2.229898E+03
        70  24 -7.244998E+04 -1.207057E+04 -2.589025E+02 -2.969619E+04 -7.208973E+02  2.371241E+03
        70  25 -1.078821E+05 -2.536593E+04 -9.411397E+03 -3.925775E+04  1.279362E+02  2.145341E+03
        70  26 -1.120383E+05 -2.597206E+04 -9.868541E+03 -3.968973E+04 -2.123506E+02  2.306298E+03
        70  27 -1.151216E+05 -2.796516E+04 -1.056348E+04 -4.143161E+04 -5.418314E+02  2.438417E+03
        71   1 -2.662259E+04  4.946587E+03  1.087460E+04 -1.712011E+04  9.928109E+02 -2.410478E+03
        71   2 -2.354061E+04  6.908269E+03  1.180050E+04 -1.544130E+04  1.151983E+03 -2.600602E+03
        71   3 -1.929345E+04  7.678541E+03  1.266627E+04 -1.511207E+04  1.310623E+03 -2.789254E+03
        71   4 -7.243889E+04 -1.208854E+04 -2.111388E+02 -2.968234E+04  8.051782E+02 -2.480871E+03
        71   5 -7.302067E+04 -1.148703E+04 -1.567190E+02 -2.900969E+04  9.655991E+02 -2.670535E+03
        71   6 -7.243743E+04 -1.207719E+04 -1.633960E+02 -2.968665E+04  1.125487E+03 -2.858727E+03
        71   7 -1.182536E+05 -2.912372E+04 -1.129717E+04 -4.224386E+04  6.175586E+02 -2.551258E+03
        71   8 -1.224987E+05 -2.988232E+04 -1.211423E+04 -4.257721E+04  7.792298E+02 -2.740462E+03
        71   9 -1.255789E+05 -3.183286E+04 -1.299336E+04 -4.426019E+04  9.403671E+02 -2.928194E+03
        71  10 -2.662259E+04  4.946581E+03  1.087459E+04 -1.712011E+04 -4.820817E-09 -1.490491E-09
        71  11 -2.354061E+04  6.908261E+03  1.180048E+04 -1.544130E+04 -7.426623E-10 -1.008243E-10
        71  12 -1.929346E+04  7.678532E+03  1.266625E+04 -1.511207E+04 -9.252121E-10  5.627514E-10
        71  13 -7.243889E+04 -1.208855E+04 -2.111516E+02 -2.968234E+04  4.373423E-10 -1.244420E-09
        71  14 -7.302067E+04 -1.148704E+04 -1.567342E+02 -2.900969E+04 -9.302917E-10 -3.869950E-10
        71  15 -7.243743E+04 -1.207720E+04 -1.634138E+02 -2.968665E+04 -1.087904E-09 -3.219626E-10
        71  16 -1.182536E+05 -2.912373E+04 -1.129719E+04 -4.224385E+04  5.142192E-09 -9.807033E-10
        71  17 -1.224987E+05 -2.988233E+04 -1.211425E+04 -4.257721E+04  5.347712E-10 -9.242659E-10
        71  18 -1.255789E+05 -3.183286E+04 -1.299338E+04 -4.426018E+04  3.891345E-10 -1.187926E-09
        71  19 -2.662259E+04  4.946587E+03  1.087460E+04 -1.712011E+04 -9.928109E+02  2.410478E+03
        71  20 -2.354061E+04  6.908269E+03  1.180050E+04 -1.544130E+04 -1.151983E+03  2.600602E+03
        71  21 -1.929345E+04  7.678541E+03  1.266627E+04 -1.511207E+04 -1.310623E+03  2.789254E+03
        71  22 -7.243889E+04 -1.208854E+04 -2.111388E+02 -2.968234E+04 -8.051782E+02  2.480871E+03
        71  23 -7.302067E+04 -1.148703E+04 -1.567190E+02 -2.900969E+04 -9.655991E+02  2.670535E+03
        71  24 -7.243743E+04 -1.207719E+04 -1.633960E+02 -2.968665E+04 -1.125487E+03  2.858727E+03
        71  25 -1.182536E+05 -2.912372E+04 -1.129717E+04 -4.224386E+04 -6.175586E+02  2.551258E+03
        71  26 -1.224987E+05 -2.988232E+04 -1.211423E+04 -4.257721E+04 -7.792298E+02  2.740462E+03
        71  27 -1.255789E+05 -3.183286E+04 -1.299336E+04 -4.426019E+04 -9.403671E+02  2.928194E+03
        72   1 -1.618273E+04  8.837278E+03  1.341998E+04 -1.426142E+04  1.387435E+03 -2.904428E+03
        72   2 -1.310005E+04  1.078198E+04  1.418792E+04 -1.258763E+04  1.613098E+03 -3.067323E+03
        72   3 -8.861436E+03  1.154563E+04  1.484804E+04 -1.226508E+04  1.838687E+03 -3.229961E+03
        72   4 -7.244028E+04 -1.207827E+04 -1.875366E+02 -2.968585E+04  1.202024E+03 -2.974009E+03
        72   5 -7.301795E+04 -1.148638E+04 -2.901179E+02 -2.901076E+04  1.427886E+03 -3.136837E+03
        72   6 -7.243985E+04 -1.207554E+04 -5.007059E+02 -2.968686E+04  1.653675E+03 -3.299409E+03
        72   7 -1.286942E+05 -3.299341E+04 -1.379514E+04 -4.510887E+04  1.016634E+03 -3.043582E+03
        72   8 -1.329321E+05 -3.375442E+04 -1.476838E+04 -4.543240E+04  1.242695E+03 -3.206343E+03
        72   9 -1.360145E+05 -3.569651E+04 -1.584981E+04 -4.710707E+04  1.468683E+03 -3.368849E+03
        72  10 -1.618273E+04  8.837269E+03  1.341996E+04 -1.426142E+04 -2.540454E-09  2.336242E-10
        72  11 -1.310005E+04  1.078197E+04  1.418790E+04 -1.258763E+04  2.622921E-09  1.793162E-09
        72  12 -8.861442E+03  1.154562E+04  1.484802E+04 -1.226508E+04  4.669697E-09  1.238350E-09
        72  13 -7.244028E+04 -1.207828E+04 -1.875559E+02 -2.968585E+04  2.053090E-09  3.102015E-10
        72  14 -7.301796E+04 -1.148639E+04 -2.901402E+02 -2.901075E+04  4.279210E-09  1.494464E-09
        72  15 -7.243985E+04 -1.207555E+04 -5.007315E+02 -2.968685E+04  2.807853E-09  1.712716E-09
        72  16 -1.286942E+05 -3.299342E+04 -1.379516E+04 -4.510887E+04  5.520791E-09  4.001808E-10
        72  17 -1.329321E+05 -3.375443E+04 -1.476840E+04 -4.543239E+04  3.567208E-09  2.170032E-09
        72  18 -1.360145E+05 -3.569652E+04 -1.584983E+04 -4.710706E+04  1.515614E-09  1.771549E-09
        72  19 -1.618273E+04  8.837278E+03  1.341998E+04 -1.426142E+04 -1.387435E+03  2.904428E+03
        72  20 -1.310005E+04  1.078198E+04  1.418792E+04 -1.258763E+04 -1.613098E+03  3.067323E+03
        72  21 -8.861436E+03  1.154563E+04  1.484804E+04 -1.226508E+04 -1.838687E+03  3.229961E+03
        72  22 -7.244028E+04 -1.207827E+04 -1.875366E+02 -2.968585E+04 -1.202024E+03  2.974009E+03
        72  23 -7.301795E+04 -1.148638E+04 -2.901179E+02 -2.901076E+04 -1.427886E+03  3.136837E+03
        72  24 -7.243985E+04 -1.207554E+04 -5.007059E+02 -2.968686E+04 -1.653675E+03  3.299409E+03
        72  25 -1.286942E+05 -3.299341E+04 -1.379514E+04 -4.510887E+04 -1.016634E+03  3.043582E+03
        72  26 -1.329321E+05 -3.375442E+04 -1.476838E+04 -4.543240E+04 -1.242695E+03  3.206343E+03
        72  27 -1.360145E+05 -3.569651E+04 -1.584981E+04 -4.710707E+04 -1.468683E+03  3.368849E+03
        73   1 -5.767875E+03  1.269917E+04  1.546296E+04 -1.142609E+04  1.982665E+03 -3.319758E+03
        73   2 -2.649281E+03  1.464270E+04  1.580362E+04 -9.757325E+03  2.656274E+03 -3.313782E+03
        73   3  1.549671E+03  1.536047E+04  1.569285E+04 -9.447772E+03  3.329717E+03 -3.307297E+03
        73   4 -7.245555E+04 -1.207605E+04 -6.616958E+02 -2.969227E+04  1.797707E+03 -3.389191E+03
        73   5 -7.299699E+04 -1.147265E+04 -1.189372E+03 -2.900913E+04  2.471679E+03 -3.383089E+03
        73   6 -7.245822E+04 -1.209505E+04 -2.168788E+03 -2.968514E+04  3.145485E+03 -3.376477E+03
        73   7 -1.391385E+05 -3.685084E+04 -1.678659E+04 -4.795659E+04  1.612771E+03 -3.458616E+03
        73   8 -1.433398E+05 -3.758766E+04 -1.818273E+04 -4.825895E+04  2.287107E+03 -3.452387E+03
        73   9 -1.464611E+05 -3.955034E+04 -2.003093E+04 -4.992043E+04  2.961277E+03 -3.445649E+03
        73  10 -5.767882E+03  1.269916E+04  1.546294E+04 -1.142608E+04  2.115506E-09  8.084456E-10
        73  11 -2.649292E+03  1.464269E+04  1.580358E+04 -9.757318E+03  6.740607E-10  5.374502E-10
        73  12  1.549656E+03  1.536046E+04  1.569281E+04 -9.447763E+03 -1.083887E-09 -1.975587E-10
        73  13 -7.245555E+04 -1.207606E+04 -6.617234E+02 -2.969227E+04  2.940173E-09  8.180478E-10
        73  14 -7.299700E+04 -1.147266E+04 -1.189405E+03 -2.900912E+04  1.569252E-09  7.590687E-11
        73  15 -7.245824E+04 -1.209506E+04 -2.168828E+03 -2.968514E+04 -9.861236E-11 -3.366028E-11
        73  16 -1.391385E+05 -3.685085E+04 -1.678662E+04 -4.795658E+04  2.107268E-09  9.374472E-10
        73  17 -1.433398E+05 -3.758768E+04 -1.818276E+04 -4.825894E+04 -1.290218E-09 -3.456553E-10
        73  18 -1.464611E+05 -3.955035E+04 -2.003097E+04 -4.992042E+04  5.693680E-10  7.339497E-10
        73  19 -5.767875E+03  1.269917E+04  1.546296E+04 -1.142609E+04 -1.982665E+03  3.319758E+03
        73  20 -2.649281E+03  1.464270E+04  1.580362E+04 -9.757325E+03 -2.656274E+03  3.313782E+03
        73  21  1.549671E+03  1.536047E+04  1.569285E+04 -9.447772E+03 -3.329717E+03  3.307297E+03
        73  22 -7.245555E+04 -1.207605E+04 -6.616958E+02 -2.969227E+04 -1.797707E+03  3.389191E+03
        73  23 -7.299699E+04 -1.147265E+04 -1.189372E+03 -2.900913E+04 -2.471679E+03  3.383089E+03
        73  24 -7.245822E+04 -1.209505E+04 -2.168788E+03 -2.968514E+04 -3.145485E+03  3.376477E+03
        73  25 -1.391385E+05 -3.685084E+04 -1.678659E+04 -4.795659E+04 -1.612771E+03  3.458616E+03
        73  26 -1.433398E+05 -3.758766E+04 -1.818273E+04 -4.825895E+04 -2.287107E+03  3.452387E+03
        73  27 -1.464611E+05 -3.955034E+04 -2.003093E+04 -4.992043E+04 -2.961277E+03  3.445649E+03
        74   1  4.640945E+03  1.648122E+04  1.574965E+04 -8.747766E+03  3.795833E+03 -3.276398E+03
        74   2  7.897938E+03  1.853327E+04  1.427755E+04 -6.943751E+03  6.485848E+03 -2.511339E+03
        74   3  1.173197E+04  1.869693E+04  1.068274E+04 -6.422222E+03  9.173529E+03 -1.740021E+03
        74   4 -7.254328E+04 -1.204946E+04 -2.885413E+03 -2.974067E+04  3.609970E+03 -3.346198E+03
        74   5 -7.287246E+04 -1.139561E+04 -5.223841E+03 -2.899032E+04  6.305003E+03 -2.579266E+03
        74   6 -7.262565E+04 -1.263125E+04 -9.689152E+03 -2.952249E+04  8.997678E+03 -1.806085E+03
        74   7 -1.497216E+05 -4.057974E+04 -2.152091E+04 -5.073121E+04  3.424132E+03 -3.415988E+03
        74   8 -1.536362E+05 -4.132396E+04 -2.472565E+04 -5.103422E+04  6.124184E+03 -2.647184E+03
        74   9 -1.569758E+05 -4.395878E+04 -3.006145E+04 -5.261980E+04  8.821855E+03 -1.872139E+03
        74  10  4.640926E+03  1.648120E+04  1.574960E+04 -8.747755E+03 -1.155887E-09  1.994908E-10
        74  11  7.897891E+03  1.853325E+04  1.427746E+04 -6.943737E+03 -3.458337E-11  3.014934E-10
        74  12  1.173188E+04  1.869691E+04  1.068258E+04 -6.422209E+03 -7.971856E-10  4.795820E-10
        74  13 -7.254330E+04 -1.204948E+04 -2.885459E+03 -2.974066E+04 -1.744997E-10  5.331326E-10
        74  14 -7.287251E+04 -1.139563E+04 -5.223928E+03 -2.899030E+04  4.148628E-10  8.623100E-10
        74  15 -7.262574E+04 -1.263127E+04 -9.689310E+03 -2.952248E+04  1.802228E-09  7.997678E-11
        74  16 -1.497216E+05 -4.057976E+04 -2.152095E+04 -5.073120E+04  1.069243E-09  6.711549E-10
        74  17 -1.536362E+05 -4.132398E+04 -2.472573E+04 -5.103421E+04  1.361778E-10 -5.804189E-10
        74  18 -1.569759E+05 -4.395880E+04 -3.006161E+04 -5.261979E+04 -8.319953E-10 -2.161890E-10
        74  19  4.640945E+03  1.648122E+04  1.574965E+04 -8.747766E+03 -3.795833E+03  3.276398E+03
        74  20  7.897938E+03  1.853327E+04  1.427755E+04 -6.943751E+03 -6.485848E+03  2.511339E+03
        74  21  1.173197E+04  1.869693E+04  1.068274E+04 -6.422222E+03 -9.173529E+03  1.740021E+03
        74  22 -7.254328E+04 -1.204946E+04 -2.885413E+03 -2.974067E+04 -3.609970E+03  3.346198E+03
        74  23 -7.287246E+04 -1.139561E+04 -5.223841E+03 -2.899032E+04 -6.305003E+03  2.579266E+03
        74  24 -7.262565E+04 -1.263125E+04 -9.689152E+03 -2.952249E+04 -8.997678E+03  1.806085E+03
        74  25 -1.497216E+05 -4.057974E+04 -2.152091E+04 -5.073121E+04 -3.424132E+03  3.415988E+03
        74  26 -1.536362E+05 -4.132396E+04 -2.472565E+04 -5.103422E+04 -6.124184E+03  2.647184E+03
        74  27 -1.569758E+05 -4.395878E+04 -3.006145E+04 -5.261980E+04 -8.821855E+03  1.872139E+03
        75   1  1.547856E+04  1.954528E+04  8.391817E+03 -7.785212E+03  1.106127E+04 -1.188967E+03
        75   2  1.854084E+04  2.365323E+04 -9.232669E+02 -3.016850E+03  2.267783E+04  2.960726E+03
        75   3  1.721625E+04  1.567380E+04 -2.176495E+04  2.776005E+03  3.424487E+04  7.242809E+03
        75   4 -7.327214E+04 -1.162958E+04 -1.274392E+04 -3.023854E+04  1.084583E+04 -1.269865E+03
        75   5 -7.181491E+04 -1.087584E+04 -2.293781E+04 -2.876050E+04  2.257364E+04  2.921506E+03
        75   6 -7.476742E+04 -2.223282E+04 -4.474772E+04 -2.625801E+04  3.425187E+04  7.245124E+03
        75   7 -1.620155E+05 -4.280427E+04 -3.388035E+04 -5.268915E+04  1.063043E+04 -1.350751E+03
        75   8 -1.621628E+05 -4.540432E+04 -4.495302E+04 -5.450076E+04  2.246947E+04  2.882292E+03
        75   9 -1.667427E+05 -6.013831E+04 -6.773115E+04 -5.528793E+04  3.425886E+04  7.247439E+03
        75  10  1.547843E+04  1.954525E+04  8.391584E+03 -7.785202E+03 -3.333691E-10 -2.165206E-10
        75  11  1.854028E+04  2.365309E+04 -9.242498E+02 -3.016904E+03  4.375485E-10  2.637609E-10
        75  12  1.721498E+04  1.567342E+04 -2.176725E+04  2.775805E+03  4.863079E-10 -1.080664E-10
        75  13 -7.327227E+04 -1.162962E+04 -1.274415E+04 -3.023853E+04  1.016508E-09 -5.085775E-10
        75  14 -7.181546E+04 -1.087599E+04 -2.293878E+04 -2.876055E+04 -1.267992E-09  1.000085E-10
        75  15 -7.476870E+04 -2.223319E+04 -4.475002E+04 -2.625821E+04  4.606415E-10  5.527451E-10
        75  16 -1.620157E+05 -4.280430E+04 -3.388057E+04 -5.268914E+04 -3.922573E-10  5.975059E-10
        75  17 -1.621634E+05 -4.540447E+04 -4.495399E+04 -5.450081E+04 -1.226946E-09  7.821457E-10
        75  18 -1.667440E+05 -6.013869E+04 -6.773345E+04 -5.528813E+04  8.135332E-10  5.077452E-11
        75  19  1.547856E+04  1.954528E+04  8.391817E+03 -7.785212E+03 -1.106127E+04  1.188967E+03
        75  20  1.854084E+04  2.365323E+04 -9.232669E+02 -3.016850E+03 -2.267783E+04 -2.960726E+03
        75  21  1.721625E+04  1.567380E+04 -2.176495E+04  2.776005E+03 -3.424487E+04 -7.242809E+03
        75  22 -7.327214E+04 -1.162958E+04 -1.274392E+04 -3.023854E+04 -1.084583E+04  1.269865E+03
        75  23 -7.181491E+04 -1.087584E+04 -2.293781E+04 -2.876050E+04 -2.257364E+04 -2.921506E+03
        75  24 -7.476742E+04 -2.223282E+04 -4.474772E+04 -2.625801E+04 -3.425187E+04 -7.245124E+03
        75  25 -1.620155E+05 -4.280427E+04 -3.388035E+04 -5.268915E+04 -1.063043E+04  1.350751E+03
        75  26 -1.621628E+05 -4.540432E+04 -4.495302E+04 -5.450076E+04 -2.246947E+04 -2.882292E+03
        75  27 -1.667427E+05 -6.013831E+04 -6.773115E+04 -5.528793E+04 -3.425886E+04 -7.247439E+03
        76   1  3.408479E+04  1.313663E+04 -3.283690E+04 -3.105080E+04  4.250646E+04  9.872710E+03
        76   2  2.278106E+04  5.140875E+04 -7.442538E+04  2.457638E+04  9.316280E+04  2.940732E+04
        76   3 -5.890838E+04 -8.399441E+04 -2.010535E+05  1.232138E+05  1.427174E+05  5.188009E+04
        76   4 -8.202132E+04 -4.925428E+03 -5.642442E+04 -3.695113E+04  4.162926E+04  9.545318E+03
        76   5 -5.897514E+04 -5.763858E+03 -9.923233E+04 -2.543631E+04  9.478070E+04  3.000987E+04
        76   6 -1.068278E+05 -1.807976E+05 -2.290661E+05  2.909457E+04  1.468328E+05  5.340303E+04
        76   7 -1.981128E+05 -2.298727E+04 -8.001220E+04 -4.285170E+04  4.075223E+04  9.217905E+03
        76   8 -1.407221E+05 -6.292870E+04 -1.240394E+05 -7.544095E+04  9.639835E+04  3.061215E+04
        76   9 -1.547288E+05 -2.775611E+05 -2.570750E+05 -6.501081E+04  1.509479E+05  5.492450E+04
        76  10  3.408283E+04  1.313604E+04 -3.284048E+04 -3.105114E+04  3.562664E-10 -3.545948E-10
        76  11  2.277150E+04  5.140549E+04 -7.444331E+04  2.457418E+04  1.090906E-09 -1.561309E-09
        76  12 -5.893098E+04 -8.400277E+04 -2.010968E+05  1.232079E+05 -1.090154E-09 -1.162961E-09
        76  13 -8.202321E+04 -4.925991E+03 -5.642785E+04 -3.695145E+04  1.226711E-09 -7.982214E-10
        76  14 -5.898503E+04 -5.767237E+03 -9.925091E+04 -2.543860E+04  1.776110E-09  2.384751E-10
        76  15 -1.068517E+05 -1.808064E+05 -2.291119E+05  2.908826E+04  2.371512E-10  1.058394E-09
        76  16 -1.981146E+05 -2.298780E+04 -8.001548E+04 -4.285201E+04 -1.856962E-10 -4.447121E-10
        76  17 -1.407324E+05 -6.293220E+04 -1.240586E+05 -7.544333E+04  3.510935E-09 -1.105702E-10
        76  18 -1.547541E+05 -2.775705E+05 -2.571235E+05 -6.501749E+04  5.005785E-11  3.750005E-10
        76  19  3.408479E+04  1.313663E+04 -3.283690E+04 -3.105080E+04 -4.250646E+04 -9.872710E+03
        76  20  2.278106E+04  5.140875E+04 -7.442538E+04  2.457638E+04 -9.316280E+04 -2.940732E+04
        76  21 -5.890838E+04 -8.399441E+04 -2.010535E+05  1.232138E+05 -1.427174E+05 -5.188009E+04
        76  22 -8.202132E+04 -4.925428E+03 -5.642442E+04 -3.695113E+04 -4.162926E+04 -9.545318E+03
        76  23 -5.897514E+04 -5.763858E+03 -9.923233E+04 -2.543631E+04 -9.478070E+04 -3.000987E+04
        76  24 -1.068278E+05 -1.807976E+05 -2.290661E+05  2.909457E+04 -1.468328E+05 -5.340303E+04
        76  25 -1.981128E+05 -2.298727E+04 -8.001220E+04 -4.285170E+04 -4.075223E+04 -9.217905E+03
        76  26 -1.407221E+05 -6.292870E+04 -1.240394E+05 -7.544095E+04 -9.639835E+04 -3.061215E+04
        76  27 -1.547288E+05 -2.775611E+05 -2.570750E+05 -6.501081E+04 -1.509479E+05 -5.492450E+04
        77   1  1.935675E+05  1.935732E+06  2.035875E+05 -6.946074E+04  5.318598E+03  1.063961E+05
        77   2  1.012140E+05  1.917883E+06  1.288718E+05 -3.263126E+04  1.809214E+04  6.247278E+04
        77   3  8.151160E+04  1.923904E+06  1.008595E+05  3.242356E+03  2.226089E+04  1.855073E+04
        77   4  1.063993E+05  1.582260E+06  1.205555E+05 -5.388992E+03  5.330503E+03  8.091483E+04
        77   5  1.828223E+04  1.571473E+06  5.997493E+04 -4.918477E+03  1.809699E+04  4.983431E+04
        77   6  6.082102E+02  1.582341E+06  3.720958E+04 -5.402826E+03  2.226162E+04  1.875368E+04
        77   7  1.923796E+04  1.228913E+06  3.751945E+04  5.864616E+04  5.337167E+03  5.544794E+04
        77   8 -6.465390E+04  1.225180E+06 -8.926859E+03  2.277858E+04  1.810072E+04  3.720272E+04
        77   9 -8.030160E+04  1.240890E+06 -2.644524E+04 -1.404314E+04  2.226236E+04  1.895652E+04
        77  10  1.935644E+05  1.935720E+06  2.035663E+05 -6.946119E+04  1.153394E-09  2.746068E-09
        77  11  1.012126E+05  1.917879E+06  1.288638E+05 -3.263217E+04  4.791722E-09 -3.726017E-10
        77  12  8.151098E+04  1.923903E+06  1.008579E+05  3.242024E+03  1.020885E-09 -2.736999E-09
        77  13  1.063975E+05  1.582253E+06  1.205431E+05 -5.389339E+03  1.673085E-09  2.949392E-11
        77  14  1.828122E+04  1.571471E+06  5.996966E+04 -4.919203E+03  4.194251E-09 -1.890319E-10
        77  15  6.075835E+02  1.582340E+06  3.720799E+04 -5.403162E+03  7.618133E-10  4.880182E-10
        77  16  1.923710E+04  1.228909E+06  3.751363E+04  5.864592E+04  6.151494E-10 -2.790321E-09
        77  17 -6.465463E+04  1.225178E+06 -8.930071E+03  2.277804E+04  1.569703E-09  1.255268E-10
        77  18 -8.030223E+04  1.240890E+06 -2.644685E+04 -1.404348E+04 -1.126384E-09  3.185269E-09
        77  19  1.935675E+05  1.935732E+06  2.035875E+05 -6.946074E+04 -5.318598E+03 -1.063961E+05
        77  20  1.012140E+05  1.917883E+06  1.288718E+05 -3.263126E+04 -1.809214E+04 -6.247278E+04
        77  21  8.151160E+04  1.923904E+06  1.008595E+05  3.242356E+03 -2.226089E+04 -1.855073E+04
        77  22  1.063993E+05  1.582260E+06  1.205555E+05 -5.388992E+03 -5.330503E+03 -8.091483E+04
        77  23  1.828223E+04  1.571473E+06  5.997493E+04 -4.918477E+03 -1.809699E+04 -4.983431E+04
        77  24  6.082102E+02  1.582341E+06  3.720958E+04 -5.402826E+03 -2.226162E+04 -1.875368E+04
        77  25  1.923796E+04  1.228913E+06  3.751945E+04  5.864616E+04 -5.337167E+03 -5.544794E+04
        77  26 -6.465390E+04  1.225180E+06 -8.926859E+03  2.277858E+04 -1.810072E+04 -3.720272E+04
        77  27 -8.030160E+04  1.240890E+06 -2.644524E+04 -1.404314E+04 -2.226236E+04 -1.895652E+04
        78   1  8.389970E+04  1.915627E+06  9.440482E+04 -7.837370E+03  2.216149E+04  1.476410E+04
        78   2  7.920003E+04  1.908252E+06  8.746238E+04 -4.869736E+03  2.244279E+04 -2.277953E+02
        78   3  8.116678E+04  1.904501E+06  9.192949E+04 -3.322537E+03  2.152927E+04 -1.521998E+04
        78   4  4.018347E+03  1.578258E+06  3.170342E+04 -5.504564E+03  2.216283E+04  1.345333E+04
        78   5  7.998998E+02  1.576600E+06  2.645666E+04 -4.794510E+03  2.244367E+04  2.498557E+02
        78   6  3.940235E+03  1.578260E+06  3.138377E+04 -5.504918E+03  2.152950E+04 -1.295403E+04
        78   7 -7.586951E+04  1.240999E+06 -3.100280E+04 -3.173048E+03  2.216418E+04  1.214324E+04
        78   8 -7.760647E+04  1.245055E+06 -3.455359E+04 -4.719318E+03  2.244456E+04  7.272589E+02
        78   9 -7.329238E+04  1.252121E+06 -2.916643E+04 -7.686117E+03  2.152970E+04 -1.068924E+04
        78  10  8.389912E+04  1.915627E+06  9.440349E+04 -7.837633E+03 -1.065050E-09  4.011436E-09
        78  11  7.919949E+04  1.908252E+06  8.746143E+04 -4.869732E+03  3.336634E-09 -5.962132E-10
        78  12  8.116622E+04  1.904501E+06  9.192819E+04 -3.322273E+03 -3.525383E-10 -3.080333E-09
        78  13  4.017770E+03  1.578258E+06  3.170215E+04 -5.504804E+03  1.031525E-09 -2.208126E-10
        78  14  7.993585E+02  1.576600E+06  2.645572E+04 -4.794515E+03  3.544021E-09 -7.417787E-10
        78  15  3.939692E+03  1.578260E+06  3.138258E+04 -5.504693E+03  1.769137E-09  6.851850E-10
        78  16 -7.587008E+04  1.240999E+06 -3.100400E+04 -3.173265E+03  1.593642E-09 -4.178205E-09
        78  17 -7.760701E+04  1.245055E+06 -3.455454E+04 -4.719331E+03  1.565481E-09 -1.865410E-10
        78  18 -7.329291E+04  1.252121E+06 -2.916752E+04 -7.685932E+03 -4.251602E-10  3.961063E-09
        78  19  8.389970E+04  1.915627E+06  9.440482E+04 -7.837370E+03 -2.216149E+04 -1.476410E+04
        78  20  7.920003E+04  1.908252E+06  8.746238E+04 -4.869736E+03 -2.244279E+04  2.277953E+02
        78  21  8.116678E+04  1.904501E+06  9.192949E+04 -3.322537E+03 -2.152927E+04  1.521998E+04
        78  22  4.018347E+03  1.578258E+06  3.170342E+04 -5.504564E+03 -2.216283E+04 -1.345333E+04
        78  23  7.998998E+02  1.576600E+06  2.645666E+04 -4.794510E+03 -2.244367E+04 -2.498557E+02
        78  24  3.940235E+03  1.578260E+06  3.138377E+04 -5.504918E+03 -2.152950E+04  1.295403E+04
        78  25 -7.586951E+04  1.240999E+06 -3.100280E+04 -3.173048E+03 -2.216418E+04 -1.214324E+04
        78  26 -7.760647E+04  1.245055E+06 -3.455359E+04 -4.719318E+03 -2.244456E+04 -7.272589E+02
        78  27 -7.329238E+04  1.252121E+06 -2.916643E+04 -7.686117E+03 -2.152970E+04  1.068924E+04
        79   1  7.707502E+04  1.905161E+06  9.676875E+04 -1.420650E+04  2.118047E+04 -1.911370E+04
        79   2  9.369921E+04  1.888369E+06  1.217087E+05  2.239625E+04  1.681958E+04 -6.090351E+04
        79   3  1.813841E+05  1.894768E+06  1.915678E+05  5.719352E+04  4.925031E+03 -1.026977E+05
        79   4  6.020931E+02  1.582253E+06  3.671321E+04 -5.598226E+03  2.118078E+04 -1.819688E+04
        79   5  1.794330E+04  1.571589E+06  5.894512E+04 -4.673662E+03  1.681743E+04 -4.874445E+04
        79   6  1.044119E+05  1.582176E+06  1.183144E+05 -5.554948E+03  4.923458E+03 -7.929593E+04
        79   7 -7.587653E+04  1.259447E+06 -2.334671E+04  3.005474E+03  2.118112E+04 -1.728051E+04
        79   8 -5.781586E+04  1.254908E+06 -3.822488E+03 -3.172950E+04  1.681422E+04 -3.659145E+04
        79   9  2.744779E+04  1.269684E+06  4.505837E+04 -6.827171E+04  4.917169E+03 -5.590579E+04
        79  10  7.707444E+04  1.905160E+06  9.676722E+04 -1.420617E+04  9.545639E-10  4.233089E-09
        79  11  9.369791E+04  1.888365E+06  1.217012E+05  2.239707E+04  2.795384E-09 -6.338282E-10
        79  12  1.813813E+05  1.894757E+06  1.915480E+05  5.719393E+04  1.399991E-09 -2.562932E-09
        79  13  6.015224E+02  1.582253E+06  3.671175E+04 -5.597916E+03  1.177447E-09 -1.698022E-10
        79  14  1.794236E+04  1.571587E+06  5.894014E+04 -4.673002E+03 -2.559373E-10 -9.565236E-10
        79  15  1.044102E+05  1.582170E+06  1.183025E+05 -5.554634E+03  1.247212E-09  1.371062E-09
        79  16 -7.587710E+04  1.259446E+06 -2.334812E+04  3.005769E+03  1.571516E-10 -4.690830E-09
        79  17 -5.781652E+04  1.254906E+06 -3.825531E+03 -3.172901E+04  1.870454E-09 -4.296543E-10
        79  18  2.744692E+04  1.269681E+06  4.505247E+04 -6.827149E+04  4.711928E-10  4.133065E-09
        79  19  7.707502E+04  1.905161E+06  9.676875E+04 -1.420650E+04 -2.118047E+04  1.911370E+04
        79  20  9.369921E+04  1.888369E+06  1.217087E+05  2.239625E+04 -1.681958E+04  6.090351E+04
        79  21  1.813841E+05  1.894768E+06  1.915678E+05  5.719352E+04 -4.925031E+03  1.026977E+05
        79  22  6.020931E+02  1.582253E+06  3.671321E+04 -5.598226E+03 -2.118078E+04  1.819688E+04
        79  23  1.794330E+04  1.571589E+06  5.894512E+04 -4.673662E+03 -1.681743E+04  4.874445E+04
        79  24  1.044119E+05  1.582176E+06  1.183144E+05 -5.554948E+03 -4.923458E+03  7.929593E+04
        79  25 -7.587653E+04  1.259447E+06 -2.334671E+04  3.005474E+03 -2.118112E+04  1.728051E+04
        79  26 -5.781586E+04  1.254908E+06 -3.822488E+03 -3.172950E+04 -1.681422E+04  3.659145E+04
        79  27  2.744779E+04  1.269684E+06  4.505837E+04 -6.827171E+04 -4.917169E+03  5.590579E+04
        80   1 -1.966882E+06 -4.232257E+05 -3.705141E+05 -4.621414E+04  5.927373E+04  3.229300E+04
        80   2 -1.788024E+06 -5.485626E+05 -3.984822E+05 -6.102307E+04  6.416412E+04  1.013157E+05
        80   3 -1.565834E+06 -5.075691E+05 -3.876869E+05 -1.563603E+05  6.927792E+04  1.065282E+05
        80   4  4.719091E+05  1.824726E+05  2.205405E+05 -1.275332E+05  1.514899E+05  3.258428E+04
        80   5  4.454406E+05 -1.918689E+03  1.002482E+05 -8.701316E+04  9.817950E+04  1.013757E+05
        80   6  4.722035E+05 -1.020304E+04  5.901272E+04 -1.269935E+05  4.509524E+04  1.064608E+05
        80   7  2.916178E+06  7.877659E+05  8.112028E+05 -2.091775E+05  2.440671E+05  3.285083E+04
        80   8  2.683565E+06  5.443896E+05  5.986701E+05 -1.131007E+05  1.323157E+05  1.014327E+05
        80   9  2.514136E+06  4.868888E+05  5.054627E+05 -9.753026E+04  2.083382E+04  1.063912E+05
        80  10 -1.966887E+06 -4.232278E+05 -3.705226E+05 -4.621569E+04  1.824659E-10 -3.408698E-10
        80  11 -1.788031E+06 -5.485747E+05 -3.985093E+05 -6.102832E+04  5.603361E-11 -7.019194E-10
        80  12 -1.565842E+06 -5.075826E+05 -3.877173E+05 -1.563662E+05 -1.039743E-09  7.929722E-10
        80  13  4.718842E+05  1.824653E+05  2.204954E+05 -1.275372E+05  4.729605E-10 -3.082058E-10
        80  14  4.454275E+05 -1.932313E+03  1.002108E+05 -8.702118E+04  3.521595E-10 -4.903587E-10
        80  15  4.721983E+05 -1.021576E+04  5.898760E+04 -1.269973E+05 -1.094789E-09  8.305066E-10
        80  16  2.916114E+06  7.877488E+05  8.110893E+05 -2.091839E+05 -1.715283E-09 -1.629365E-10
        80  17  2.683544E+06  5.443738E+05  5.986180E+05 -1.131115E+05  5.680645E-10 -2.993631E-10
        80  18  2.514133E+06  4.868765E+05  5.054406E+05 -9.753204E+04 -1.913840E-11  7.018646E-10
        80  19 -1.966882E+06 -4.232257E+05 -3.705141E+05 -4.621414E+04 -5.927373E+04 -3.229300E+04
        80  20 -1.788024E+06 -5.485626E+05 -3.984822E+05 -6.102307E+04 -6.416412E+04 -1.013157E+05
        80  21 -1.565834E+06 -5.075691E+05 -3.876869E+05 -1.563603E+05 -6.927792E+04 -1.065282E+05
        80  22  4.719091E+05  1.824726E+05  2.205405E+05 -1.275332E+05 -1.514899E+05 -3.258428E+04
        80  23  4.454406E+05 -1.918689E+03  1.002482E+05 -8.701316E+04 -9.817950E+04 -1.013757E+05
        80  24  4.722035E+05 -1.020304E+04  5.901272E+04 -1.269935E+05 -4.509524E+04 -1.064608E+05
        80  25  2.916178E+06  7.877659E+05  8.112028E+05 -2.091775E+05 -2.440671E+05 -3.285083E+04
        80  26  2.683565E+06  5.443896E+05  5.986701E+05 -1.131007E+05 -1.323157E+05 -1.014327E+05
        80  27  2.514136E+06  4.868888E+05  5.054627E+05 -9.753026E+04 -2.083382E+04 -1.063912E+05
        81   1 -1.412687E+06 -4.486814E+05 -3.660392E+05 -1.262273E+05  4.237452E+04  9.431358E+04
        81   2 -1.216861E+06 -4.099881E+05 -3.425269E+05 -8.692227E+04  3.231988E+04  8.660469E+04
        81   3 -1.016045E+06 -3.616274E+05 -3.097584E+05 -1.298431E+05  2.224407E+04  7.607004E+04
        81   4  4.617090E+05  9.004408E+03  4.687413E+04 -1.275165E+05  3.673121E+04  9.428430E+04
        81   5  4.591127E+05 -1.065987E+03  2.526592E+04 -8.640550E+04  2.406880E+04  8.657976E+04
        81   6  4.619084E+05 -1.030124E+03  1.470405E+04 -1.275061E+05  1.138840E+04  7.605306E+04
        81   7  2.339393E+06  4.664544E+05  4.595723E+05 -1.288106E+05  3.107090E+04  9.425510E+04
        81   8  2.137717E+06  4.076682E+05  3.928880E+05 -8.588776E+04  1.579561E+04  8.655486E+04
        81   9  1.941907E+06  3.594211E+05  3.390339E+05 -1.251634E+05  5.071437E+02  7.603602E+04
        81  10 -1.412692E+06 -4.486914E+05 -3.660593E+05 -1.262305E+05  9.787010E-09  1.362647E-09
        81  11 -1.216864E+06 -4.099964E+05 -3.425430E+05 -8.692452E+04 -7.845164E-10  1.016619E-09
        81  12 -1.016047E+06 -3.616338E+05 -3.097702E+05 -1.298444E+05 -1.050759E-08  1.313492E-09
        81  13  4.617051E+05  8.994498E+03  4.685489E+04 -1.275193E+05 -8.621408E-10  1.227977E-09
        81  14  4.591100E+05 -1.074194E+03  2.525075E+04 -8.640718E+04 -1.176410E-09  1.070392E-09
        81  15  4.619067E+05 -1.036371E+03  1.469293E+04 -1.275068E+05  4.541854E-10  1.299163E-09
        81  16  2.339390E+06  4.664446E+05  4.595538E+05 -1.288130E+05 -1.028362E-08  1.185726E-09
        81  17  2.137714E+06  4.076601E+05  3.928735E+05 -8.588886E+04  5.833932E-10  7.154116E-10
        81  18  1.941905E+06  3.594149E+05  3.390230E+05 -1.251635E+05  9.615895E-09  7.242613E-10
        81  19 -1.412687E+06 -4.486814E+05 -3.660392E+05 -1.262273E+05 -4.237452E+04 -9.431358E+04
        81  20 -1.216861E+06 -4.099881E+05 -3.425269E+05 -8.692227E+04 -3.231988E+04 -8.660469E+04
        81  21 -1.016045E+06 -3.616274E+05 -3.097584E+05 -1.298431E+05 -2.224407E+04 -7.607004E+04
        81  22  4.617090E+05  9.004408E+03  4.687413E+04 -1.275165E+05 -3.673121E+04 -9.428430E+04
        81  23  4.591127E+05 -1.065987E+03  2.526592E+04 -8.640550E+04 -2.406880E+04 -8.657976E+04
        81  24  4.619084E+05 -1.030124E+03  1.470405E+04 -1.275061E+05 -1.138840E+04 -7.605306E+04
        81  25  2.339393E+06  4.664544E+05  4.595723E+05 -1.288106E+05 -3.107090E+04 -9.425510E+04
        81  26  2.137717E+06  4.076682E+05  3.928880E+05 -8.588776E+04 -1.579561E+04 -8.655486E+04
        81  27  1.941907E+06  3.594211E+05  3.390339E+05 -1.251634E+05 -5.071437E+02 -7.603602E+04
        82   1 -8.554198E+05 -3.209272E+05 -2.768139E+05 -1.277890E+05  1.911793E+04  6.927593E+04
        82   2 -6.585648E+05 -2.732376E+05 -2.388774E+05 -8.654016E+04  1.606787E+04  5.821392E+04
        82   3 -4.606915E+05 -2.249112E+05 -1.986962E+05 -1.271984E+05  1.300093E+04  4.704047E+04
        82   4  4.610346E+05  5.228097E+01  1.125765E+04 -1.274393E+05  9.103587E+03  6.926437E+04
        82   5  4.605989E+05 -3.151336E+02  6.390087E+03 -8.649032E+04  5.944484E+03  5.820889E+04
        82   6  4.611650E+05 -2.468331E+01  3.841171E+03 -1.274395E+05  2.769461E+03  4.704221E+04
        82   7  1.779113E+06  3.209162E+05  2.992246E+05 -1.270888E+05 -9.317648E+02  6.925281E+04
        82   8  1.580936E+06  2.725238E+05  2.515819E+05 -8.644024E+04 -4.196945E+03  5.820386E+04
        82   9  1.383817E+06  2.248050E+05  2.063271E+05 -1.276807E+05 -7.477024E+03  4.704395E+04
        82  10 -8.554215E+05 -3.209324E+05 -2.768236E+05 -1.277900E+05  1.652281E-09  8.576218E-10
        82  11 -6.585660E+05 -2.732413E+05 -2.388843E+05 -8.654091E+04  7.807513E-10 -1.047561E-09
        82  12 -4.606923E+05 -2.249136E+05 -1.987007E+05 -1.271989E+05 -2.017492E-09  1.925804E-10
        82  13  4.610332E+05  4.710575E+01  1.124847E+04 -1.274398E+05  4.329041E-11  4.713849E-10
        82  14  4.605980E+05 -3.187823E+02  6.383652E+03 -8.649060E+04  1.624497E-09 -1.076796E-09
        82  15  4.611644E+05 -2.706226E+01  3.836997E+03 -1.274396E+05 -6.998435E-10 -5.274854E-11
        82  16  1.779111E+06  3.209110E+05  2.992156E+05 -1.270887E+05 -1.449163E-09 -1.317781E-10
        82  17  1.580935E+06  2.725201E+05  2.515755E+05 -8.644004E+04  1.511046E-09 -1.290034E-09
        82  18  1.383816E+06  2.248026E+05  2.063228E+05 -1.276805E+05  2.165202E-09 -6.419129E-10
        82  19 -8.554198E+05 -3.209272E+05 -2.768139E+05 -1.277890E+05 -1.911793E+04 -6.927593E+04
        82  20 -6.585648E+05 -2.732376E+05 -2.388774E+05 -8.654016E+04 -1.606787E+04 -5.821392E+04
        82  21 -4.606915E+05 -2.249112E+05 -1.986962E+05 -1.271984E+05 -1.300093E+04 -4.704047E+04
        82  22  4.610346E+05  5.228097E+01  1.125765E+04 -1.274393E+05 -9.103587E+03 -6.926437E+04
        82  23  4.605989E+05 -3.151336E+02  6.390087E+03 -8.649032E+04 -5.944484E+03 -5.820889E+04
        82  24  4.611650E+05 -2.468331E+01  3.841171E+03 -1.274395E+05 -2.769461E+03 -4.704221E+04
        82  25  1.779113E+06  3.209162E+05  2.992246E+05 -1.270888E+05  9.317648E+02 -6.925281E+04
        82  26  1.580936E+06  2.725238E+05  2.515819E+05 -8.644024E+04  4.196945E+03 -5.820386E+04
        82  27  1.383817E+06  2.248050E+05  2.063271E+05 -1.276807E+05  7.477024E+03 -4.704395E+04
        83   1 -2.999531E+05 -1.853795E+05 -1.631735E+05 -1.270628E+05  1.233263E+04  4.051603E+04
        83   2 -1.032073E+05 -1.374782E+05 -1.216195E+05 -8.622784E+04  1.135029E+04  2.934342E+04
        83   3  9.369947E+04 -8.940944E+04 -7.939785E+04 -1.270643E+05  1.035955E+04  1.817312E+04
        83   4  4.610306E+05  4.338423E+01  2.998626E+03 -1.273881E+05  2.146501E+03  4.052085E+04
        83   5  4.610026E+05  6.402176E+01  1.978608E+03 -8.655461E+04  1.163664E+03  2.935152E+04
        83   6  4.610958E+05  2.535542E+02  1.626333E+03 -1.273880E+05  1.727457E+02  1.818465E+04
        83   7  1.222557E+06  1.854278E+05  1.691362E+05 -1.277136E+05 -8.051966E+03  4.052568E+04
        83   8  1.025511E+06  1.375850E+05  1.255578E+05 -8.688160E+04 -9.032103E+03  2.935963E+04
        83   9  8.286184E+05  8.990754E+04  8.264261E+04 -1.277119E+05 -1.002002E+04  1.819618E+04
        83  10 -2.999537E+05 -1.853813E+05 -1.631769E+05 -1.270632E+05 -7.051390E-11  1.037714E-10
        83  11 -1.032076E+05 -1.374791E+05 -1.216214E+05 -8.622810E+04 -5.121503E-10 -9.501295E-10
        83  12  9.369926E+04 -8.940982E+04 -7.939867E+04 -1.270644E+05  9.580764E-10 -2.260128E-10
        83  13  4.610301E+05  4.161944E+01  2.995531E+03 -1.273882E+05  1.033390E-09 -1.279393E-10
        83  14  4.610024E+05  6.309607E+01  1.976986E+03 -8.655464E+04  5.709886E-10 -1.239505E-10
        83  15  4.610957E+05  2.531991E+02  1.625711E+03 -1.273880E+05 -1.305861E-09  1.857955E-10
        83  16  1.222556E+06  1.854260E+05  1.691330E+05 -1.277134E+05 -3.787785E-10  2.068492E-11
        83  17  1.025510E+06  1.375841E+05  1.255560E+05 -8.688139E+04 -3.989083E-11  1.819683E-11
        83  18  8.286182E+05  8.990715E+04  8.264180E+04 -1.277117E+05 -1.444715E-09 -1.241578E-10
        83  19 -2.999531E+05 -1.853795E+05 -1.631735E+05 -1.270628E+05 -1.233263E+04 -4.051603E+04
        83  20 -1.032073E+05 -1.374782E+05 -1.216195E+05 -8.622784E+04 -1.135029E+04 -2.934342E+04
        83  21  9.369947E+04 -8.940944E+04 -7.939785E+04 -1.270643E+05 -1.035955E+04 -1.817312E+04
        83  22  4.610306E+05  4.338423E+01  2.998626E+03 -1.273881E+05 -2.146501E+03 -4.052085E+04
        83  23  4.610026E+05  6.402176E+01  1.978608E+03 -8.655461E+04 -1.163664E+03 -2.935152E+04
        83  24  4.610958E+05  2.535542E+02  1.626333E+03 -1.273880E+05 -1.727457E+02 -1.818465E+04
        83  25  1.222557E+06  1.854278E+05  1.691362E+05 -1.277136E+05  8.051966E+03 -4.052568E+04
        83  26  1.025511E+06  1.375850E+05  1.255578E+05 -8.688160E+04  9.032103E+03 -2.935963E+04
        83  27  8.286184E+05  8.990754E+04  8.264261E+04 -1.277119E+05  1.002002E+04 -1.819618E+04
        84   1  2.543058E+05 -5.002635E+04 -4.311250E+04 -1.271861E+05  1.005255E+04  1.167461E+04
        84   2  4.509950E+05 -2.290893E+03 -2.016884E+02 -8.651878E+04  9.044183E+03  5.154032E+02
        84   3  6.476890E+05  4.563470E+04  4.335807E+04 -1.274287E+05  8.035366E+03 -1.063950E+04
        84   4  4.610826E+05  2.599845E+02  1.621941E+03 -1.273681E+05 -1.317655E+02  1.168720E+04
        84   5  4.610991E+05  1.714894E+02  2.010305E+03 -8.657950E+04 -1.137718E+03  5.279683E+02
        84   6  4.610836E+05  2.750246E+02  3.047201E+03 -1.273680E+05 -2.143812E+03 -1.062681E+04
        84   7  6.678997E+05  5.054356E+04  4.635424E+04 -1.275501E+05 -1.031943E+04  1.169978E+04
        84   8  4.712035E+05  2.633920E+03  4.222682E+03 -8.664022E+04 -1.131978E+04  5.405353E+02
        84   9  2.745110E+05 -4.508689E+04 -3.726534E+04 -1.273073E+05 -1.231997E+04 -1.061412E+04
        84  10  2.543056E+05 -5.002653E+04 -4.311295E+04 -1.271862E+05  1.296935E-09  2.193394E-10
        84  11  4.509949E+05 -2.290915E+03 -2.018425E+02 -8.651878E+04  5.302917E-10  4.774672E-11
        84  12  6.476889E+05  4.563457E+04  4.335774E+04 -1.274286E+05 -4.665269E-10  6.663062E-10
        84  13  4.610825E+05  2.598377E+02  1.621684E+03 -1.273681E+05 -1.894549E-10  5.456965E-10
        84  14  4.610991E+05  1.714888E+02  2.010302E+03 -8.657950E+04  5.387309E-11  5.449953E-10
        84  15  4.610835E+05  2.749021E+02  3.046980E+03 -1.273680E+05  1.402723E-09  8.631730E-10
        84  16  6.678996E+05  5.054338E+04  4.635378E+04 -1.275500E+05 -3.638224E-10  1.071905E-10
        84  17  4.712034E+05  2.633885E+03  4.222440E+03 -8.664022E+04 -8.743267E-10  6.059980E-10
        84  18  2.745108E+05 -4.508705E+04 -3.726584E+04 -1.273075E+05 -2.065557E-10  5.487915E-10
        84  19  2.543058E+05 -5.002635E+04 -4.311250E+04 -1.271861E+05 -1.005255E+04 -1.167461E+04
        84  20  4.509950E+05 -2.290893E+03 -2.016884E+02 -8.651878E+04 -9.044183E+03 -5.154032E+02
        84  21  6.476890E+05  4.563470E+04  4.335807E+04 -1.274287E+05 -8.035366E+03  1.063950E+04
        84  22  4.610826E+05  2.599845E+02  1.621941E+03 -1.273681E+05  1.317655E+02 -1.168720E+04
        84  23  4.610991E+05  1.714894E+02  2.010305E+03 -8.657950E+04  1.137718E+03 -5.279683E+02
        84  24  4.610836E+05  2.750246E+02  3.047201E+03 -1.273680E+05  2.143812E+03  1.062681E+04
        84  25  6.678997E+05  5.054356E+04  4.635424E+04 -1.275501E+05  1.031943E+04 -1.169978E+04
        84  26  4.712035E+05  2.633920E+03  4.222682E+03 -8.664022E+04  1.131978E+04 -5.405353E+02
        84  27  2.745110E+05 -4.508689E+04 -3.726534E+04 -1.273073E+05  1.231997E+04  1.061412E+04
        85   1  8.084965E+05  8.494748E+04  8.047850E+04 -1.274983E+05  7.432041E+03 -1.714314E+04
        85   2  1.005152E+06  1.326008E+05  1.256910E+05 -8.674030E+04  4.098069E+03 -2.828009E+04
        85   3  1.202400E+06  1.809996E+05  1.732345E+05 -1.276343E+05  7.709190E+02 -3.932676E+04
        85   4  4.611925E+05  2.192792E+02  3.888949E+03 -1.273858E+05 -2.779830E+03 -1.713139E+04
        85   5  4.608880E+05  7.447266E+00  6.529140E+03 -8.655731E+04 -6.030122E+03 -2.827174E+04
        85   6  4.611288E+05  5.303517E+02  1.144619E+04 -1.273852E+05 -9.272566E+03 -3.932161E+04
        85   7  1.140013E+05 -8.451696E+04 -7.270762E+04 -1.272733E+05 -1.298606E+04 -1.711965E+04
        85   8 -8.309902E+04 -1.326056E+05 -1.126503E+05 -8.637440E+04 -1.614955E+04 -2.826338E+04
        85   9 -2.796283E+05 -1.799754E+05 -1.503748E+05 -1.271362E+05 -1.930422E+04 -3.931647E+04
        85  10  8.084963E+05  8.494715E+04  8.047784E+04 -1.274982E+05  1.025833E-10  3.187686E-10
        85  11  1.005152E+06  1.325999E+05  1.256895E+05 -8.674021E+04 -7.654062E-11 -4.789406E-10
        85  12  1.202400E+06  1.809980E+05  1.732316E+05 -1.276343E+05 -1.406939E-09 -4.136486E-11
        85  13  4.611924E+05  2.189619E+02  3.888383E+03 -1.273858E+05 -9.607683E-11 -1.799517E-11
        85  14  4.608877E+05  6.578997E+00  6.527569E+03 -8.655745E+04 -4.428899E-10 -7.138758E-10
        85  15  4.611283E+05  5.286678E+02  1.144312E+04 -1.273855E+05 -1.364095E-09 -3.397016E-10
        85  16  1.140010E+05 -8.451732E+04 -7.270849E+04 -1.272735E+05 -5.132463E-10  2.371930E-10
        85  17 -8.309951E+04 -1.326065E+05 -1.126523E+05 -8.637477E+04 -7.672115E-10 -6.738568E-10
        85  18 -2.796291E+05 -1.799772E+05 -1.503784E+05 -1.271368E+05  1.245097E-09 -1.530290E-10
        85  19  8.084965E+05  8.494748E+04  8.047850E+04 -1.274983E+05 -7.432041E+03  1.714314E+04
        85  20  1.005152E+06  1.326008E+05  1.256910E+05 -8.674030E+04 -4.098069E+03  2.828009E+04
        85  21  1.202400E+06  1.809996E+05  1.732345E+05 -1.276343E+05 -7.709190E+02  3.932676E+04
        85  22  4.611925E+05  2.192792E+02  3.888949E+03 -1.273858E+05  2.779830E+03  1.713139E+04
        85  23  4.608880E+05  7.447266E+00  6.529140E+03 -8.655731E+04  6.030122E+03  2.827174E+04
        85  24  4.611288E+05  5.303517E+02  1.144619E+04 -1.273852E+05  9.272566E+03  3.932161E+04
        85  25  1.140013E+05 -8.451696E+04 -7.270762E+04 -1.272733E+05  1.298606E+04  1.711965E+04
        85  26 -8.309902E+04 -1.326056E+05 -1.126503E+05 -8.637440E+04  1.614955E+04  2.826338E+04
        85  27 -2.796283E+05 -1.799754E+05 -1.503748E+05 -1.271362E+05  1.930422E+04  3.931647E+04
        86   1  1.364411E+06  2.193446E+05  2.129696E+05 -1.259269E+05 -9.122450E+02 -4.602477E+04
        86   2  1.559512E+06  2.674036E+05  2.667625E+05 -8.749783E+04 -1.584894E+04 -5.664430E+04
        86   3  1.759666E+06  3.261623E+05  3.330186E+05 -1.308552E+05 -3.077621E+04 -6.509224E+04
        86   4  4.619870E+05 -5.535678E+02  1.493292E+04 -1.274167E+05 -1.160317E+04 -4.602221E+04
        86   5  4.595835E+05 -5.284241E+02  2.574336E+04 -8.651810E+04 -2.453572E+04 -5.664908E+04
        86   6  4.618552E+05  9.862575E+03  4.764373E+04 -1.274140E+05 -3.745417E+04 -6.510256E+04
        86   7 -4.396758E+05 -2.205061E+05 -1.831529E+05 -1.289042E+05 -2.227875E+04 -4.601959E+04
        86   8 -6.392152E+05 -2.685411E+05 -2.153489E+05 -8.553997E+04 -3.320730E+04 -5.665388E+04
        86   9 -8.343833E+05 -3.065499E+05 -2.378339E+05 -1.239799E+05 -4.411830E+04 -6.511296E+04
        86  10  1.364410E+06  2.193424E+05  2.129656E+05 -1.259269E+05 -2.696254E-11 -1.103484E-10
        86  11  1.559511E+06  2.674001E+05  2.667560E+05 -8.749855E+04  4.692502E-10 -5.731394E-10
        86  12  1.759663E+06  3.261575E+05  3.330089E+05 -1.308569E+05  2.101177E-10  7.004152E-11
        86  13  4.619863E+05 -5.558789E+02  1.492868E+04 -1.274172E+05 -1.127271E-10  1.671352E-10
        86  14  4.595820E+05 -5.320325E+02  2.573620E+04 -8.651922E+04  1.104643E-09 -1.659373E-10
        86  15  4.618526E+05  9.857646E+03  4.763313E+04 -1.274160E+05 -2.816512E-10  2.811951E-11
        86  16 -4.396769E+05 -2.205085E+05 -1.831578E+05 -1.289050E+05 -1.253513E-09  1.255764E-10
        86  17 -6.392172E+05 -2.685449E+05 -2.153570E+05 -8.554149E+04  7.082034E-10  4.407580E-10
        86  18 -8.343865E+05 -3.065549E+05 -2.378456E+05 -1.239823E+05 -4.501092E-10  8.807763E-11
        86  19  1.364411E+06  2.193446E+05  2.129696E+05 -1.259269E+05  9.122450E+02  4.602477E+04
        86  20  1.559512E+06  2.674036E+05  2.667625E+05 -8.749783E+04  1.584894E+04  5.664430E+04
        86  21  1.759666E+06  3.261623E+05  3.330186E+05 -1.308552E+05  3.077621E+04  6.509224E+04
        86  22  4.619870E+05 -5.535678E+02  1.493292E+04 -1.274167E+05  1.160317E+04  4.602221E+04
        86  23  4.595835E+05 -5.284241E+02  2.574336E+04 -8.651810E+04  2.453572E+04  5.664908E+04
        86  24  4.618552E+05  9.862575E+03  4.764373E+04 -1.274140E+05  3.745417E+04  6.510256E+04
        86  25 -4.396758E+05 -2.205061E+05 -1.831529E+05 -1.289042E+05  2.227875E+04  4.601959E+04
        86  26 -6.392152E+05 -2.685411E+05 -2.153489E+05 -8.553997E+04  3.320730E+04  5.665388E+04
        86  27 -8.343833E+05 -3.065499E+05 -2.378339E+05 -1.239799E+05  4.411830E+04  6.511296E+04
        87   1  1.933186E+06  3.460707E+05  3.795545E+05 -9.972777E+04 -2.500582E+04 -7.591309E+04
        87   2  2.102100E+06  4.033620E+05  4.712115E+05 -1.168569E+05 -1.238741E+05 -7.451008E+04
        87   3  2.331560E+06  6.469442E+05  6.739092E+05 -2.143056E+05 -2.228556E+05 -2.418785E+04
        87   4  4.724761E+05 -9.604625E+03  5.996660E+04 -1.270345E+05 -4.596950E+04 -7.593146E+04
        87   5  4.459185E+05 -1.160500E+03  1.019918E+05 -8.698101E+04 -9.998166E+04 -7.450923E+04
        87   6  4.722471E+05  1.860587E+05  2.241098E+05 -1.272370E+05 -1.540695E+05 -2.412751E+04
        87   7 -9.862386E+05 -3.654191E+05 -2.597485E+05 -1.542764E+05 -6.688448E+04 -7.594801E+04
        87   8 -1.207710E+06 -4.058652E+05 -2.673973E+05 -5.718587E+04 -7.615187E+04 -7.450611E+04
        87   9 -1.383888E+06 -2.750481E+05 -2.259159E+05 -4.043000E+04 -8.548757E+04 -2.404789E+04
        87  10  1.933184E+06  3.460643E+05  3.795425E+05 -9.972930E+04 -1.602255E-10  3.513292E-10
        87  11  2.102082E+06  4.033519E+05  4.711724E+05 -1.168643E+05 -1.351155E-09 -1.173362E-10
        87  12  2.331506E+06  6.469303E+05  6.738151E+05 -2.143100E+05  2.276028E-10 -3.558212E-10
        87  13  4.724723E+05 -9.611385E+03  5.995179E+04 -1.270373E+05  7.158127E-11 -5.442444E-11
        87  14  4.459062E+05 -1.169145E+03  1.019626E+05 -8.698701E+04 -2.782663E-09 -5.564740E-10
        87  15  4.722214E+05  1.860517E+05  2.240642E+05 -1.272400E+05 -9.980625E-10 -1.420919E-10
        87  16 -9.862450E+05 -3.654265E+05 -2.597677E+05 -1.542805E+05 -1.164570E-09 -3.827387E-10
        87  17 -1.207717E+06 -4.058727E+05 -2.674186E+05 -5.719044E+04 -1.347836E-09 -3.382164E-10
        87  18 -1.383896E+06 -2.750507E+05 -2.259308E+05 -4.043165E+04 -1.255144E-10 -2.510192E-10
        87  19  1.933186E+06  3.460707E+05  3.795545E+05 -9.972777E+04  2.500582E+04  7.591309E+04
        87  20  2.102100E+06  4.033620E+05  4.712115E+05 -1.168569E+05  1.238741E+05  7.451008E+04
        87  21  2.331560E+06  6.469442E+05  6.739092E+05 -2.143056E+05  2.228556E+05  2.418785E+04
        87  22  4.724761E+05 -9.604625E+03  5.996660E+04 -1.270345E+05  4.596950E+04  7.593146E+04
        87  23  4.459185E+05 -1.160500E+03  1.019918E+05 -8.698101E+04  9.998166E+04  7.450923E+04
        87  24  4.722471E+05  1.860587E+05  2.241098E+05 -1.272370E+05  1.540695E+05  2.412751E+04
        87  25 -9.862386E+05 -3.654191E+05 -2.597485E+05 -1.542764E+05  6.688448E+04  7.594801E+04
        87  26 -1.207710E+06 -4.058652E+05 -2.673973E+05 -5.718587E+04  7.615187E+04  7.450611E+04
        87  27 -1.383888E+06 -2.750481E+05 -2.259159E+05 -4.043000E+04  8.548757E+04  2.404789E+04
        88   1  1.967751E+04 -3.835438E+05  3.639686E+04 -1.405939E+05 -5.302999E+03  4.927146E+04
        88   2 -9.742955E+04 -5.567138E+05 -4.685500E+04 -8.249905E+04 -1.992692E+04  3.118193E+04
        88   3 -1.408156E+05 -7.096363E+05 -1.000465E+05 -9.215905E+04 -3.015340E+04  1.311726E+04
        88   4  7.823318E+04 -1.455330E+05  9.281804E+04 -1.045422E+05 -5.360610E+03  6.469468E+04
        88   5  3.194852E+02 -1.560155E+05  4.157689E+04 -7.082093E+04 -1.996837E+04  4.258862E+04
        88   6 -3.197247E+03 -1.455796E+05  2.318317E+04 -1.048451E+05 -3.017870E+04  2.050327E+04
        88   7  1.367899E+05  9.253331E+04  1.492369E+05 -6.847649E+04 -5.416418E+03  8.012378E+04
        88   8  9.805835E+04  2.448336E+05  1.299995E+05 -5.913504E+04 -2.000938E+04  5.400259E+04
        88   9  1.344005E+05  4.187757E+05  1.463939E+05 -1.175426E+05 -3.020428E+04  2.789590E+04
        88  10  1.967683E+04 -3.835464E+05  3.639224E+04 -1.405937E+05  3.110119E-10  1.536972E-09
        88  11 -9.743024E+04 -5.567149E+05 -4.685757E+04 -8.249855E+04  8.359686E-10 -7.824650E-12
        88  12 -1.408166E+05 -7.096367E+05 -1.000485E+05 -9.215873E+04  9.941638E-10 -1.631824E-09
        88  13  7.823203E+04 -1.455375E+05  9.281012E+04 -1.045419E+05  4.432751E-11  2.130228E-12
        88  14  3.185702E+02 -1.560175E+05  4.157273E+04 -7.082025E+04  2.113612E-10 -3.659776E-12
        88  15 -3.198338E+03 -1.455803E+05  2.318067E+04 -1.048446E+05  1.095436E-09 -1.877990E-11
        88  16  1.367881E+05  9.252641E+04  1.492248E+05 -6.847614E+04  4.210170E-12 -1.432978E-09
        88  17  9.805714E+04  2.448304E+05  1.299932E+05 -5.913417E+04 -1.317768E-09 -2.912777E-11
        88  18  1.343993E+05  4.187746E+05  1.463907E+05 -1.175419E+05 -4.853772E-10  1.519444E-09
        88  19  1.967751E+04 -3.835438E+05  3.639686E+04 -1.405939E+05  5.302999E+03 -4.927146E+04
        88  20 -9.742955E+04 -5.567138E+05 -4.685500E+04 -8.249905E+04  1.992692E+04 -3.118193E+04
        88  21 -1.408156E+05 -7.096363E+05 -1.000465E+05 -9.215905E+04  3.015340E+04 -1.311726E+04
        88  22  7.823318E+04 -1.455330E+05  9.281804E+04 -1.045422E+05  5.360610E+03 -6.469468E+04
        88  23  3.194852E+02 -1.560155E+05  4.157689E+04 -7.082093E+04  1.996837E+04 -4.258862E+04
        88  24 -3.197247E+03 -1.455796E+05  2.318317E+04 -1.048451E+05  3.017870E+04 -2.050327E+04
        88  25  1.367899E+05  9.253331E+04  1.492369E+05 -6.847649E+04  5.416418E+03 -8.012378E+04
        88  26  9.805835E+04  2.448336E+05  1.299995E+05 -5.913504E+04  2.000938E+04 -5.400259E+04
        88  27  1.344005E+05  4.187757E+05  1.463939E+05 -1.175426E+05  3.020428E+04 -2.789590E+04
        89   1 -1.652614E+05 -8.474282E+05 -1.359942E+05 -1.040510E+05 -3.530589E+04  8.152452E+03
        89   2 -2.097386E+05 -1.010845E+06 -1.822950E+05 -6.933263E+04 -4.435398E+04  6.588849E+03
        89   3 -2.513801E+05 -1.173588E+06 -2.269389E+05 -1.022400E+05 -5.144970E+04  5.040977E+03
        89   4  4.993952E+03 -1.500518E+05  1.750564E+04 -1.047307E+05 -3.533540E+04  1.730380E+04
        89   5  2.175470E+02 -1.505732E+05  6.599050E+03 -7.093111E+04 -4.437326E+04  1.395872E+04
        89   6 -1.413156E+03 -1.501353E+05 -1.411458E+03 -1.047512E+05 -5.146009E+04  1.062900E+04
        89   7  1.752167E+05  5.477800E+05  1.709760E+05 -1.054107E+05 -3.536491E+04  2.646532E+04
        89   8  2.101241E+05  7.103920E+05  1.954482E+05 -7.253125E+04 -4.439257E+04  2.133869E+04
        89   9  2.484835E+05  8.742980E+05  2.240518E+05 -1.072659E+05 -5.147052E+04  1.622613E+04
        89  10 -1.652627E+05 -8.474286E+05 -1.359966E+05 -1.040507E+05  4.787038E-10  3.558814E-10
        89  11 -2.097407E+05 -1.010846E+06 -1.822988E+05 -6.933240E+04  1.508176E-09  2.701571E-10
        89  12 -2.513830E+05 -1.173589E+06 -2.269439E+05 -1.022397E+05  7.934347E-10  1.594948E-10
        89  13  4.992531E+03 -1.500525E+05  1.750273E+04 -1.047302E+05 -2.768295E-10 -6.505092E-11
        89  14  2.153806E+02 -1.505739E+05  6.594984E+03 -7.093061E+04  4.415135E-10 -1.094124E-10
        89  15 -1.416030E+03 -1.501362E+05 -1.416646E+03 -1.047508E+05  8.417607E-10  4.892166E-11
        89  16  1.752151E+05  5.477789E+05  1.709723E+05 -1.054100E+05 -1.347484E-09 -4.072047E-10
        89  17  2.101219E+05  7.103910E+05  1.954436E+05 -7.253049E+04 -4.242346E-10 -3.597495E-10
        89  18  2.484805E+05  8.742970E+05  2.240464E+05 -1.072652E+05 -7.193560E-11 -4.889380E-12
        89  19 -1.652614E+05 -8.474282E+05 -1.359942E+05 -1.040510E+05  3.530589E+04 -8.152452E+03
        89  20 -2.097386E+05 -1.010845E+06 -1.822950E+05 -6.933263E+04  4.435398E+04 -6.588849E+03
        89  21 -2.513801E+05 -1.173588E+06 -2.269389E+05 -1.022400E+05  5.144970E+04 -5.040977E+03
        89  22  4.993952E+03 -1.500518E+05  1.750564E+04 -1.047307E+05  3.533540E+04 -1.730380E+04
        89  23  2.175470E+02 -1.505732E+05  6.599050E+03 -7.093111E+04  4.437326E+04 -1.395872E+04
        89  24 -1.413156E+03 -1.501353E+05 -1.411458E+03 -1.047512E+05  5.146009E+04 -1.062900E+04
        89  25  1.752167E+05  5.477800E+05  1.709760E+05 -1.054107E+05  3.536491E+04 -2.646532E+04
        89  26  2.101241E+05  7.103920E+05  1.954482E+05 -7.253125E+04  4.439257E+04 -2.133869E+04
        89  27  2.484835E+05  8.742980E+05  2.240518E+05 -1.072659E+05  5.147052E+04 -1.622613E+04
        90   1 -2.805405E+05 -1.309457E+06 -2.586669E+05 -9.778628E+04 -6.022859E+04 -6.058756E+03
        90   2 -3.226103E+05 -1.465895E+06 -3.082150E+05 -7.382316E+04 -5.939954E+04  3.709309E+04
        90   3 -3.974263E+05 -1.635878E+06 -3.940259E+05 -1.157172E+05 -1.923893E+04  8.030103E+04
        90   4  1.947362E+03 -1.520421E+05 -4.823941E+03 -1.043346E+05 -6.026731E+04  1.099991E+04
        90   5  6.772718E+00 -1.484416E+05 -1.375566E+04 -7.144120E+04 -5.934735E+04  1.836996E+04
        90   6 -2.842280E+04 -1.521688E+05 -3.405035E+04 -1.044005E+05 -1.913201E+04  2.580915E+04
        90   7  2.843458E+05  1.006629E+06  2.489386E+05 -1.108943E+05 -6.030634E+04  2.809002E+04
        90   8  3.225059E+05  1.170632E+06  2.805958E+05 -6.905312E+04 -5.929536E+04 -3.925835E+02
        90   9  3.404211E+05  1.333562E+06  3.257775E+05 -9.305547E+04 -1.902721E+04 -2.881290E+04
        90  10 -2.805444E+05 -1.309458E+06 -2.586738E+05 -9.778658E+04  1.735381E-10  4.333183E-10
        90  11 -3.226145E+05 -1.465897E+06 -3.082242E+05 -7.382138E+04 -3.742078E-10  3.275269E-11
        90  12 -3.974284E+05 -1.635885E+06 -3.940387E+05 -1.157160E+05 -2.489650E-11 -5.737198E-10
        90  13  1.943430E+03 -1.520432E+05 -4.830993E+03 -1.043340E+05  8.285630E-13 -1.645057E-11
        90  14  2.900375E+00 -1.484429E+05 -1.376291E+04 -7.144032E+04  3.868143E-10 -2.698439E-11
        90  15 -2.842337E+04 -1.521696E+05 -3.405229E+04 -1.044001E+05  1.341451E-10 -5.621023E-11
        90  16  2.843417E+05  1.006627E+06  2.489303E+05 -1.108929E+05  1.885855E-10 -4.256572E-10
        90  17  3.225021E+05  1.170631E+06  2.805891E+05 -6.905313E+04  4.046306E-10 -2.798754E-11
        90  18  3.404205E+05  1.333561E+06  3.257753E+05 -9.305591E+04  2.404942E-10  6.048387E-10
        90  19 -2.805405E+05 -1.309457E+06 -2.586669E+05 -9.778628E+04  6.022859E+04  6.058756E+03
        90  20 -3.226103E+05 -1.465895E+06 -3.082150E+05 -7.382316E+04  5.939954E+04 -3.709309E+04
        90  21 -3.974263E+05 -1.635878E+06 -3.940259E+05 -1.157172E+05  1.923893E+04 -8.030103E+04
        90  22  1.947362E+03 -1.520421E+05 -4.823941E+03 -1.043346E+05  6.026731E+04 -1.099991E+04
        90  23  6.772718E+00 -1.484416E+05 -1.375566E+04 -7.144120E+04  5.934735E+04 -1.836996E+04
        90  24 -2.842280E+04 -1.521688E+05 -3.405035E+04 -1.044005E+05  1.913201E+04 -2.580915E+04
        90  25  2.843458E+05  1.006629E+06  2.489386E+05 -1.108943E+05  6.030634E+04 -2.809002E+04
        90  26  3.225059E+05  1.170632E+06  2.805958E+05 -6.905312E+04  5.929536E+04  3.925835E+02
        90  27  3.404211E+05  1.333562E+06  3.257775E+05 -9.305547E+04  1.902721E+04  2.881290E+04
        91   1 -3.508799E+06 -1.305106E+06 -7.895346E+05 -1.247703E+06 -2.644916E+05 -6.994884E+04
        91   2 -3.371777E+06 -9.535924E+05 -5.496027E+05 -1.200846E+06 -1.736542E+05  2.919330E+04
        91   3 -3.289706E+06 -8.726636E+05 -4.552432E+05 -1.147219E+06 -6.259416E+04  7.510198E+04
        91   4 -1.713436E+06 -5.244733E+05 -2.890041E+05 -6.530682E+05 -1.941177E+05 -4.334189E+04
        91   5 -1.674538E+06 -2.830874E+05 -1.253273E+05 -6.982464E+05 -1.483249E+05  3.874071E+04
        91   6 -1.681379E+06 -3.029558E+05 -7.110961E+04 -7.367306E+05 -8.236448E+04  6.762314E+04
        91   7  8.508414E+04  2.566580E+05  2.112420E+05 -5.677002E+04 -1.235189E+05 -1.662112E+04
        91   8  2.555956E+04  3.877061E+05  2.987230E+05 -1.943592E+05 -1.229194E+05  4.832052E+04
        91   9 -7.048023E+04  2.668718E+05  3.128410E+05 -3.252963E+05 -1.021909E+05  6.012571E+04
        91  10 -3.508876E+06 -1.305131E+06 -7.896762E+05 -1.247718E+06  3.603465E-11  2.416845E-11
        91  11 -3.371810E+06 -9.536014E+05 -5.496612E+05 -1.200842E+06  1.190359E-09 -7.818585E-10
        91  12 -3.289711E+06 -8.726707E+05 -4.552611E+05 -1.147215E+06  1.686308E-10 -7.174829E-10
        91  13 -1.713477E+06 -5.244855E+05 -2.890787E+05 -6.530750E+05 -3.293554E-10 -3.090865E-10
        91  14 -1.674562E+06 -2.830949E+05 -1.253716E+05 -6.982418E+05  1.546366E-09 -7.855328E-10
        91  15 -1.681388E+06 -3.029625E+05 -7.113095E+04 -7.367261E+05 -1.372603E-09 -8.874682E-10
        91  16  8.506769E+04  2.566536E+05  2.112128E+05 -5.677167E+04 -5.836443E-10 -5.043923E-10
        91  17  2.554272E+04  3.876995E+05  2.986902E+05 -1.943544E+05 -2.860389E-10 -7.465868E-10
        91  18 -7.049241E+04  2.668651E+05  3.128146E+05 -3.252914E+05 -2.581573E-10 -6.511593E-10
        91  19 -3.508799E+06 -1.305106E+06 -7.895346E+05 -1.247703E+06  2.644916E+05  6.994884E+04
        91  20 -3.371777E+06 -9.535924E+05 -5.496027E+05 -1.200846E+06  1.736542E+05 -2.919330E+04
        91  21 -3.289706E+06 -8.726636E+05 -4.552432E+05 -1.147219E+06  6.259416E+04 -7.510198E+04
        91  22 -1.713436E+06 -5.244733E+05 -2.890041E+05 -6.530682E+05  1.941177E+05  4.334189E+04
        91  23 -1.674538E+06 -2.830874E+05 -1.253273E+05 -6.982464E+05  1.483249E+05 -3.874071E+04
        91  24 -1.681379E+06 -3.029558E+05 -7.110961E+04 -7.367306E+05  8.236448E+04 -6.762314E+04
        91  25  8.508414E+04  2.566580E+05  2.112420E+05 -5.677002E+04  1.235189E+05  1.662112E+04
        91  26  2.555956E+04  3.877061E+05  2.987230E+05 -1.943592E+05  1.229194E+05 -4.832052E+04
        91  27 -7.048023E+04  2.668718E+05  3.128410E+05 -3.252963E+05  1.021909E+05 -6.012571E+04
        92   1 -3.130438E+06 -8.755744E+05 -4.128236E+05 -1.130237E+06 -6.557362E+04  6.234032E+04
        92   2 -3.006459E+06 -7.804849E+05 -3.485187E+05 -1.064108E+06 -4.660404E+04  6.294620E+04
        92   3 -2.841972E+06 -7.465786E+05 -3.003681E+05 -1.048498E+06 -2.670912E+04  6.106212E+04
        92   4 -1.671648E+06 -3.254301E+05 -5.642414E+04 -7.240788E+05 -6.945308E+04  6.086102E+04
        92   5 -1.691060E+06 -2.881608E+05 -2.900286E+04 -7.013840E+05 -5.256413E+04  6.068903E+04
        92   6 -1.669556E+06 -3.116349E+05 -1.605226E+04 -7.292122E+05 -3.475502E+04  5.802799E+04
        92   7 -2.107535E+05  2.248712E+05  2.998129E+05 -3.170467E+05 -7.334242E+04  5.937795E+04
        92   8 -3.739430E+05  2.042873E+05  2.903840E+05 -3.379569E+05 -5.853801E+04  5.842666E+04
        92   9 -4.957717E+05  1.234031E+05  2.681633E+05 -4.093759E+05 -4.281758E+04  5.498770E+04
        92  10 -3.130444E+06 -8.755797E+05 -4.128390E+05 -1.130233E+06  5.373233E-10 -5.122821E-10
        92  11 -3.006462E+06 -7.804897E+05 -3.485302E+05 -1.064105E+06 -4.727280E-11 -1.050287E-10
        92  12 -2.841974E+06 -7.465827E+05 -3.003765E+05 -1.048496E+06 -2.236541E-10 -2.665781E-10
        92  13 -1.671654E+06 -3.254354E+05 -5.644017E+04 -7.240754E+05  1.235676E-09 -4.582913E-10
        92  14 -1.691064E+06 -2.881655E+05 -2.901497E+04 -7.013814E+05  1.240485E-09 -1.383774E-10
        92  15 -1.669559E+06 -3.116388E+05 -1.606085E+04 -7.292105E+05  9.404707E-10  3.172051E-10
        92  16 -2.107602E+05  2.248660E+05  2.997962E+05 -3.170432E+05  2.060076E-09 -3.343748E-10
        92  17 -3.739476E+05  2.042827E+05  2.903712E+05 -3.379542E+05  7.014746E-10  2.469209E-10
        92  18 -4.957744E+05  1.233993E+05  2.681541E+05 -4.093740E+05  1.429284E-09  3.910907E-10
        92  19 -3.130438E+06 -8.755744E+05 -4.128236E+05 -1.130237E+06  6.557362E+04 -6.234032E+04
        92  20 -3.006459E+06 -7.804849E+05 -3.485187E+05 -1.064108E+06  4.660404E+04 -6.294620E+04
        92  21 -2.841972E+06 -7.465786E+05 -3.003681E+05 -1.048498E+06  2.670912E+04 -6.106212E+04
        92  22 -1.671648E+06 -3.254301E+05 -5.642414E+04 -7.240788E+05  6.945308E+04 -6.086102E+04
        92  23 -1.691060E+06 -2.881608E+05 -2.900286E+04 -7.013840E+05  5.256413E+04 -6.068903E+04
        92  24 -1.669556E+06 -3.116349E+05 -1.605226E+04 -7.292122E+05  3.475502E+04 -5.802799E+04
        92  25 -2.107535E+05  2.248712E+05  2.998129E+05 -3.170467E+05  7.334242E+04 -5.937795E+04
        92  26 -3.739430E+05  2.042873E+05  2.903840E+05 -3.379569E+05  5.853801E+04 -5.842666E+04
        92  27 -4.957717E+05  1.234031E+05  2.681633E+05 -4.093759E+05  4.281758E+04 -5.498770E+04
        93   1 -2.713089E+06 -7.023957E+05 -2.650193E+05 -1.015122E+06 -2.308592E+04  5.629293E+04
        93   2 -2.587141E+06 -6.212009E+05 -2.235043E+05 -9.462980E+05 -1.630040E+04  4.883992E+04
        93   3 -2.413227E+06 -5.892081E+05 -1.847305E+05 -9.326341E+05 -9.461798E+03  4.121150E+04
        93   4 -1.668504E+06 -3.131818E+05 -1.224842E+04 -7.286634E+05 -3.047735E+04  5.350884E+04
        93   5 -1.692373E+06 -2.880749E+05 -6.695829E+03 -7.012591E+05 -2.383442E+04  4.600755E+04
        93   6 -1.668271E+06 -3.121365E+05 -3.767115E+03 -7.290179E+05 -1.713941E+04  3.833073E+04
        93   7 -6.228357E+05  7.610838E+04  2.404418E+05 -4.417644E+05 -3.788239E+04  5.071965E+04
        93   8 -7.968120E+05  4.510569E+04  2.100528E+05 -4.558984E+05 -3.138030E+04  4.317074E+04
        93   9 -9.227692E+05 -3.502839E+04  1.771541E+05 -5.251798E+05 -2.482706E+04  3.544622E+04
        93  10 -2.713090E+06 -7.023993E+05 -2.650262E+05 -1.015121E+06 -4.662825E-10  2.995804E-11
        93  11 -2.587142E+06 -6.212035E+05 -2.235093E+05 -9.462973E+05  6.544396E-10  1.096134E-10
        93  12 -2.413228E+06 -5.892100E+05 -1.847339E+05 -9.326338E+05 -6.632895E-10 -2.300773E-10
        93  13 -1.668506E+06 -3.131851E+05 -1.225554E+04 -7.286621E+05  8.520080E-10 -6.394778E-11
        93  14 -1.692374E+06 -2.880773E+05 -6.700870E+03 -7.012582E+05  1.094868E-09  2.855143E-10
        93  15 -1.668272E+06 -3.121382E+05 -3.770425E+03 -7.290173E+05  6.160889E-10 -1.837425E-10
        93  16 -6.228379E+05  7.610524E+04  2.404343E+05 -4.417629E+05  1.031784E-09  5.292076E-10
        93  17 -7.968136E+05  4.510342E+04  2.100475E+05 -4.558973E+05 -3.699114E-10  3.713270E-10
        93  18 -9.227702E+05 -3.502990E+04  1.771506E+05 -5.251790E+05  2.435291E-10 -2.190309E-10
        93  19 -2.713089E+06 -7.023957E+05 -2.650193E+05 -1.015122E+06  2.308592E+04 -5.629293E+04
        93  20 -2.587141E+06 -6.212009E+05 -2.235043E+05 -9.462980E+05  1.630040E+04 -4.883992E+04
        93  21 -2.413227E+06 -5.892081E+05 -1.847305E+05 -9.326341E+05  9.461798E+03 -4.121150E+04
        93  22 -1.668504E+06 -3.131818E+05 -1.224842E+04 -7.286634E+05  3.047735E+04 -5.350884E+04
        93  23 -1.692373E+06 -2.880749E+05 -6.695829E+03 -7.012591E+05  2.383442E+04 -4.600755E+04
        93  24 -1.668271E+06 -3.121365E+05 -3.767115E+03 -7.290179E+05  1.713941E+04 -3.833073E+04
        93  25 -6.228357E+05  7.610838E+04  2.404418E+05 -4.417644E+05  3.788239E+04 -5.071965E+04
        93  26 -7.968120E+05  4.510569E+04  2.100528E+05 -4.558984E+05  3.138030E+04 -4.317074E+04
        93  27 -9.227692E+05 -3.502839E+04  1.771541E+05 -5.251798E+05  2.482706E+04 -3.544622E+04
        94   1 -2.283872E+06 -5.412978E+05 -1.515655E+05 -8.976258E+05 -6.933109E+03  3.616245E+04
        94   2 -2.155829E+06 -4.599717E+05 -1.140885E+05 -8.277204E+05 -2.565872E+03  2.748164E+04
        94   3 -1.978762E+06 -4.277625E+05 -7.733354E+04 -8.141092E+05  1.809342E+03  1.876100E+04
        94   4 -1.668035E+06 -3.123639E+05 -2.942672E+03 -7.291629E+05 -1.461859E+04  3.328132E+04
        94   5 -1.692500E+06 -2.877131E+05 -1.895215E+03 -7.010382E+05 -1.028435E+04  2.459091E+04
        94   6 -1.667963E+06 -3.121730E+05 -1.544112E+03 -7.292144E+05 -5.942455E+03  1.586072E+04
        94   7 -1.051818E+06 -8.340173E+04  1.456539E+05 -5.605460E+05 -2.231247E+04  3.039706E+04
        94   8 -1.228958E+06 -1.154403E+05  1.102820E+05 -5.742702E+05 -1.800909E+04  2.169783E+04
        94   9 -1.357073E+06 -1.965784E+05  7.423710E+04 -6.442821E+05 -1.369838E+04  1.295889E+04
        94  10 -2.283872E+06 -5.412992E+05 -1.515681E+05 -8.976256E+05 -1.539737E-09 -2.709992E-10
        94  11 -2.155830E+06 -4.599725E+05 -1.140900E+05 -8.277203E+05 -6.278635E-10  1.034607E-09
        94  12 -1.978762E+06 -4.277629E+05 -7.733420E+04 -8.141092E+05  1.299611E-10  2.445845E-10
        94  13 -1.668036E+06 -3.123651E+05 -2.945153E+03 -7.291625E+05  2.604702E-10  1.609879E-10
        94  14 -1.692500E+06 -2.877138E+05 -1.896549E+03 -7.010380E+05 -1.050275E-09  7.474462E-10
        94  15 -1.667963E+06 -3.121732E+05 -1.544650E+03 -7.292143E+05 -9.204411E-10  5.385360E-10
        94  16 -1.051819E+06 -8.340286E+04  1.456512E+05 -5.605454E+05  1.623936E-09  3.808123E-10
        94  17 -1.228959E+06 -1.154409E+05  1.102805E+05 -5.742699E+05  7.476763E-10  4.304833E-10
        94  18 -1.357073E+06 -1.965787E+05  7.423643E+04 -6.442819E+05 -8.659720E-10  7.566811E-10
        94  19 -2.283872E+06 -5.412978E+05 -1.515655E+05 -8.976258E+05  6.933109E+03 -3.616245E+04
        94  20 -2.155829E+06 -4.599717E+05 -1.140885E+05 -8.277204E+05  2.565872E+03 -2.748164E+04
        94  21 -1.978762E+06 -4.277625E+05 -7.733354E+04 -8.141092E+05 -1.809342E+03 -1.876100E+04
        94  22 -1.668035E+06 -3.123639E+05 -2.942672E+03 -7.291629E+05  1.461859E+04 -3.328132E+04
        94  23 -1.692500E+06 -2.877131E+05 -1.895215E+03 -7.010382E+05  1.028435E+04 -2.459091E+04
        94  24 -1.667963E+06 -3.121730E+05 -1.544112E+03 -7.292144E+05  5.942455E+03 -1.586072E+04
        94  25 -1.051818E+06 -8.340173E+04  1.456539E+05 -5.605460E+05  2.231247E+04 -3.039706E+04
        94  26 -1.228958E+06 -1.154403E+05  1.102820E+05 -5.742702E+05  1.800909E+04 -2.169783E+04
        94  27 -1.357073E+06 -1.965784E+05  7.423710E+04 -6.442821E+05  1.369838E+04 -1.295889E+04
        95   1 -1.848175E+06 -3.791492E+05 -4.469640E+04 -7.786186E+05  4.067615E+03  1.355882E+04
        95   2 -1.719226E+06 -2.975365E+05 -8.609763E+03 -7.083169E+05  8.538301E+03  4.837691E+03
        95   3 -1.541131E+06 -2.653216E+05  2.666081E+04 -6.946787E+05  1.300824E+04 -3.881380E+03
        95   4 -1.667921E+06 -3.122328E+05 -1.595953E+03 -7.292929E+05 -3.699300E+03  1.065384E+04
        95   5 -1.692484E+06 -2.875447E+05 -2.127666E+03 -7.009511E+05  7.722326E+02  1.933094E+03
        95   6 -1.667921E+06 -3.122564E+05 -3.474888E+03 -7.292825E+05  5.242715E+03 -6.785624E+03
        95   7 -1.487634E+06 -2.453135E+05  4.150271E+04 -6.799538E+05 -1.146872E+04  7.747928E+03
        95   8 -1.665740E+06 -2.775527E+05  4.354720E+03 -6.935849E+05 -6.994287E+03 -9.716744E+02
        95   9 -1.794697E+06 -3.591909E+05 -3.361204E+04 -7.638803E+05 -2.521208E+03 -9.689272E+03
        95  10 -1.848175E+06 -3.791494E+05 -4.469678E+04 -7.786187E+05  1.728132E-10 -1.417898E-10
        95  11 -1.719226E+06 -2.975365E+05 -8.609944E+03 -7.083169E+05  7.531387E-10  1.853429E-10
        95  12 -1.541131E+06 -2.653216E+05  2.666046E+04 -6.946787E+05 -3.000190E-10 -2.216091E-10
        95  13 -1.667921E+06 -3.122329E+05 -1.596192E+03 -7.292929E+05  9.799302E-10 -4.708389E-11
        95  14 -1.692484E+06 -2.875447E+05 -2.127674E+03 -7.009511E+05  1.292817E-09 -1.969258E-10
        95  15 -1.667921E+06 -3.122565E+05 -3.475026E+03 -7.292825E+05 -1.981709E-09 -3.160608E-10
        95  16 -1.487635E+06 -2.453136E+05  4.150235E+04 -6.799538E+05  3.463214E-10  5.419891E-10
        95  17 -1.665740E+06 -2.775527E+05  4.354626E+03 -6.935849E+05 -1.378749E-09 -4.501453E-10
        95  18 -1.794697E+06 -3.591910E+05 -3.361223E+04 -7.638804E+05 -1.001511E-09 -4.679010E-10
        95  19 -1.848175E+06 -3.791492E+05 -4.469640E+04 -7.786186E+05 -4.067615E+03 -1.355882E+04
        95  20 -1.719226E+06 -2.975365E+05 -8.609763E+03 -7.083169E+05 -8.538301E+03 -4.837691E+03
        95  21 -1.541131E+06 -2.653216E+05  2.666081E+04 -6.946787E+05 -1.300824E+04  3.881380E+03
        95  22 -1.667921E+06 -3.122328E+05 -1.595953E+03 -7.292929E+05  3.699300E+03 -1.065384E+04
        95  23 -1.692484E+06 -2.875447E+05 -2.127666E+03 -7.009511E+05 -7.722326E+02 -1.933094E+03
        95  24 -1.667921E+06 -3.122564E+05 -3.474888E+03 -7.292825E+05 -5.242715E+03  6.785624E+03
        95  25 -1.487634E+06 -2.453135E+05  4.150271E+04 -6.799538E+05  1.146872E+04 -7.747928E+03
        95  26 -1.665740E+06 -2.775527E+05  4.354720E+03 -6.935849E+05  6.994287E+03  9.716744E+02
        95  27 -1.794697E+06 -3.591909E+05 -3.361204E+04 -7.638803E+05  2.521208E+03  9.689272E+03
        96   1 -1.410554E+06 -2.166333E+05  5.830455E+04 -6.592372E+05  1.566737E+04 -8.942821E+03
        96   2 -1.282029E+06 -1.352225E+05  9.123567E+04 -5.889449E+05  2.299299E+04 -1.654384E+04
        96   3 -1.105218E+06 -1.039918E+05  1.209740E+05 -5.749081E+05  3.028376E+04 -2.403244E+04
        96   4 -1.668089E+06 -3.121394E+05 -4.517331E+03 -7.293085E+05  7.887208E+03 -1.185328E+04
        96   5 -1.692306E+06 -2.875569E+05 -8.038282E+03 -7.009910E+05  1.530387E+04 -1.942273E+04
        96   6 -1.668277E+06 -3.131757E+05 -1.482444E+04 -7.289397E+05  2.268464E+04 -2.688003E+04
        96   7 -1.925554E+06 -4.076396E+05 -6.734292E+04 -7.993524E+05  1.106843E+02 -1.476238E+04
        96   8 -2.102413E+06 -4.398784E+05 -1.073235E+05 -8.129688E+05  7.620368E+03 -2.229952E+04
        96   9 -2.231020E+06 -5.223373E+05 -1.506457E+05 -8.828436E+05  1.509304E+04 -2.972480E+04
        96  10 -1.410554E+06 -2.166335E+05  5.830394E+04 -6.592371E+05 -5.104390E-10 -3.962858E-10
        96  11 -1.282029E+06 -1.352230E+05  9.123416E+04 -5.889446E+05  2.941401E-09  1.212957E-09
        96  12 -1.105219E+06 -1.039927E+05  1.209712E+05 -5.749075E+05  6.588885E-09  3.493736E-09
        96  13 -1.668089E+06 -3.121395E+05 -4.517712E+03 -7.293085E+05  1.040292E-10 -4.996302E-10
        96  14 -1.692306E+06 -2.875573E+05 -8.039430E+03 -7.009908E+05 -7.908579E-10  2.823392E-10
        96  15 -1.668278E+06 -3.131766E+05 -1.482677E+04 -7.289392E+05  1.177896E-09  1.734043E-09
        96  16 -1.925554E+06 -4.076398E+05 -6.734332E+04 -7.993523E+05 -6.709448E-10 -4.809309E-10
        96  17 -2.102413E+06 -4.398789E+05 -1.073246E+05 -8.129687E+05 -3.766077E-09 -1.655552E-09
        96  18 -2.231021E+06 -5.223383E+05 -1.506477E+05 -8.828433E+05 -3.772345E-09  4.859654E-10
        96  19 -1.410554E+06 -2.166333E+05  5.830455E+04 -6.592372E+05 -1.566737E+04  8.942821E+03
        96  20 -1.282029E+06 -1.352225E+05  9.123567E+04 -5.889449E+05 -2.299299E+04  1.654384E+04
        96  21 -1.105218E+06 -1.039918E+05  1.209740E+05 -5.749081E+05 -3.028376E+04  2.403244E+04
        96  22 -1.668089E+06 -3.121394E+05 -4.517331E+03 -7.293085E+05 -7.887208E+03  1.185328E+04
        96  23 -1.692306E+06 -2.875569E+05 -8.038282E+03 -7.009910E+05 -1.530387E+04  1.942273E+04
        96  24 -1.668277E+06 -3.131757E+05 -1.482444E+04 -7.289397E+05 -2.268464E+04  2.688003E+04
        96  25 -1.925554E+06 -4.076396E+05 -6.734292E+04 -7.993524E+05 -1.106843E+02  1.476238E+04
        96  26 -2.102413E+06 -4.398784E+05 -1.073235E+05 -8.129688E+05 -7.620368E+03  2.229952E+04
        96  27 -2.231020E+06 -5.223373E+05 -1.506457E+05 -8.828436E+05 -1.509304E+04  2.972480E+04
        97   1 -9.748885E+05 -5.596215E+04  1.486278E+05 -5.426732E+05  3.557510E+04 -2.824476E+04
        97   2 -8.488496E+05  2.750307E+04  1.691452E+05 -4.687470E+05  5.501501E+04 -3.072114E+04
        97   3 -6.822835E+05  4.622917E+04  1.732379E+05 -4.465419E+05  7.376110E+04 -3.130423E+04
        97   4 -1.669402E+06 -3.114769E+05 -1.946005E+04 -7.298257E+05  2.745946E+04 -3.128809E+04
        97   5 -1.690705E+06 -2.871935E+05 -3.507232E+04 -7.008841E+05  4.848629E+04 -3.317495E+04
        97   6 -1.671832E+06 -3.279897E+05 -6.838796E+04 -7.236795E+05  6.881459E+04 -3.316897E+04
        97   7 -2.363442E+06 -5.669626E+05 -1.875843E+05 -9.167897E+05  1.935369E+04 -3.432782E+04
        97   8 -2.531862E+06 -6.018401E+05 -2.393431E+05 -9.327343E+05  4.196718E+04 -3.562513E+04
        97   9 -2.660411E+06 -7.021329E+05 -3.100876E+05 -1.000412E+06  6.387663E+04 -3.503040E+04
        97  10 -9.748901E+05 -5.596334E+04  1.486239E+05 -5.426724E+05 -2.736125E-09 -1.065250E-10
        97  11 -8.488531E+05  2.750124E+04  1.691378E+05 -4.687457E+05 -4.644373E-09 -1.522995E-09
        97  12 -6.822896E+05  4.622666E+04  1.732258E+05 -4.465401E+05  1.853982E-09  3.714391E-10
        97  13 -1.669403E+06 -3.114782E+05 -1.946330E+04 -7.298250E+05 -8.913643E-11  1.948134E-09
        97  14 -1.690708E+06 -2.871953E+05 -3.507881E+04 -7.008828E+05  4.855468E-10 -1.628567E-10
        97  15 -1.671837E+06 -3.279921E+05 -6.839894E+04 -7.236777E+05  2.586024E-09  2.375967E-10
        97  16 -2.363443E+06 -5.669640E+05 -1.875872E+05 -9.167891E+05  5.435220E-09  3.756644E-09
        97  17 -2.531864E+06 -6.018420E+05 -2.393488E+05 -9.327331E+05  2.800868E-09  1.339874E-09
        97  18 -2.660415E+06 -7.021354E+05 -3.100976E+05 -1.000410E+06  3.014802E-09  2.916003E-10
        97  19 -9.748885E+05 -5.596215E+04  1.486278E+05 -5.426732E+05 -3.557510E+04  2.824476E+04
        97  20 -8.488496E+05  2.750307E+04  1.691452E+05 -4.687470E+05 -5.501501E+04  3.072114E+04
        97  21 -6.822835E+05  4.622917E+04  1.732379E+05 -4.465419E+05 -7.376110E+04  3.130423E+04
        97  22 -1.669402E+06 -3.114769E+05 -1.946005E+04 -7.298257E+05 -2.745946E+04  3.128809E+04
        97  23 -1.690705E+06 -2.871935E+05 -3.507232E+04 -7.008841E+05 -4.848629E+04  3.317495E+04
        97  24 -1.671832E+06 -3.279897E+05 -6.838796E+04 -7.236795E+05 -6.881459E+04  3.316897E+04
        97  25 -2.363442E+06 -5.669626E+05 -1.875843E+05 -9.167897E+05 -1.935369E+04  3.432782E+04
        97  26 -2.531862E+06 -6.018401E+05 -2.393431E+05 -9.327343E+05 -4.196718E+04  3.562513E+04
        97  27 -2.660411E+06 -7.021329E+05 -3.100876E+05 -1.000412E+06 -6.387663E+04  3.503040E+04
        98   1 -5.340394E+05  8.858416E+04  1.849106E+05 -4.636243E+05  1.004137E+05 -3.172877E+04
        98   2 -4.352473E+05  2.219530E+05  1.593266E+05 -3.151705E+05  1.471832E+05 -1.372968E+04
        98   3 -3.928088E+05  5.221201E+04  2.841417E+04 -1.513098E+05  1.786251E+05  4.500422E+04
        98   4 -1.683354E+06 -3.010230E+05 -8.620729E+04 -7.394071E+05  8.325420E+04 -3.817785E+04
        98   5 -1.670853E+06 -2.803422E+05 -1.517800E+05 -6.965845E+05  1.646365E+05 -7.185497E+03
        98   6 -1.721813E+06 -5.700124E+05 -3.503303E+05 -6.383250E+05  2.306628E+05  6.456285E+04
        98   7 -2.831357E+06 -6.905903E+05 -3.574145E+05 -1.014748E+06  6.612938E+04 -4.461658E+04
        98   8 -2.904941E+06 -7.824524E+05 -4.630064E+05 -1.077278E+06  1.820517E+05 -6.586114E+02
        98   9 -3.049064E+06 -1.191833E+06 -7.292318E+05 -1.124302E+06  2.825780E+05  8.404977E+04
        98  10 -5.340505E+05  8.858037E+04  1.848898E+05 -4.636218E+05  3.453469E-09  9.579060E-10
        98  11 -4.352706E+05  2.219470E+05  1.592855E+05 -3.151689E+05  6.546550E-10  2.036965E-10
        98  12 -3.928437E+05  5.220126E+04  2.835036E+04 -1.513163E+05  3.884337E-10 -6.574130E-10
        98  13 -1.683362E+06 -3.010264E+05 -8.622307E+04 -7.394046E+05  2.600444E-09  6.411396E-10
        98  14 -1.670882E+06 -2.803495E+05 -1.518312E+05 -6.965836E+05  1.734602E-09 -2.947878E-10
        98  15 -1.721872E+06 -5.700313E+05 -3.504385E+05 -6.383370E+05 -8.825494E-10  2.567200E-10
        98  16 -2.831362E+06 -6.905936E+05 -3.574265E+05 -1.014745E+06  1.887658E-09  1.198480E-10
        98  17 -2.904977E+06 -7.824613E+05 -4.630689E+05 -1.077278E+06 -1.982533E-09  4.071923E-10
        98  18 -3.049152E+06 -1.191862E+06 -7.293960E+05 -1.124321E+06 -2.661274E-11 -3.454626E-11
        98  19 -5.340394E+05  8.858416E+04  1.849106E+05 -4.636243E+05 -1.004137E+05  3.172877E+04
        98  20 -4.352473E+05  2.219530E+05  1.593266E+05 -3.151705E+05 -1.471832E+05  1.372968E+04
        98  21 -3.928088E+05  5.221201E+04  2.841417E+04 -1.513098E+05 -1.786251E+05 -4.500422E+04
        98  22 -1.683354E+06 -3.010230E+05 -8.620729E+04 -7.394071E+05 -8.325420E+04  3.817785E+04
        98  23 -1.670853E+06 -2.803422E+05 -1.517800E+05 -6.965845E+05 -1.646365E+05  7.185497E+03
        98  24 -1.721813E+06 -5.700124E+05 -3.503303E+05 -6.383250E+05 -2.306628E+05 -6.456285E+04
        98  25 -2.831357E+06 -6.905903E+05 -3.574145E+05 -1.014748E+06 -6.612938E+04  4.461658E+04
        98  26 -2.904941E+06 -7.824524E+05 -4.630064E+05 -1.077278E+06 -1.820517E+05  6.586114E+02
        98  27 -3.049064E+06 -1.191833E+06 -7.292318E+05 -1.124302E+06 -2.825780E+05 -8.404977E+04
        99   1 -1.249102E+06 -2.076318E+05 -1.774128E+05 -1.622039E+04  4.255690E+04  1.688422E+04
        99   2 -1.157352E+06 -2.871012E+05 -2.011377E+05 -2.886559E+04  4.112806E+04  5.305667E+04
        99   3 -1.039724E+06 -2.663614E+05 -1.987757E+05 -8.342303E+04  3.975328E+04  5.579624E+04
        99   4  2.853233E+04  1.097943E+05  1.321996E+05 -6.708583E+04  9.084901E+04  1.695382E+04
        99   5  1.301162E+04 -6.555360E+02  6.016641E+04 -4.605959E+04  5.892739E+04  5.306942E+04
        99   6  2.860198E+04 -5.705338E+03  3.535941E+04 -6.693825E+04  2.706228E+04  5.578030E+04
        99   7  1.307671E+06  4.271119E+05  4.417047E+05 -1.180569E+05  1.392402E+05  1.701543E+04
        99   8  1.184655E+06  2.856983E+05  3.213858E+05 -6.328673E+04  7.675989E+04  5.308118E+04
        99   9  1.097998E+06  2.548755E+05  2.694260E+05 -5.042486E+04  1.434966E+04  5.576370E+04
        99  10 -1.249104E+06 -2.076326E+05 -1.774168E+05 -1.622097E+04 -6.746972E-10  2.072879E-10
        99  11 -1.157354E+06 -2.871047E+05 -2.011462E+05 -2.886735E+04  3.241291E-10 -8.332310E-10
        99  12 -1.039726E+06 -2.663652E+05 -1.987845E+05 -8.342482E+04 -1.178381E-09 -1.109036E-09
        99  13  2.852339E+04  1.097918E+05  1.321836E+05 -6.708707E+04  2.349306E-10 -3.931200E-10
        99  14  1.300714E+04 -6.594926E+02  6.015460E+04 -4.606211E+04 -6.419746E-10 -1.934640E-10
        99  15  2.860036E+04 -5.708876E+03  3.535219E+04 -6.693947E+04 -1.156917E-09 -1.153609E-09
        99  16  1.307650E+06  4.271064E+05  4.416678E+05 -1.180588E+05 -5.205309E-10  6.978538E-10
        99  17  1.184648E+06  2.856937E+05  3.213695E+05 -6.329001E+04  3.300600E-10 -5.059444E-10
        99  18  1.097997E+06  2.548721E+05  2.694197E+05 -5.042551E+04 -1.684885E-09 -9.995544E-10
        99  19 -1.249102E+06 -2.076318E+05 -1.774128E+05 -1.622039E+04 -4.255690E+04 -1.688422E+04
        99  20 -1.157352E+06 -2.871012E+05 -2.011377E+05 -2.886559E+04 -4.112806E+04 -5.305667E+04
        99  21 -1.039724E+06 -2.663614E+05 -1.987757E+05 -8.342303E+04 -3.975328E+04 -5.579624E+04
        99  22  2.853233E+04  1.097943E+05  1.321996E+05 -6.708583E+04 -9.084901E+04 -1.695382E+04
        99  23  1.301162E+04 -6.555360E+02  6.016641E+04 -4.605959E+04 -5.892739E+04 -5.306942E+04
        99  24  2.860198E+04 -5.705338E+03  3.535941E+04 -6.693825E+04 -2.706228E+04 -5.578030E+04
        99  25  1.307671E+06  4.271119E+05  4.417047E+05 -1.180569E+05 -1.392402E+05 -1.701543E+04
        99  26  1.184655E+06  2.856983E+05  3.213858E+05 -6.328673E+04 -7.675989E+04 -5.308118E+04
        99  27  1.097998E+06  2.548755E+05  2.694260E+05 -5.042486E+04 -1.434966E+04 -5.576370E+04
       100   1 -9.600841E+05 -2.341131E+05 -1.883196E+05 -6.563992E+04  2.502754E+04  4.941076E+04
       100   2 -8.571009E+05 -2.146213E+05 -1.775242E+05 -4.541375E+04  1.878735E+04  4.536363E+04
       100   3 -7.515150E+05 -1.892847E+05 -1.611267E+05 -6.841857E+04  1.254082E+04  3.982362E+04
       100   4  2.235532E+04  5.767516E+03  2.809696E+04 -6.727054E+04  2.204775E+04  4.940323E+04
       100   5  2.096973E+04 -3.786092E+02  1.517165E+04 -4.565598E+04  1.443657E+04  4.535758E+04
       100   6  2.240891E+04 -4.469854E+02  8.793568E+03 -6.726841E+04  6.820062E+03  3.982004E+04
       100   7  1.005698E+06  2.455834E+05  2.444544E+05 -6.890386E+04  1.906328E+04  4.939573E+04
       100   8  8.997625E+05  2.138125E+05  2.078206E+05 -4.589859E+04  1.007970E+04  4.535155E+04
       100   9  7.968937E+05  1.883507E+05  1.786775E+05 -6.611677E+04  1.092247E+03  3.981644E+04
       100  10 -9.600854E+05 -2.341159E+05 -1.883253E+05 -6.564091E+04 -9.872604E-10 -7.087447E-10
       100  11 -8.571019E+05 -2.146236E+05 -1.775287E+05 -4.541443E+04 -1.353811E-09  4.739096E-10
       100  12 -7.515156E+05 -1.892865E+05 -1.611300E+05 -6.841897E+04  4.039940E-10 -1.450697E-10
       100  13  2.235414E+04  5.764765E+03  2.809146E+04 -6.727142E+04 -2.060259E-09 -9.985500E-10
       100  14  2.096895E+04 -3.808744E+02  1.516740E+04 -4.565651E+04 -1.100326E-09  6.197491E-10
       100  15  2.240843E+04 -4.487006E+02  8.790501E+03 -6.726863E+04 -1.347150E-09 -9.931115E-12
       100  16  1.005697E+06  2.455807E+05  2.444491E+05 -6.890462E+04  1.162538E-10 -4.164904E-10
       100  17  8.997618E+05  2.138102E+05  2.078165E+05 -4.589896E+04 -2.509980E-10  4.107429E-10
       100  18  7.968933E+05  1.883490E+05  1.786745E+05 -6.611680E+04 -9.060749E-10  6.502885E-11
       100  19 -9.600841E+05 -2.341131E+05 -1.883196E+05 -6.563992E+04 -2.502754E+04 -4.941076E+04
       100  20 -8.571009E+05 -2.146213E+05 -1.775242E+05 -4.541375E+04 -1.878735E+04 -4.536363E+04
       100  21 -7.515150E+05 -1.892847E+05 -1.611267E+05 -6.841857E+04 -1.254082E+04 -3.982362E+04
       100  22  2.235532E+04  5.767516E+03  2.809696E+04 -6.727054E+04 -2.204775E+04 -4.940323E+04
       100  23  2.096973E+04 -3.786092E+02  1.517165E+04 -4.565598E+04 -1.443657E+04 -4.535758E+04
       100  24  2.240891E+04 -4.469854E+02  8.793568E+03 -6.726841E+04 -6.820062E+03 -3.982004E+04
       100  25  1.005698E+06  2.455834E+05  2.444544E+05 -6.890386E+04 -1.906328E+04 -4.939573E+04
       100  26  8.997625E+05  2.138125E+05  2.078206E+05 -4.589859E+04 -1.007970E+04 -4.535155E+04
       100  27  7.968937E+05  1.883507E+05  1.786775E+05 -6.611677E+04 -1.092247E+03 -3.981644E+04
       101   1 -6.668238E+05 -1.677559E+05 -1.439899E+05 -6.733254E+04  1.073925E+04  3.624436E+04
       101   2 -5.627754E+05 -1.426558E+05 -1.242856E+05 -4.563484E+04  8.905894E+03  3.040520E+04
       101   3 -4.582868E+05 -1.171770E+05 -1.032701E+05 -6.721122E+04  7.067823E+03  2.449982E+04
       101   4  2.190717E+04  1.901334E+02  6.738538E+03 -6.727889E+04  5.452167E+03  3.624219E+04
       101   5  2.170494E+04 -9.857047E+01  3.827300E+03 -4.564314E+04  3.556156E+03  3.040484E+04
       101   6  2.194293E+04  2.522848E+00  2.270019E+03 -6.727901E+04  1.655729E+03  2.450135E+04
       101   7  7.110826E+05  1.681045E+05  1.574383E+05 -6.722513E+04  1.592879E+02  3.624002E+04
       101   8  6.065052E+05  1.424358E+05  1.319196E+05 -4.565142E+04 -1.798560E+03  3.040448E+04
       101   9  5.023885E+05  1.171666E+05  1.077961E+05 -6.734681E+04 -3.760504E+03  2.450287E+04
       101  10 -6.668243E+05 -1.677573E+05 -1.439926E+05 -6.733285E+04 -6.877381E-10 -5.672164E-10
       101  11 -5.627757E+05 -1.426568E+05 -1.242875E+05 -4.563506E+04 -1.906514E-09 -5.215927E-10
       101  12 -4.582870E+05 -1.171776E+05 -1.032713E+05 -6.721136E+04  8.724979E-10 -1.229459E-10
       101  13  2.190678E+04  1.887149E+02  6.736013E+03 -6.727904E+04  1.073856E-09 -3.256322E-10
       101  14  2.170468E+04 -9.956658E+01  3.825538E+03 -4.564323E+04  9.263743E-12 -2.870559E-10
       101  15  2.194277E+04  1.877465E+00  2.268885E+03 -6.727904E+04 -1.907552E-09  1.630657E-10
       101  16  7.110823E+05  1.681031E+05  1.574359E+05 -6.722514E+04  4.075276E-10 -2.933598E-10
       101  17  6.065050E+05  1.424348E+05  1.319178E+05 -4.565138E+04  1.354006E-09 -3.529742E-10
       101  18  5.023884E+05  1.171659E+05  1.077950E+05 -6.734674E+04 -1.053786E-09 -7.448317E-10
       101  19 -6.668238E+05 -1.677559E+05 -1.439899E+05 -6.733254E+04 -1.073925E+04 -3.624436E+04
       101  20 -5.627754E+05 -1.426558E+05 -1.242856E+05 -4.563484E+04 -8.905894E+03 -3.040520E+04
       101  21 -4.582868E+05 -1.171770E+05 -1.032701E+05 -6.721122E+04 -7.067823E+03 -2.449982E+04
       101  22  2.190717E+04  1.901334E+02  6.738538E+03 -6.727889E+04 -5.452167E+03 -3.624219E+04
       101  23  2.170494E+04 -9.857047E+01  3.827300E+03 -4.564314E+04 -3.556156E+03 -3.040484E+04
       101  24  2.194293E+04  2.522848E+00  2.270019E+03 -6.727901E+04 -1.655729E+03 -2.450135E+04
       101  25  7.110826E+05  1.681045E+05  1.574383E+05 -6.722513E+04 -1.592879E+02 -3.624002E+04
       101  26  6.065052E+05  1.424358E+05  1.319196E+05 -4.565142E+04  1.798560E+03 -3.040448E+04
       101  27  5.023885E+05  1.171666E+05  1.077961E+05 -6.734681E+04  3.760504E+03 -2.450287E+04
       102   1 -3.731892E+05 -9.625025E+04 -8.452138E+04 -6.716533E+04  6.682398E+03  2.104730E+04
       102   2 -2.689489E+05 -7.088818E+04 -6.258890E+04 -4.553489E+04  6.121090E+03  1.512979E+04
       102   3 -1.646429E+05 -4.545236E+04 -4.028176E+04 -6.717108E+04  5.557493E+03  9.209551E+03
       102   4  2.187470E+04  3.706890E+01  1.766287E+03 -6.727760E+04  1.289360E+03  2.104967E+04
       102   5  2.185491E+04  2.664849E+01  1.137082E+03 -4.564490E+04  7.248755E+02  1.513306E+04
       102   6  2.189250E+04  9.153727E+01  8.852879E+02 -6.727759E+04  1.581941E+02  9.213759E+03
       102   7  4.170849E+05  9.631400E+04  8.804465E+04 -6.738992E+04 -4.107069E+03  2.105204E+04
       102   8  3.127379E+05  7.093585E+04  6.485804E+04 -4.575495E+04 -4.673836E+03  1.513633E+04
       102   9  2.084605E+05  4.563311E+04  4.205030E+04 -6.738413E+04 -5.242708E+03  9.217970E+03
       102  10 -3.731893E+05 -9.625073E+04 -8.452230E+04 -6.716545E+04 -1.686810E-09  1.466343E-10
       102  11 -2.689490E+05 -7.088844E+04 -6.258940E+04 -4.553497E+04  5.025248E-11  2.982108E-10
       102  12 -1.646430E+05 -4.545246E+04 -4.028198E+04 -6.717112E+04  2.285026E-09  1.627312E-10
       102  13  2.187458E+04  3.659264E+01  1.765451E+03 -6.727763E+04 -1.138837E-09 -3.582716E-10
       102  14  2.185485E+04  2.640243E+01  1.136650E+03 -4.564491E+04 -3.194408E-09  1.943632E-10
       102  15  2.189247E+04  9.144610E+01  8.851283E+02 -6.727760E+04  7.761154E-10 -6.111973E-10
       102  16  4.170848E+05  9.631352E+04  8.804378E+04 -6.738985E+04 -4.039246E-10 -4.943569E-10
       102  17  3.127378E+05  7.093559E+04  6.485757E+04 -4.575489E+04 -2.003070E-09 -1.619677E-10
       102  18  2.084604E+05  4.563301E+04  4.205009E+04 -6.738409E+04 -1.415274E-09 -1.266780E-09
       102  19 -3.731892E+05 -9.625025E+04 -8.452138E+04 -6.716533E+04 -6.682398E+03 -2.104730E+04
       102  20 -2.689489E+05 -7.088818E+04 -6.258890E+04 -4.553489E+04 -6.121090E+03 -1.512979E+04
       102  21 -1.646429E+05 -4.545236E+04 -4.028176E+04 -6.717108E+04 -5.557493E+03 -9.209551E+03
       102  22  2.187470E+04  3.706890E+01  1.766287E+03 -6.727760E+04 -1.289360E+03 -2.104967E+04
       102  23  2.185491E+04  2.664849E+01  1.137082E+03 -4.564490E+04 -7.248755E+02 -1.513306E+04
       102  24  2.189250E+04  9.153727E+01  8.852879E+02 -6.727759E+04 -1.581941E+02 -9.213759E+03
       102  25  4.170849E+05  9.631400E+04  8.804465E+04 -6.738992E+04  4.107069E+03 -2.105204E+04
       102  26  3.127379E+05  7.093585E+04  6.485804E+04 -4.575495E+04  4.673836E+03 -1.513633E+04
       102  27  2.084605E+05  4.563311E+04  4.205030E+04 -6.738413E+04  5.242708E+03 -9.217970E+03
       103   1 -7.946656E+04 -2.456116E+04 -2.105485E+04 -6.721881E+04  5.395957E+03  5.763283E+03
       103   2  2.481119E+04  7.710476E+02  1.655698E+03 -4.562342E+04  4.888806E+03 -1.558951E+02
       103   3  1.291082E+05  2.618089E+04  2.469635E+04 -6.729381E+04  4.381589E+03 -6.072847E+03
       103   4  2.188688E+04  9.325144E+01  8.597380E+02 -6.727768E+04 -3.443702E+00  5.767775E+03
       103   5  2.188321E+04  5.714898E+01  1.013856E+03 -4.564478E+04 -5.090264E+02 -1.514345E+02
       103   6  2.188670E+04  9.866142E+01  1.496922E+03 -6.727767E+04 -1.014593E+03 -6.068377E+03
       103   7  1.232500E+05  2.474700E+04  2.277382E+04 -6.733656E+04 -5.403714E+03  5.772267E+03
       103   8  1.895529E+04 -6.567346E+02  3.721226E+02 -4.566614E+04 -5.906834E+03 -1.469735E+02
       103   9 -8.532396E+04 -2.598431E+04 -2.170307E+04 -6.726153E+04 -6.409856E+03 -6.063907E+03
       103  10 -7.946660E+04 -2.456120E+04 -2.105496E+04 -6.721884E+04 -1.095501E-09  8.794025E-10
       103  11  2.481116E+04  7.710412E+02  1.655653E+03 -4.562342E+04 -4.134393E-11  1.988049E-09
       103  12  1.291082E+05  2.618085E+04  2.469624E+04 -6.729379E+04  1.415601E-09 -3.348983E-10
       103  13  2.188687E+04  9.321572E+01  8.596755E+02 -6.727768E+04 -9.735902E-11 -5.760591E-11
       103  14  2.188321E+04  5.714889E+01  1.013855E+03 -4.564478E+04  5.516816E-11 -6.420497E-11
       103  15  2.188669E+04  9.862160E+01  1.496851E+03 -6.727767E+04 -8.463952E-10  1.071708E-10
       103  16  1.232500E+05  2.474696E+04  2.277371E+04 -6.733654E+04  1.729652E-09 -6.548133E-10
       103  17  1.895526E+04 -6.567440E+02  3.720570E+02 -4.566614E+04 -1.357687E-09 -5.437016E-11
       103  18 -8.532401E+04 -2.598436E+04 -2.170322E+04 -6.726156E+04 -2.760661E-09 -1.114702E-10
       103  19 -7.946656E+04 -2.456116E+04 -2.105485E+04 -6.721881E+04 -5.395957E+03 -5.763283E+03
       103  20  2.481119E+04  7.710476E+02  1.655698E+03 -4.562342E+04 -4.888806E+03  1.558951E+02
       103  21  1.291082E+05  2.618089E+04  2.469635E+04 -6.729381E+04 -4.381589E+03  6.072847E+03
       103  22  2.188688E+04  9.325144E+01  8.597380E+02 -6.727768E+04  3.443702E+00 -5.767775E+03
       103  23  2.188321E+04  5.714898E+01  1.013856E+03 -4.564478E+04  5.090264E+02  1.514345E+02
       103  24  2.188670E+04  9.866142E+01  1.496922E+03 -6.727767E+04  1.014593E+03  6.068377E+03
       103  25  1.232500E+05  2.474700E+04  2.277382E+04 -6.733656E+04  5.403714E+03 -5.772267E+03
       103  26  1.895529E+04 -6.567346E+02  3.721226E+02 -4.566614E+04  5.906834E+03  1.469735E+02
       103  27 -8.532396E+04 -2.598431E+04 -2.170307E+04 -6.726153E+04  6.409856E+03  6.063907E+03
       104   1  2.143628E+05  4.704196E+04  4.434460E+04 -6.729724E+04  4.087472E+03 -9.522542E+03
       104   2  3.185377E+05  7.233468E+04  6.818115E+04 -4.569833E+04  2.463227E+03 -1.542753E+04
       104   3  4.229886E+05  9.797883E+04  9.315240E+04 -6.736421E+04  8.409816E+02 -2.128052E+04
       104   4  2.193662E+04  7.268397E+01  1.896904E+03 -6.727778E+04 -1.324218E+03 -9.518353E+03
       104   5  2.179865E+04 -3.116053E+00  3.170695E+03 -4.564466E+04 -2.900749E+03 -1.542433E+04
       104   6  2.191847E+04  2.650652E+02  5.546913E+03 -6.727758E+04 -4.475015E+03 -2.127826E+04
       104   7 -1.704549E+05 -4.689907E+04 -4.055296E+04 -6.725832E+04 -6.734251E+03 -9.514165E+03
       104   8 -2.748579E+05 -7.234677E+04 -6.184500E+04 -4.559099E+04 -8.262194E+03 -1.542113E+04
       104   9 -3.790011E+05 -9.745940E+04 -8.206818E+04 -6.719098E+04 -9.787622E+03 -2.127600E+04
       104  10  2.143627E+05  4.704186E+04  4.434440E+04 -6.729721E+04  4.397054E-10 -1.049660E-09
       104  11  3.185376E+05  7.233442E+04  6.818069E+04 -4.569830E+04 -1.203832E-09 -6.093346E-10
       104  12  4.229885E+05  9.797834E+04  9.315155E+04 -6.736420E+04 -6.600857E-10  1.423202E-12
       104  13  2.193660E+04  7.258621E+01  1.896730E+03 -6.727779E+04 -9.323629E-11 -9.271060E-11
       104  14  2.179858E+04 -3.373792E+00  3.170232E+03 -4.564469E+04 -1.033357E-09 -3.458317E-10
       104  15  2.191832E+04  2.645736E+02  5.546025E+03 -6.727766E+04 -2.175404E-09 -1.230348E-10
       104  16 -1.704550E+05 -4.689918E+04 -4.055322E+04 -6.725837E+04 -7.942915E-10  6.595574E-11
       104  17 -2.748581E+05 -7.234705E+04 -6.184557E+04 -4.559109E+04 -6.838535E-11  1.300489E-09
       104  18 -3.790013E+05 -9.745991E+04 -8.206921E+04 -6.719115E+04  3.254554E-10  4.280827E-10
       104  19  2.143628E+05  4.704196E+04  4.434460E+04 -6.729724E+04 -4.087472E+03  9.522542E+03
       104  20  3.185377E+05  7.233468E+04  6.818115E+04 -4.569833E+04 -2.463227E+03  1.542753E+04
       104  21  4.229886E+05  9.797883E+04  9.315240E+04 -6.736421E+04 -8.409816E+02  2.128052E+04
       104  22  2.193662E+04  7.268397E+01  1.896904E+03 -6.727778E+04  1.324218E+03  9.518353E+03
       104  23  2.179865E+04 -3.116053E+00  3.170695E+03 -4.564466E+04  2.900749E+03  1.542433E+04
       104  24  2.191847E+04  2.650652E+02  5.546913E+03 -6.727758E+04  4.475015E+03  2.127826E+04
       104  25 -1.704549E+05 -4.689907E+04 -4.055296E+04 -6.725832E+04  6.734251E+03  9.514165E+03
       104  26 -2.748579E+05 -7.234677E+04 -6.184500E+04 -4.559099E+04  8.262194E+03  1.542113E+04
       104  27 -3.790011E+05 -9.745940E+04 -8.206818E+04 -6.719098E+04  9.787622E+03  2.127600E+04
       105   1  5.086600E+05  1.183393E+05  1.140323E+05 -6.651832E+04  5.353948E+01 -2.482765E+04
       105   2  6.118345E+05  1.437801E+05  1.419960E+05 -4.616690E+04 -7.283187E+03 -3.044170E+04
       105   3  7.173701E+05  1.744214E+05  1.760523E+05 -6.903962E+04 -1.461676E+04 -3.488912E+04
       105   4  2.232624E+04 -2.560114E+02  7.229655E+03 -6.726925E+04 -5.602627E+03 -2.482608E+04
       105   5  2.122341E+04 -2.016112E+02  1.247653E+04 -4.565525E+04 -1.186936E+04 -3.044238E+04
       105   6  2.229018E+04  4.871784E+03  2.307818E+04 -6.726773E+04 -1.813175E+04 -3.489153E+04
       105   7 -4.637863E+05 -1.188671E+05 -9.958726E+04 -6.801954E+04 -1.125442E+04 -2.482449E+04
       105   8 -5.690614E+05 -1.442066E+05 -1.170641E+05 -4.514406E+04 -1.645123E+04 -3.044307E+04
       105   9 -6.723383E+05 -1.647102E+05 -1.299254E+05 -6.549781E+04 -2.164285E+04 -3.489397E+04
       105  10  5.086598E+05  1.183387E+05  1.140311E+05 -6.651832E+04  2.795708E-10  4.033191E-11
       105  11  6.118342E+05  1.437791E+05  1.419942E+05 -4.616708E+04  1.024842E-09 -1.032478E-09
       105  12  7.173695E+05  1.744200E+05  1.760496E+05 -6.904003E+04 -1.017829E-09  1.490612E-10
       105  13  2.232605E+04 -2.566817E+02  7.228437E+03 -6.726936E+04 -2.212778E-09  8.449382E-12
       105  14  2.122301E+04 -2.026442E+02  1.247452E+04 -4.565554E+04  1.623290E-09 -3.284051E-10
       105  15  2.228950E+04  4.870388E+03  2.307527E+04 -6.726824E+04  2.662815E-10 -2.196057E-10
       105  16 -4.637866E+05 -1.188678E+05 -9.958866E+04 -6.801976E+04 -1.392503E-09  6.868415E-12
       105  17 -5.690620E+05 -1.442077E+05 -1.170663E+05 -4.514446E+04 -1.987849E-09 -4.597789E-10
       105  18 -6.723391E+05 -1.647116E+05 -1.299286E+05 -6.549841E+04 -1.090323E-09 -4.208210E-10
       105  19  5.086600E+05  1.183393E+05  1.140323E+05 -6.651832E+04 -5.353948E+01  2.482765E+04
       105  20  6.118345E+05  1.437801E+05  1.419960E+05 -4.616690E+04  7.283187E+03  3.044170E+04
       105  21  7.173701E+05  1.744214E+05  1.760523E+05 -6.903962E+04  1.461676E+04  3.488912E+04
       105  22  2.232624E+04 -2.560114E+02  7.229655E+03 -6.726925E+04  5.602627E+03  2.482608E+04
       105  23  2.122341E+04 -2.016112E+02  1.247653E+04 -4.565525E+04  1.186936E+04  3.044238E+04
       105  24  2.229018E+04  4.871784E+03  2.307818E+04 -6.726773E+04  1.813175E+04  3.489153E+04
       105  25 -4.637863E+05 -1.188671E+05 -9.958726E+04 -6.801954E+04  1.125442E+04  2.482449E+04
       105  26 -5.690614E+05 -1.442066E+05 -1.170641E+05 -4.514406E+04  1.645123E+04  3.044307E+04
       105  27 -6.723383E+05 -1.647102E+05 -1.299254E+05 -6.549781E+04  2.164285E+04  3.489397E+04
       106   1  8.083668E+05  1.857737E+05  2.000588E+05 -5.397941E+04 -1.113533E+04 -4.062105E+04
       106   2  8.982863E+05  2.156320E+05  2.465894E+05 -6.075475E+04 -6.118005E+04 -3.977351E+04
       106   3  1.017679E+06  3.361072E+05  3.483917E+05 -1.096727E+05 -1.112531E+05 -1.282240E+04
       106   4  2.741562E+04 -4.543946E+03  2.904041E+04 -6.701775E+04 -2.225395E+04 -4.062466E+04
       106   5  1.470876E+04 -4.079709E+02  4.942725E+04 -4.596662E+04 -4.843245E+04 -3.977497E+04
       106   6  2.736250E+04  9.027119E+04  1.085611E+05 -6.705538E+04 -7.462888E+04 -1.280954E+04
       106   7 -7.529645E+05 -1.949016E+05 -1.420144E+05 -8.003947E+04 -3.335876E+04 -4.062780E+04
       106   8 -8.681410E+05 -2.165000E+05 -1.477832E+05 -3.119978E+04 -3.570274E+04 -3.977582E+04
       106   9 -9.620525E+05 -1.556291E+05 -1.313340E+05 -2.450629E+04 -3.806279E+04 -1.279165E+04
       106  10  8.083662E+05  1.857719E+05  2.000555E+05 -5.397978E+04  1.884061E-09  8.584151E-10
       106  11  8.982818E+05  2.156293E+05  2.465794E+05 -6.075671E+04 -5.145645E-10  7.143165E-10
       106  12  1.017666E+06  3.361037E+05  3.483682E+05 -1.096738E+05  1.460671E-09  9.830455E-11
       106  13  2.741464E+04 -4.545852E+03  2.903638E+04 -6.701848E+04  3.062992E-12  4.029598E-10
       106  14  1.470581E+04 -4.102995E+02  4.941987E+04 -4.596818E+04  1.050897E-09  1.065886E-09
       106  15  2.735648E+04  9.026951E+04  1.085504E+05 -6.705615E+04 -5.005554E-10  9.070240E-11
       106  16 -7.529661E+05 -1.949036E+05 -1.420196E+05 -8.004056E+04 -3.425835E-10 -1.167329E-10
       106  17 -8.681427E+05 -2.165021E+05 -1.477886E+05 -3.120092E+04  1.164317E-09  3.768263E-10
       106  18 -9.620541E+05 -1.556297E+05 -1.313370E+05 -2.450668E+04 -5.781626E-10 -7.382164E-11
       106  19  8.083668E+05  1.857737E+05  2.000588E+05 -5.397941E+04  1.113533E+04  4.062105E+04
       106  20  8.982863E+05  2.156320E+05  2.465894E+05 -6.075475E+04  6.118005E+04  3.977351E+04
       106  21  1.017679E+06  3.361072E+05  3.483917E+05 -1.096727E+05  1.112531E+05  1.282240E+04
       106  22  2.741562E+04 -4.543946E+03  2.904041E+04 -6.701775E+04  2.225395E+04  4.062466E+04
       106  23  1.470876E+04 -4.079709E+02  4.942725E+04 -4.596662E+04  4.843245E+04  3.977497E+04
       106  24  2.736250E+04  9.027119E+04  1.085611E+05 -6.705538E+04  7.462888E+04  1.280954E+04
       106  25 -7.529645E+05 -1.949016E+05 -1.420144E+05 -8.003947E+04  3.335876E+04  4.062780E+04
       106  26 -8.681410E+05 -2.165000E+05 -1.477832E+05 -3.119978E+04  3.570274E+04  3.977582E+04
       106  27 -9.620525E+05 -1.556291E+05 -1.313340E+05 -2.450629E+04  3.806279E+04  1.279165E+04
       107   1  5.476951E+05  1.782266E+06  5.498985E+05 -4.857324E+05  1.766584E+04  1.917440E+05
       107   2  3.138498E+05  1.324541E+06  3.246079E+05 -3.826095E+05  5.270544E+04  8.762056E+04
       107   3  1.843926E+05  9.062193E+05  1.930145E+05 -3.889070E+05  4.487805E+04 -1.650744E+04
       107   4  1.416642E+05  1.441911E+05  1.583643E+05 -3.985535E+05  1.790783E+04  1.078132E+05
       107   5  2.554971E+04  1.302474E+05  7.755433E+04 -3.440325E+05  5.277293E+04  6.770549E+04
       107   6  2.854254E+03  1.445338E+05  4.615811E+04 -3.989096E+05  4.474960E+04  2.751625E+04
       107   7 -2.645296E+05 -1.491398E+06 -2.333289E+05 -3.116030E+05  1.812669E+04  2.410212E+04
       107   8 -2.628353E+05 -1.062693E+06 -1.695744E+05 -3.055297E+05  5.283804E+04  4.782792E+04
       107   9 -1.787170E+05 -6.165900E+05 -1.007179E+05 -4.088991E+05  4.461964E+04  7.148720E+04
       107  10  5.476850E+05  1.782227E+06  5.498290E+05 -4.857351E+05 -5.163836E-12 -2.331555E-08
       107  11  3.138448E+05  1.324532E+06  3.245882E+05 -3.826132E+05 -1.339044E-09  2.564986E-09
       107  12  1.843903E+05  9.062185E+05  1.930103E+05 -3.889064E+05 -2.042730E-09  2.705273E-08
       107  13  1.416607E+05  1.441786E+05  1.583419E+05 -3.985551E+05 -1.332909E-09 -6.254217E-10
       107  14  2.554548E+04  1.302418E+05  7.754047E+04 -3.440354E+05  5.611992E-10 -6.611718E-10
       107  15  2.851899E+03  1.445325E+05  4.615292E+04 -3.989106E+05  2.606404E-10  5.999517E-10
       107  16 -2.645301E+05 -1.491399E+06 -2.333306E+05 -3.116034E+05  1.146267E-10  2.374919E-08
       107  17 -2.628389E+05 -1.062696E+06 -1.695840E+05 -3.055317E+05  7.108108E-10 -1.773178E-09
       107  18 -1.787205E+05 -6.165960E+05 -1.007313E+05 -4.089016E+05  2.413237E-09 -2.707656E-08
       107  19  5.476951E+05  1.782266E+06  5.498985E+05 -4.857324E+05 -1.766584E+04 -1.917440E+05
       107  20  3.138498E+05  1.324541E+06  3.246079E+05 -3.826095E+05 -5.270544E+04 -8.762056E+04
       107  21  1.843926E+05  9.062193E+05  1.930145E+05 -3.889070E+05 -4.487805E+04  1.650744E+04
       107  22  1.416642E+05  1.441911E+05  1.583643E+05 -3.985535E+05 -1.790783E+04 -1.078132E+05
       107  23  2.554971E+04  1.302474E+05  7.755433E+04 -3.440325E+05 -5.277293E+04 -6.770549E+04
       107  24  2.854254E+03  1.445338E+05  4.615811E+04 -3.989096E+05 -4.474960E+04 -2.751625E+04
       107  25 -2.645296E+05 -1.491398E+06 -2.333289E+05 -3.116030E+05 -1.812669E+04 -2.410212E+04
       107  26 -2.628353E+05 -1.062693E+06 -1.695744E+05 -3.055297E+05 -5.283804E+04 -4.782792E+04
       107  27 -1.787170E+05 -6.165900E+05 -1.007179E+05 -4.088991E+05 -4.461964E+04 -7.148720E+04
       108   1  1.187187E+05  6.047932E+05  1.280240E+05 -4.029432E+05  2.714762E+04 -1.635784E+04
       108   2  9.406382E+03  1.656009E+05  3.302445E+04 -3.436756E+05  1.997109E+03 -3.046435E+04
       108   3 -9.264736E+04 -2.704073E+05 -5.116956E+04 -3.963176E+05 -2.325613E+04 -4.456224E+04
       108   4  7.547521E+03  1.389915E+05  3.787363E+04 -3.994124E+05  2.703312E+04  2.106713E+04
       108   5  2.751825E+03  1.375077E+05  2.784513E+04 -3.434622E+05  1.882024E+03  7.107990E+03
       108   6  5.200344E+03  1.389997E+05  2.852628E+04 -3.994197E+05 -2.337214E+04 -6.851937E+03
       108   7 -1.036358E+05 -3.265988E+05 -5.228162E+04 -3.958841E+05  2.691900E+04  5.846467E+04
       108   8 -3.902020E+03  1.094183E+05  2.267109E+04 -3.432488E+05  1.766962E+03  4.467868E+04
       108   9  1.030388E+05  5.485707E+05  1.082195E+05 -4.025237E+05 -2.348848E+04  3.088269E+04
       108  10  1.187179E+05  6.047927E+05  1.280221E+05 -4.029429E+05 -1.652485E-09  3.047850E-09
       108  11  9.406129E+03  1.655999E+05  3.302270E+04 -3.436756E+05 -1.064504E-09  3.330414E-09
       108  12 -9.264847E+04 -2.704096E+05 -5.117432E+04 -3.963185E+05  5.487013E-10  2.221307E-09
       108  13  7.546617E+03  1.389908E+05  3.787142E+04 -3.994129E+05  7.136454E-10 -7.328467E-10
       108  14  2.751807E+03  1.375077E+05  2.784503E+04 -3.434622E+05 -1.488792E-09 -7.645503E-10
       108  15  5.199744E+03  1.389995E+05  2.852517E+04 -3.994198E+05  9.786720E-11  5.668519E-10
       108  16 -1.036375E+05 -3.266027E+05 -5.228941E+04 -3.958854E+05  1.114594E-09 -2.319270E-09
       108  17 -3.902559E+03  1.094162E+05  2.266733E+04 -3.432489E+05 -1.366164E-09 -2.710741E-09
       108  18  1.030379E+05  5.485695E+05  1.082167E+05 -4.025231E+05 -1.787937E-09 -2.309635E-09
       108  19  1.187187E+05  6.047932E+05  1.280240E+05 -4.029432E+05 -2.714762E+04  1.635784E+04
       108  20  9.406382E+03  1.656009E+05  3.302445E+04 -3.436756E+05 -1.997109E+03  3.046435E+04
       108  21 -9.264736E+04 -2.704073E+05 -5.116956E+04 -3.963176E+05  2.325613E+04  4.456224E+04
       108  22  7.547521E+03  1.389915E+05  3.787363E+04 -3.994124E+05 -2.703312E+04 -2.106713E+04
       108  23  2.751825E+03  1.375077E+05  2.784513E+04 -3.434622E+05 -1.882024E+03 -7.107990E+03
       108  24  5.200344E+03  1.389997E+05  2.852628E+04 -3.994197E+05  2.337214E+04  6.851937E+03
       108  25 -1.036358E+05 -3.265988E+05 -5.228162E+04 -3.958841E+05 -2.691900E+04 -5.846467E+04
       108  26 -3.902020E+03  1.094183E+05  2.267109E+04 -3.432488E+05 -1.766962E+03 -4.467868E+04
       108  27  1.030388E+05  5.485707E+05  1.082195E+05 -4.025237E+05  2.348848E+04 -3.088269E+04
       109   1 -1.656649E+05 -5.629264E+05 -1.047324E+05 -4.039023E+05 -4.098571E+04 -5.567172E+04
       109   2 -2.593382E+05 -1.003458E+06 -1.885334E+05 -3.204405E+05 -4.996048E+04 -1.839809E+04
       109   3 -3.087511E+05 -1.437957E+06 -2.856593E+05 -3.465389E+05 -1.736634E+04  1.892984E+04
       109   4  2.585265E+03  1.419519E+05  3.164927E+04 -3.989216E+05 -4.111665E+04 -1.162051E+04
       109   5  1.551555E+04  1.335159E+05  4.743472E+04 -3.440526E+05 -4.990361E+04 -3.615165E+04
       109   6  8.339842E+04  1.416280E+05  9.281412E+04 -3.987124E+05 -1.715979E+04 -6.060227E+04
       109   7  1.708070E+05  8.473122E+05  1.680150E+05 -3.939346E+05 -4.124679E+04  3.247962E+04
       109   8  2.902892E+05  1.271717E+06  2.833337E+05 -3.677077E+05 -4.984545E+04 -5.393716E+04
       109   9  4.753799E+05  1.723521E+06  4.711361E+05 -4.510173E+05 -1.694017E+04 -1.403361E+05
       109  10 -1.656675E+05 -5.629302E+05 -1.047413E+05 -4.039042E+05  7.766397E-10  1.672951E-09
       109  11 -2.593410E+05 -1.003459E+06 -1.885387E+05 -3.204413E+05  2.114643E-10  1.483006E-09
       109  12 -3.087515E+05 -1.437958E+06 -2.856605E+05 -3.465386E+05  8.606146E-10 -1.193637E-10
       109  13  2.583413E+03  1.419513E+05  3.164583E+04 -3.989220E+05 -1.603221E-09 -6.898854E-10
       109  14  1.551252E+04  1.335138E+05  4.742758E+04 -3.440541E+05 -4.342937E-10 -6.320969E-10
       109  15  8.339712E+04  1.416240E+05  9.280666E+04 -3.987132E+05  3.305248E-10  5.905981E-10
       109  16  1.708049E+05  8.473106E+05  1.680098E+05 -3.939335E+05 -8.327370E-10 -1.032806E-09
       109  17  2.902858E+05  1.271714E+06  2.833236E+05 -3.677098E+05 -6.735954E-10 -5.612606E-10
       109  18  4.753743E+05  1.723500E+06  4.710986E+05 -4.510193E+05  3.844444E-10  1.904174E-10
       109  19 -1.656649E+05 -5.629264E+05 -1.047324E+05 -4.039023E+05  4.098571E+04  5.567172E+04
       109  20 -2.593382E+05 -1.003458E+06 -1.885334E+05 -3.204405E+05  4.996048E+04  1.839809E+04
       109  21 -3.087511E+05 -1.437957E+06 -2.856593E+05 -3.465389E+05  1.736634E+04 -1.892984E+04
       109  22  2.585265E+03  1.419519E+05  3.164927E+04 -3.989216E+05  4.111665E+04  1.162051E+04
       109  23  1.551555E+04  1.335159E+05  4.743472E+04 -3.440526E+05  4.990361E+04  3.615165E+04
       109  24  8.339842E+04  1.416280E+05  9.281412E+04 -3.987124E+05  1.715979E+04  6.060227E+04
       109  25  1.708070E+05  8.473122E+05  1.680150E+05 -3.939346E+05  4.124679E+04 -3.247962E+04
       109  26  2.902892E+05  1.271717E+06  2.833337E+05 -3.677077E+05  4.984545E+04  5.393716E+04
       109  27  4.753799E+05  1.723521E+06  4.711361E+05 -4.510173E+05  1.694017E+04  1.403361E+05
       110   1 -2.893728E+06 -1.029791E+06 -6.086656E+05 -1.062497E+06 -2.564900E+05 -8.008578E+04
       110   2 -2.803720E+06 -6.709694E+05 -3.758819E+05 -1.042737E+06 -1.656804E+05 -1.071712E+04
       110   3 -2.797075E+06 -5.955204E+05 -2.897353E+05 -9.882690E+05 -6.379087E+04  2.931289E+04
       110   4 -1.949503E+06 -5.583412E+05 -3.336060E+05 -6.869436E+05 -2.180242E+05 -6.565203E+04
       110   5 -1.892060E+06 -2.912067E+05 -1.444881E+05 -7.524095E+05 -1.520722E+05 -5.613018E+03
       110   6 -1.912888E+06 -3.022929E+05 -8.209498E+04 -7.832131E+05 -7.505880E+04  2.507407E+04
       110   7 -1.004369E+06 -8.661642E+04 -5.862429E+04 -3.108035E+05 -1.794938E+05 -5.117592E+04
       110   8 -9.795717E+05  8.867056E+04  8.683926E+04 -4.616725E+05 -1.384421E+05 -4.984694E+02
       110   9 -1.027930E+06 -9.050694E+03  1.254910E+05 -5.779090E+05 -8.634421E+04  2.083037E+04
       110  10 -2.893800E+06 -1.029816E+06 -6.088020E+05 -1.062513E+06  6.908721E-11  2.850147E-10
       110  11 -2.803750E+06 -6.709770E+05 -3.759339E+05 -1.042738E+06  1.661548E-09  1.333146E-09
       110  12 -2.797080E+06 -5.955224E+05 -2.897446E+05 -9.882674E+05  2.884014E-09  1.386438E-09
       110  13 -1.949555E+06 -5.583586E+05 -3.337037E+05 -6.869552E+05  8.439787E-10 -2.237491E-10
       110  14 -1.892085E+06 -2.912130E+05 -1.445317E+05 -7.524102E+05  2.977682E-09  1.222611E-09
       110  15 -1.912894E+06 -3.022951E+05 -8.210676E+04 -7.832116E+05  4.486550E-09  1.386579E-09
       110  16 -1.004404E+06 -8.662791E+04 -5.868987E+04 -3.108109E+05  1.255544E-09  7.449879E-10
       110  17 -9.795923E+05  8.866540E+04  8.680319E+04 -4.616725E+05  4.674307E-09  2.012255E-09
       110  18 -1.027938E+06 -9.053163E+03  1.254762E+05 -5.779075E+05  3.869370E-09  1.634858E-09
       110  19 -2.893728E+06 -1.029791E+06 -6.086656E+05 -1.062497E+06  2.564900E+05  8.008578E+04
       110  20 -2.803720E+06 -6.709694E+05 -3.758819E+05 -1.042737E+06  1.656804E+05  1.071712E+04
       110  21 -2.797075E+06 -5.955204E+05 -2.897353E+05 -9.882690E+05  6.379087E+04 -2.931289E+04
       110  22 -1.949503E+06 -5.583412E+05 -3.336060E+05 -6.869436E+05  2.180242E+05  6.565203E+04
       110  23 -1.892060E+06 -2.912067E+05 -1.444881E+05 -7.524095E+05  1.520722E+05  5.613018E+03
       110  24 -1.912888E+06 -3.022929E+05 -8.209498E+04 -7.832131E+05  7.505880E+04 -2.507407E+04
       110  25 -1.004369E+06 -8.661642E+04 -5.862429E+04 -3.108035E+05  1.794938E+05  5.117592E+04
       110  26 -9.795717E+05  8.867056E+04  8.683926E+04 -4.616725E+05  1.384421E+05  4.984694E+02
       110  27 -1.027930E+06 -9.050694E+03  1.254910E+05 -5.779090E+05  8.634421E+04 -2.083037E+04
       111   1 -2.681672E+06 -6.241307E+05 -2.559632E+05 -9.875171E+05 -5.987211E+04  2.410147E+04
       111   2 -2.605894E+06 -5.583589E+05 -2.022097E+05 -9.485375E+05 -4.041915E+04  2.732415E+04
       111   3 -2.510011E+06 -5.369777E+05 -1.662652E+05 -9.383558E+05 -2.045184E+04  2.917303E+04
       111   4 -1.901994E+06 -3.278996E+05 -6.511720E+04 -7.681118E+05 -6.237578E+04  2.315549E+04
       111   5 -1.911027E+06 -2.980288E+05 -3.339268E+04 -7.566242E+05 -4.407052E+04  2.594930E+04
       111   6 -1.899725E+06 -3.123064E+05 -1.854745E+04 -7.739367E+05 -2.525396E+04  2.736879E+04
       111   7 -1.121708E+06 -3.161873E+04  1.256839E+05 -5.484515E+05 -6.488287E+04  2.220817E+04
       111   8 -1.215678E+06 -3.766304E+04  1.353888E+05 -5.645137E+05 -4.772635E+04  2.457276E+04
       111   9 -1.289070E+06 -8.761148E+04  1.291428E+05 -6.093709E+05 -3.006124E+04  2.556267E+04
       111  10 -2.681676E+06 -6.241323E+05 -2.559710E+05 -9.875159E+05  2.087028E-09  1.069921E-09
       111  11 -2.605896E+06 -5.583601E+05 -2.022141E+05 -9.485366E+05  1.159779E-09  8.377240E-10
       111  12 -2.510012E+06 -5.369788E+05 -1.662676E+05 -9.383553E+05  2.217822E-09 -7.715649E-11
       111  13 -1.901998E+06 -3.279012E+05 -6.512553E+04 -7.681107E+05  2.634958E-09  1.621249E-09
       111  14 -1.911029E+06 -2.980300E+05 -3.339760E+04 -7.566233E+05 -9.774634E-10  8.126784E-10
       111  15 -1.899726E+06 -3.123074E+05 -1.855005E+04 -7.739361E+05 -4.436417E-10 -2.018585E-10
       111  16 -1.121713E+06 -3.162039E+04  1.256750E+05 -5.484503E+05  2.334648E-09  1.545116E-09
       111  17 -1.215681E+06 -3.766430E+04  1.353834E+05 -5.645128E+05 -9.056191E-11  7.323191E-10
       111  18 -1.289071E+06 -8.761242E+04  1.291399E+05 -6.093703E+05 -1.484335E-09 -3.134389E-10
       111  19 -2.681672E+06 -6.241307E+05 -2.559632E+05 -9.875171E+05  5.987211E+04 -2.410147E+04
       111  20 -2.605894E+06 -5.583589E+05 -2.022097E+05 -9.485375E+05  4.041915E+04 -2.732415E+04
       111  21 -2.510011E+06 -5.369777E+05 -1.662652E+05 -9.383558E+05  2.045184E+04 -2.917303E+04
       111  22 -1.901994E+06 -3.278996E+05 -6.511720E+04 -7.681118E+05  6.237578E+04 -2.315549E+04
       111  23 -1.911027E+06 -2.980288E+05 -3.339268E+04 -7.566242E+05  4.407052E+04 -2.594930E+04
       111  24 -1.899725E+06 -3.123064E+05 -1.854745E+04 -7.739367E+05  2.525396E+04 -2.736879E+04
       111  25 -1.121708E+06 -3.161873E+04  1.256839E+05 -5.484515E+05  6.488287E+04 -2.220817E+04
       111  26 -1.215678E+06 -3.766304E+04  1.353888E+05 -5.645137E+05  4.772635E+04 -2.457276E+04
       111  27 -1.289070E+06 -8.761148E+04  1.291428E+05 -6.093709E+05  3.006124E+04 -2.556267E+04
       112   1 -2.431249E+06 -5.121426E+05 -1.429207E+05 -9.189250E+05 -1.699727E+04  2.680703E+04
       112   2 -2.355395E+06 -4.631077E+05 -1.149302E+05 -8.777728E+05 -1.110202E+04  2.301753E+04
       112   3 -2.251368E+06 -4.440804E+05 -9.011152E+04 -8.697049E+05 -5.174428E+03  1.913273E+04
       112   4 -1.898635E+06 -3.139309E+05 -1.412944E+04 -7.730896E+05 -2.143959E+04  2.513900E+04
       112   5 -1.912644E+06 -2.984638E+05 -7.685687E+03 -7.567170E+05 -1.562203E+04  2.132193E+04
       112   6 -1.898474E+06 -3.129876E+05 -4.349756E+03 -7.734307E+05 -9.772744E+03  1.740939E+04
       112   7 -1.365742E+06 -1.157006E+05  1.146402E+05 -6.271407E+05 -2.588605E+04  2.346942E+04
       112   8 -1.469700E+06 -1.338065E+05  9.954431E+04 -6.355824E+05 -2.014556E+04  1.962501E+04
       112   9 -1.545455E+06 -1.818857E+05  8.140328E+04 -6.771061E+05 -1.437394E+04  1.568498E+04
       112  10 -2.431250E+06 -5.121434E+05 -1.429226E+05 -9.189247E+05  1.349885E-09 -9.041736E-10
       112  11 -2.355395E+06 -4.631083E+05 -1.149314E+05 -8.777726E+05  5.475648E-11 -1.277131E-09
       112  12 -2.251368E+06 -4.440808E+05 -9.011226E+04 -8.697049E+05 -1.209507E-09 -9.284208E-10
       112  13 -1.898635E+06 -3.139317E+05 -1.413149E+04 -7.730892E+05 -2.044987E-10 -6.114536E-10
       112  14 -1.912645E+06 -2.984644E+05 -7.686999E+03 -7.567167E+05 -1.875808E-10 -4.081972E-10
       112  15 -1.898474E+06 -3.129879E+05 -4.350504E+03 -7.734306E+05 -3.805082E-09 -6.249801E-10
       112  16 -1.365742E+06 -1.157014E+05  1.146379E+05 -6.271402E+05 -9.896060E-10 -2.266195E-10
       112  17 -1.469700E+06 -1.338070E+05  9.954283E+04 -6.355821E+05 -2.258664E-09 -6.209741E-11
       112  18 -1.545455E+06 -1.818860E+05  8.140243E+04 -6.771060E+05 -4.589955E-09 -1.182078E-09
       112  19 -2.431249E+06 -5.121426E+05 -1.429207E+05 -9.189250E+05  1.699727E+04 -2.680703E+04
       112  20 -2.355395E+06 -4.631077E+05 -1.149302E+05 -8.777728E+05  1.110202E+04 -2.301753E+04
       112  21 -2.251368E+06 -4.440804E+05 -9.011152E+04 -8.697049E+05  5.174428E+03 -1.913273E+04
       112  22 -1.898635E+06 -3.139309E+05 -1.412944E+04 -7.730896E+05  2.143959E+04 -2.513900E+04
       112  23 -1.912644E+06 -2.984638E+05 -7.685687E+03 -7.567170E+05  1.562203E+04 -2.132193E+04
       112  24 -1.898474E+06 -3.129876E+05 -4.349756E+03 -7.734307E+05  9.772744E+03 -1.740939E+04
       112  25 -1.365742E+06 -1.157006E+05  1.146402E+05 -6.271407E+05  2.588605E+04 -2.346942E+04
       112  26 -1.469700E+06 -1.338065E+05  9.954431E+04 -6.355824E+05  2.014556E+04 -1.962501E+04
       112  27 -1.545455E+06 -1.818857E+05  8.140328E+04 -6.771061E+05  1.437394E+04 -1.568498E+04
       113   1 -2.173775E+06 -4.154865E+05 -6.977150E+04 -8.487617E+05 -3.357733E+03  1.622432E+04
       113   2 -2.097114E+06 -3.668823E+05 -4.675289E+04 -8.069744E+05 -2.509970E+02  1.121652E+04
       113   3 -1.991263E+06 -3.476972E+05 -2.455413E+04 -7.988753E+05  2.860928E+03  6.190538E+03
       113   4 -1.898278E+06 -3.131411E+05 -3.372421E+03 -7.734540E+05 -7.958425E+03  1.450080E+04
       113   5 -1.912859E+06 -2.983978E+05 -2.136737E+03 -7.566196E+05 -4.866789E+03  9.487999E+03
       113   6 -1.898257E+06 -3.130702E+05 -1.708484E+03 -7.734756E+05 -1.770172E+03  4.457024E+03
       113   7 -1.622705E+06 -2.107901E+05  6.302138E+04 -6.981157E+05 -1.256136E+04  1.277644E+04
       113   8 -1.728572E+06 -2.299116E+05  4.247657E+04 -7.062517E+05 -9.484039E+03  7.758937E+03
       113   9 -1.805244E+06 -2.784433E+05  2.113610E+04 -7.480730E+05 -6.401941E+03  2.723259E+03
       113  10 -2.173775E+06 -4.154867E+05 -6.977201E+04 -8.487617E+05 -4.881220E-09 -8.088162E-10
       113  11 -2.097114E+06 -3.668824E+05 -4.675313E+04 -8.069744E+05 -5.283593E-11  1.305023E-09
       113  12 -1.991263E+06 -3.476973E+05 -2.455422E+04 -7.988753E+05  1.492340E-09 -7.200661E-10
       113  13 -1.898278E+06 -3.131413E+05 -3.372935E+03 -7.734540E+05 -3.891638E-09 -9.131925E-10
       113  14 -1.912859E+06 -2.983979E+05 -2.136950E+03 -7.566196E+05 -1.171755E-09  6.690199E-10
       113  15 -1.898257E+06 -3.130703E+05 -1.708527E+03 -7.734756E+05  6.328891E-10 -6.783480E-10
       113  16 -1.622705E+06 -2.107903E+05  6.302078E+04 -6.981155E+05 -2.454960E-09 -3.067581E-10
       113  17 -1.728572E+06 -2.299117E+05  4.247629E+04 -7.062517E+05 -2.046732E-09  3.701373E-10
       113  18 -1.805244E+06 -2.784433E+05  2.113601E+04 -7.480729E+05 -2.111305E-09 -4.809134E-12
       113  19 -2.173775E+06 -4.154865E+05 -6.977150E+04 -8.487617E+05  3.357733E+03 -1.622432E+04
       113  20 -2.097114E+06 -3.668823E+05 -4.675289E+04 -8.069744E+05  2.509970E+02 -1.121652E+04
       113  21 -1.991263E+06 -3.476972E+05 -2.455413E+04 -7.988753E+05 -2.860928E+03 -6.190538E+03
       113  22 -1.898278E+06 -3.131411E+05 -3.372421E+03 -7.734540E+05  7.958425E+03 -1.450080E+04
       113  23 -1.912859E+06 -2.983978E+05 -2.136737E+03 -7.566196E+05  4.866789E+03 -9.487999E+03
       113  24 -1.898257E+06 -3.130702E+05 -1.708484E+03 -7.734756E+05  1.770172E+03 -4.457024E+03
       113  25 -1.622705E+06 -2.107901E+05  6.302138E+04 -6.981157E+05  1.256136E+04 -1.277644E+04
       113  26 -1.728572E+06 -2.299116E+05  4.247657E+04 -7.062517E+05  9.484039E+03 -7.758937E+03
       113  27 -1.805244E+06 -2.784433E+05  2.113610E+04 -7.480730E+05  6.401941E+03 -2.723259E+03
       114   1 -1.913264E+06 -3.186311E+05 -5.045595E+03 -7.776419E+05  4.335251E+03  3.131189E+03
       114   2 -1.836396E+06 -2.699839E+05  1.625817E+04 -7.357375E+05  7.483404E+03 -1.889610E+03
       114   3 -1.730294E+06 -2.508244E+05  3.671311E+04 -7.276061E+05  1.062902E+04 -6.900864E+03
       114   4 -1.898246E+06 -3.130854E+05 -1.730033E+03 -7.734950E+05 -2.996219E+02  1.396390E+03
       114   5 -1.912864E+06 -2.983653E+05 -2.248537E+03 -7.565976E+05  2.856005E+03 -3.621956E+03
       114   6 -1.898257E+06 -3.131360E+05 -3.621827E+03 -7.734777E+05  6.008896E+03 -8.630781E+03
       114   7 -1.883229E+06 -3.075395E+05  1.585676E+03 -7.693479E+05 -4.934692E+03 -3.384827E+02
       114   8 -1.989327E+06 -3.267466E+05 -2.075588E+04 -7.774557E+05 -1.770835E+03 -5.354093E+03
       114   9 -2.066194E+06 -3.754463E+05 -4.395926E+04 -8.193386E+05  1.390089E+03 -1.036021E+04
       114  10 -1.913264E+06 -3.186311E+05 -5.045649E+03 -7.776419E+05 -2.159541E-10 -1.624683E-09
       114  11 -1.836396E+06 -2.699840E+05  1.625806E+04 -7.357375E+05 -2.035476E-09 -4.410400E-10
       114  12 -1.730294E+06 -2.508245E+05  3.671281E+04 -7.276060E+05 -1.357034E-09  3.940450E-10
       114  13 -1.898246E+06 -3.130854E+05 -1.730037E+03 -7.734950E+05  3.620044E-10 -1.280711E-09
       114  14 -1.912864E+06 -2.983653E+05 -2.248577E+03 -7.565976E+05 -4.667516E-10  8.768702E-10
       114  15 -1.898257E+06 -3.131361E+05 -3.622034E+03 -7.734777E+05 -7.746951E-10  4.778609E-10
       114  16 -1.883229E+06 -3.075395E+05  1.585630E+03 -7.693479E+05  7.726694E-10  2.735281E-11
       114  17 -1.989327E+06 -3.267466E+05 -2.075594E+04 -7.774557E+05  1.060502E-09 -2.634618E-10
       114  18 -2.066194E+06 -3.754464E+05 -4.395947E+04 -8.193385E+05  1.079469E-09  5.225200E-10
       114  19 -1.913264E+06 -3.186311E+05 -5.045595E+03 -7.776419E+05 -4.335251E+03 -3.131189E+03
       114  20 -1.836396E+06 -2.699839E+05  1.625817E+04 -7.357375E+05 -7.483404E+03  1.889610E+03
       114  21 -1.730294E+06 -2.508244E+05  3.671311E+04 -7.276061E+05 -1.062902E+04  6.900864E+03
       114  22 -1.898246E+06 -3.130854E+05 -1.730033E+03 -7.734950E+05  2.996219E+02 -1.396390E+03
       114  23 -1.912864E+06 -2.983653E+05 -2.248537E+03 -7.565976E+05 -2.856005E+03  3.621956E+03
       114  24 -1.898257E+06 -3.131360E+05 -3.621827E+03 -7.734777E+05 -6.008896E+03  8.630781E+03
       114  25 -1.883229E+06 -3.075395E+05  1.585676E+03 -7.693479E+05  4.934692E+03  3.384827E+02
       114  26 -1.989327E+06 -3.267466E+05 -2.075588E+04 -7.774557E+05  1.770835E+03  5.354093E+03
       114  27 -2.066194E+06 -3.754463E+05 -4.395926E+04 -8.193386E+05 -1.390089E+03  1.036021E+04
       115   1 -1.652691E+06 -2.218417E+05  5.508191E+04 -7.065768E+05  1.250079E+04 -9.803063E+03
       115   2 -1.576328E+06 -1.734278E+05  7.308682E+04 -6.647742E+05  1.861477E+04 -1.365471E+04
       115   3 -1.471697E+06 -1.552857E+05  8.776281E+04 -6.563021E+05  2.470210E+04 -1.742546E+04
       115   4 -1.898441E+06 -3.130067E+05 -4.695477E+03 -7.734981E+05  7.877016E+03 -1.153481E+04
       115   5 -1.912646E+06 -2.983607E+05 -8.320658E+03 -7.566500E+05  1.405669E+04 -1.536305E+04
       115   6 -1.898603E+06 -3.140008E+05 -1.532784E+04 -7.731357E+05  2.020912E+04 -1.911060E+04
       115   7 -2.144127E+06 -4.041658E+05 -6.447599E+04 -8.403941E+05  3.255332E+03 -1.326578E+04
       115   8 -2.248850E+06 -4.232852E+05 -8.973591E+04 -8.484799E+05  9.501335E+03 -1.707038E+04
       115   9 -2.325332E+06 -4.727046E+05 -1.184328E+05 -8.898970E+05  1.571948E+04 -2.079449E+04
       115  10 -1.652691E+06 -2.218419E+05  5.508143E+04 -7.065767E+05 -7.695739E-10  5.167623E-10
       115  11 -1.576329E+06 -1.734281E+05  7.308582E+04 -6.647740E+05 -8.677019E-10 -3.152648E-10
       115  12 -1.471698E+06 -1.552862E+05  8.776109E+04 -6.563018E+05 -4.178039E-10 -2.102849E-10
       115  13 -1.898441E+06 -3.130068E+05 -4.695843E+03 -7.734981E+05  2.394256E-10  1.030164E-09
       115  14 -1.912646E+06 -2.983610E+05 -8.321472E+03 -7.566498E+05  1.844314E-10  9.005169E-11
       115  15 -1.898604E+06 -3.140013E+05 -1.532929E+04 -7.731354E+05 -1.248905E-09 -2.484388E-10
       115  16 -2.144128E+06 -4.041660E+05 -6.447634E+04 -8.403941E+05  7.028733E-12  7.382529E-10
       115  17 -2.248850E+06 -4.232855E+05 -8.973663E+04 -8.484797E+05  1.501626E-09  2.748181E-11
       115  18 -2.325332E+06 -4.727051E+05 -1.184341E+05 -8.898967E+05  1.030905E-09 -2.774778E-10
       115  19 -1.652691E+06 -2.218417E+05  5.508191E+04 -7.065768E+05 -1.250079E+04  9.803063E+03
       115  20 -1.576328E+06 -1.734278E+05  7.308682E+04 -6.647742E+05 -1.861477E+04  1.365471E+04
       115  21 -1.471697E+06 -1.552857E+05  8.776281E+04 -6.563021E+05 -2.470210E+04  1.742546E+04
       115  22 -1.898441E+06 -3.130067E+05 -4.695477E+03 -7.734981E+05 -7.877016E+03  1.153481E+04
       115  23 -1.912646E+06 -2.983607E+05 -8.320658E+03 -7.566500E+05 -1.405669E+04  1.536305E+04
       115  24 -1.898603E+06 -3.140008E+05 -1.532784E+04 -7.731357E+05 -2.020912E+04  1.911060E+04
       115  25 -2.144127E+06 -4.041658E+05 -6.447599E+04 -8.403941E+05 -3.255332E+03  1.326578E+04
       115  26 -2.248850E+06 -4.232852E+05 -8.973591E+04 -8.484799E+05 -9.501335E+03  1.707038E+04
       115  27 -2.325332E+06 -4.727046E+05 -1.184328E+05 -8.898970E+05 -1.571948E+04  2.079449E+04
       116   1 -1.394200E+06 -1.270172E+05  1.020682E+05 -6.386770E+05  2.907549E+04 -1.946496E+04
       116   2 -1.319833E+06 -7.627630E+04  1.072939E+05 -5.929874E+05  4.832537E+04 -1.798290E+04
       116   3 -1.225364E+06 -7.117138E+04  9.501563E+04 -5.762258E+05  6.711556E+04 -1.525659E+04
       116   4 -1.899749E+06 -3.122812E+05 -2.012840E+04 -7.741078E+05  2.425165E+04 -2.127507E+04
       116   5 -1.910913E+06 -2.978022E+05 -3.623082E+04 -7.564856E+05  4.454296E+04 -1.940473E+04
       116   6 -1.902195E+06 -3.291810E+05 -7.067769E+04 -7.677966E+05  6.437170E+04 -1.629082E+04
       116   7 -2.405045E+06 -4.975295E+05 -1.423438E+05 -9.094389E+05  1.943210E+04 -2.308363E+04
       116   8 -2.501644E+06 -5.193021E+05 -1.797811E+05 -9.198409E+05  4.076448E+04 -2.082507E+04
       116   9 -2.578569E+06 -5.871520E+05 -2.364047E+05 -9.591738E+05  6.163111E+04 -1.732376E+04
       116  10 -1.394201E+06 -1.270178E+05  1.020659E+05 -6.386765E+05  7.081528E-10 -1.304024E-10
       116  11 -1.319836E+06 -7.627727E+04  1.072889E+05 -5.929867E+05 -7.345798E-11 -3.824757E-10
       116  12 -1.225369E+06 -7.117284E+04  9.500671E+04 -5.762249E+05 -1.806298E-10 -1.467601E-10
       116  13 -1.899750E+06 -3.122818E+05 -2.013035E+04 -7.741074E+05  1.515908E-09 -1.161058E-11
       116  14 -1.910915E+06 -2.978032E+05 -3.623526E+04 -7.564849E+05  3.660071E-10 -3.206029E-10
       116  15 -1.902200E+06 -3.291824E+05 -7.068599E+04 -7.677957E+05 -1.678026E-09  6.900947E-11
       116  16 -2.405046E+06 -4.975302E+05 -1.423455E+05 -9.094385E+05 -7.555349E-10 -7.097222E-10
       116  17 -2.501646E+06 -5.193030E+05 -1.797851E+05 -9.198402E+05 -8.798421E-10 -4.001263E-10
       116  18 -2.578573E+06 -5.871533E+05 -2.364125E+05 -9.591729E+05 -6.470442E-10  2.190244E-10
       116  19 -1.394200E+06 -1.270172E+05  1.020682E+05 -6.386770E+05 -2.907549E+04  1.946496E+04
       116  20 -1.319833E+06 -7.627630E+04  1.072939E+05 -5.929874E+05 -4.832537E+04  1.798290E+04
       116  21 -1.225364E+06 -7.117138E+04  9.501563E+04 -5.762258E+05 -6.711556E+04  1.525659E+04
       116  22 -1.899749E+06 -3.122812E+05 -2.012840E+04 -7.741078E+05 -2.425165E+04  2.127507E+04
       116  23 -1.910913E+06 -2.978022E+05 -3.623082E+04 -7.564856E+05 -4.454296E+04  1.940473E+04
       116  24 -1.902195E+06 -3.291810E+05 -7.067769E+04 -7.677966E+05 -6.437170E+04  1.629082E+04
       116  25 -2.405045E+06 -4.975295E+05 -1.423438E+05 -9.094389E+05 -1.943210E+04  2.308363E+04
       116  26 -2.501644E+06 -5.193021E+05 -1.797811E+05 -9.198409E+05 -4.076448E+04  2.082507E+04
       116  27 -2.578569E+06 -5.871520E+05 -2.364047E+05 -9.591738E+05 -6.163111E+04  1.732376E+04
       117   1 -1.128842E+06 -4.869962E+04  9.378651E+04 -6.098414E+05  8.857885E+04 -1.363165E+04
       117   2 -1.080735E+06  5.426417E+04  4.984283E+04 -4.861187E+05  1.498782E+05  1.035000E+04
       117   3 -1.114753E+06 -1.384278E+05 -1.136194E+05 -3.229789E+05  2.011684E+05  6.097238E+04
       117   4 -1.913954E+06 -3.014567E+05 -8.910881E+04 -7.842767E+05  7.786678E+04 -1.765355E+04
       117   5 -1.890393E+06 -2.902601E+05 -1.568079E+05 -7.517941E+05  1.617672E+05  1.480338E+04
       117   6 -1.953611E+06 -5.794715E+05 -3.620981E+05 -6.798685E+05  2.356447E+05  7.389558E+04
       117   7 -2.698461E+06 -5.542082E+05 -2.720465E+05 -9.585289E+05  6.716940E+04 -2.167166E+04
       117   8 -2.699393E+06 -6.346812E+05 -3.635104E+05 -1.017133E+06  1.736391E+05  1.924829E+04
       117   9 -2.791730E+06 -1.020241E+06 -6.106347E+05 -1.036250E+06  2.700694E+05  8.678184E+04
       117  10 -1.128850E+06 -4.870193E+04  9.377140E+04 -6.098404E+05  2.536605E-10  4.434360E-10
       117  11 -1.080759E+06  5.425801E+04  4.980033E+04 -4.861200E+05  1.696604E-10  1.164204E-09
       117  12 -1.114797E+06 -1.384427E+05 -1.137026E+05 -3.229888E+05  9.293996E-10  4.067349E-10
       117  13 -1.913961E+06 -3.014587E+05 -8.912081E+04 -7.842756E+05 -1.539190E-10  4.153125E-10
       117  14 -1.890421E+06 -2.902674E+05 -1.568576E+05 -7.517961E+05  1.948205E-09 -7.496451E-10
       117  15 -1.953672E+06 -5.794924E+05 -3.622131E+05 -6.798826E+05  1.548440E-10  3.428301E-10
       117  16 -2.698466E+06 -5.542100E+05 -2.720559E+05 -9.585277E+05  2.623520E-10  4.763600E-10
       117  17 -2.699425E+06 -6.346897E+05 -3.635680E+05 -1.017136E+06 -4.758333E-10  5.611859E-10
       117  18 -2.791810E+06 -1.020269E+06 -6.107867E+05 -1.036269E+06 -6.671698E-10  1.409654E-10
       117  19 -1.128842E+06 -4.869962E+04  9.378651E+04 -6.098414E+05 -8.857885E+04  1.363165E+04
       117  20 -1.080735E+06  5.426417E+04  4.984283E+04 -4.861187E+05 -1.498782E+05 -1.035000E+04
       117  21 -1.114753E+06 -1.384278E+05 -1.136194E+05 -3.229789E+05 -2.011684E+05 -6.097238E+04
       117  22 -1.913954E+06 -3.014567E+05 -8.910881E+04 -7.842767E+05 -7.786678E+04  1.765355E+04
       117  23 -1.890393E+06 -2.902601E+05 -1.568079E+05 -7.517941E+05 -1.617672E+05 -1.480338E+04
       117  24 -1.953611E+06 -5.794715E+05 -3.620981E+05 -6.798685E+05 -2.356447E+05 -7.389558E+04
       117  25 -2.698461E+06 -5.542082E+05 -2.720465E+05 -9.585289E+05 -6.716940E+04  2.167166E+04
       117  26 -2.699393E+06 -6.346812E+05 -3.635104E+05 -1.017133E+06 -1.736391E+05 -1.924829E+04
       117  27 -2.791730E+06 -1.020241E+06 -6.106347E+05 -1.036250E+06 -2.700694E+05 -8.678184E+04
       118   1 -3.975681E+05 -2.739911E+04 -7.498729E+00  2.289312E+04  7.565924E+04  7.736245E+03
       118   2 -3.610600E+05 -1.309331E+05 -5.438893E+04 -3.243185E+03  5.539453E+04  2.415794E+04
       118   3 -2.940804E+05 -1.237134E+05 -6.785593E+04 -5.014271E+04  3.513839E+04  2.520860E+04
       118   4  1.891394E+05  1.182769E+05  1.421093E+05 -3.307440E+04  9.771436E+04  7.744171E+03
       118   5  1.727141E+05 -3.637785E+02  6.473814E+04 -2.265900E+04  6.340905E+04  2.415888E+04
       118   6  1.891644E+05 -5.870049E+03  3.800406E+04 -3.300440E+04  2.911499E+04  2.520610E+04
       118   7  7.761694E+05  2.639397E+05  2.842048E+05 -8.909504E+04  1.197902E+05  7.748118E+03
       118   8  7.067547E+05  1.301877E+05  1.838478E+05 -4.209173E+04  7.143037E+04  2.415932E+04
       118   9  6.726285E+05  1.119588E+05  1.438502E+05 -1.585259E+04  2.308695E+04  2.520327E+04
       118  10 -3.975743E+05 -2.740071E+04 -1.837490E+01  2.289265E+04 -2.106750E-10 -2.474598E-10
       118  11 -3.610635E+05 -1.309346E+05 -5.439580E+04 -3.244263E+03 -1.181943E-09 -1.323188E-09
       118  12 -2.940819E+05 -1.237144E+05 -6.785945E+04 -5.014343E+04  1.067625E-09  5.087801E-11
       118  13  1.891292E+05  1.182742E+05  1.420912E+05 -3.307501E+04 -9.758479E-10 -2.465064E-10
       118  14  1.727096E+05 -3.654843E+02  6.472949E+04 -2.266024E+04 -1.330297E-10 -1.452308E-09
       118  15  1.891633E+05 -5.870959E+03  3.800128E+04 -3.300499E+04 -1.987522E-09 -1.660019E-10
       118  16  7.761540E+05  2.639358E+05  2.841778E+05 -8.909579E+04  3.854658E-10 -2.315510E-10
       118  17  7.067491E+05  1.301857E+05  1.838371E+05 -4.209312E+04  5.873957E-10 -5.889475E-10
       118  18  6.726278E+05  1.119579E+05  1.438480E+05 -1.585306E+04 -7.723731E-10 -5.684436E-10
       118  19 -3.975681E+05 -2.739911E+04 -7.498729E+00  2.289312E+04 -7.565924E+04 -7.736245E+03
       118  20 -3.610600E+05 -1.309331E+05 -5.438893E+04 -3.243185E+03 -5.539453E+04 -2.415794E+04
       118  21 -2.940804E+05 -1.237134E+05 -6.785593E+04 -5.014271E+04 -3.513839E+04 -2.520860E+04
       118  22  1.891394E+05  1.182769E+05  1.421093E+05 -3.307440E+04 -9.771436E+04 -7.744171E+03
       118  23  1.727141E+05 -3.637785E+02  6.473814E+04 -2.265900E+04 -6.340905E+04 -2.415888E+04
       118  24  1.891644E+05 -5.870049E+03  3.800406E+04 -3.300440E+04 -2.911499E+04 -2.520610E+04
       118  25  7.761694E+05  2.639397E+05  2.842048E+05 -8.909504E+04 -1.197902E+05 -7.748118E+03
       118  26  7.067547E+05  1.301877E+05  1.838478E+05 -4.209173E+04 -7.143037E+04 -2.415932E+04
       118  27  6.726285E+05  1.119588E+05  1.438502E+05 -1.585259E+04 -2.308695E+04 -2.520327E+04
       119   1 -2.583834E+05 -1.011601E+05 -6.686156E+04 -3.097835E+04  2.527415E+04  2.215855E+04
       119   2 -2.082715E+05 -9.520140E+04 -6.908241E+04 -2.201991E+04  1.770570E+04  2.010098E+04
       119   3 -1.555057E+05 -8.283131E+04 -6.475679E+04 -3.436974E+04  1.013564E+04  1.735859E+04
       119   4  1.824786E+05  6.430035E+03  3.020587E+04 -3.314410E+04  2.372339E+04  2.215693E+04
       119   5  1.811054E+05 -2.408698E+02  1.633038E+04 -2.248997E+04  1.552520E+04  2.009977E+04
       119   6  1.824914E+05 -3.933799E+02  9.435251E+03 -3.314316E+04  7.326048E+03  1.735796E+04
       119   7  6.235223E+05  1.140071E+05  1.272614E+05 -3.531141E+04  2.217152E+04  2.215532E+04
       119   8  5.706242E+05  9.470953E+04  1.017340E+05 -2.296033E+04  1.334336E+04  2.009856E+04
       119   9  5.205954E+05  8.203692E+04  8.362037E+04 -3.191590E+04  4.514947E+03  1.735732E+04
       119  10 -2.583842E+05 -1.011608E+05 -6.686368E+04 -3.097880E+04 -6.088813E-10  4.608261E-10
       119  11 -2.082719E+05 -9.520192E+04 -6.908376E+04 -2.202020E+04 -1.037437E-11  7.110236E-10
       119  12 -1.555059E+05 -8.283167E+04 -6.475755E+04 -3.436988E+04 -5.946571E-10  4.146030E-10
       119  13  1.824778E+05  6.429357E+03  3.020389E+04 -3.314452E+04  4.256862E-11  3.030693E-10
       119  14  1.811050E+05 -2.413684E+02  1.632917E+04 -2.249022E+04 -3.242575E-09  6.770464E-10
       119  15  1.824913E+05 -3.937179E+02  9.434584E+03 -3.314326E+04 -2.058449E-09  2.852752E-10
       119  16  6.235216E+05  1.140065E+05  1.272596E+05 -3.531181E+04 -6.662784E-10  1.729865E-10
       119  17  5.706239E+05  9.470905E+04  1.017329E+05 -2.296054E+04 -1.834122E-09  4.944006E-10
       119  18  5.205953E+05  8.203659E+04  8.361976E+04 -3.191597E+04  5.606752E-10  8.498889E-11
       119  19 -2.583834E+05 -1.011601E+05 -6.686156E+04 -3.097835E+04 -2.527415E+04 -2.215855E+04
       119  20 -2.082715E+05 -9.520140E+04 -6.908241E+04 -2.201991E+04 -1.770570E+04 -2.010098E+04
       119  21 -1.555057E+05 -8.283131E+04 -6.475679E+04 -3.436974E+04 -1.013564E+04 -1.735859E+04
       119  22  1.824786E+05  6.430035E+03  3.020587E+04 -3.314410E+04 -2.372339E+04 -2.215693E+04
       119  23  1.811054E+05 -2.408698E+02  1.633038E+04 -2.248997E+04 -1.552520E+04 -2.009977E+04
       119  24  1.824914E+05 -3.933799E+02  9.435251E+03 -3.314316E+04 -7.326048E+03 -1.735796E+04
       119  25  6.235223E+05  1.140071E+05  1.272614E+05 -3.531141E+04 -2.217152E+04 -2.215532E+04
       119  26  5.706242E+05  9.470953E+04  1.017340E+05 -2.296033E+04 -1.334336E+04 -2.009856E+04
       119  27  5.205954E+05  8.203692E+04  8.362037E+04 -3.191590E+04 -4.514947E+03 -1.735732E+04
       120   1 -1.140472E+05 -7.186688E+04 -5.750732E+04 -3.324249E+04  8.466399E+03  1.560023E+04
       120   2 -6.288913E+04 -5.971866E+04 -4.950977E+04 -2.258925E+04  6.461666E+03  1.272309E+04
       120   3 -1.135463E+04 -4.718601E+04 -4.010693E+04 -3.324041E+04  4.455837E+03  9.816629E+03
       120   4  1.819681E+05  2.824934E+02  7.231328E+03 -3.314265E+04  5.857853E+03  1.559988E+04
       120   5  1.817831E+05 -6.502208E+01  4.099798E+03 -2.249074E+04  3.825376E+03  1.272312E+04
       120   6  1.819757E+05 -2.353272E+01  2.392111E+03 -3.314273E+04  1.791963E+03  9.817043E+03
       120   7  4.780656E+05  7.242603E+04  7.196470E+04 -3.304276E+04  3.248079E+03  1.559953E+04
       120   8  4.265114E+05  5.958462E+04  5.770576E+04 -2.239220E+04  1.188058E+03  1.272314E+04
       120   9  3.753411E+05  4.713645E+04  4.488890E+04 -3.304502E+04 -8.727315E+02  9.817456E+03
       120  10 -1.140473E+05 -7.186716E+04 -5.750791E+04 -3.324260E+04 -1.914858E-09  2.019077E-11
       120  11 -6.288921E+04 -5.971885E+04 -4.951015E+04 -2.258931E+04  3.934248E-09 -3.016361E-10
       120  12 -1.135468E+04 -4.718612E+04 -4.010715E+04 -3.324045E+04  6.905090E-09  2.600824E-10
       120  13  1.819680E+05  2.822229E+02  7.230807E+03 -3.314272E+04 -1.085569E-09 -3.637976E-11
       120  14  1.817831E+05 -6.519986E+01  4.099466E+03 -2.249078E+04  4.138771E-11 -2.053909E-10
       120  15  1.819757E+05 -2.363708E+01  2.391923E+03 -3.314274E+04  4.126319E-12 -3.484359E-10
       120  16  4.780655E+05  7.242577E+04  7.196422E+04 -3.304280E+04 -2.528863E-10 -1.872888E-10
       120  17  4.265113E+05  5.958445E+04  5.770545E+04 -2.239221E+04 -5.521621E-09 -1.305357E-10
       120  18  3.753411E+05  4.713635E+04  4.488871E+04 -3.304501E+04 -6.917512E-09 -6.665909E-10
       120  19 -1.140472E+05 -7.186688E+04 -5.750732E+04 -3.324249E+04 -8.466399E+03 -1.560023E+04
       120  20 -6.288913E+04 -5.971866E+04 -4.950977E+04 -2.258925E+04 -6.461666E+03 -1.272309E+04
       120  21 -1.135463E+04 -4.718601E+04 -4.010693E+04 -3.324041E+04 -4.455837E+03 -9.816629E+03
       120  22  1.819681E+05  2.824934E+02  7.231328E+03 -3.314265E+04 -5.857853E+03 -1.559988E+04
       120  23  1.817831E+05 -6.502208E+01  4.099798E+03 -2.249074E+04 -3.825376E+03 -1.272312E+04
       120  24  1.819757E+05 -2.353272E+01  2.392111E+03 -3.314273E+04 -1.791963E+03 -9.817043E+03
       120  25  4.780656E+05  7.242603E+04  7.196470E+04 -3.304276E+04 -3.248079E+03 -1.559953E+04
       120  26  4.265114E+05  5.958462E+04  5.770576E+04 -2.239220E+04 -1.188058E+03 -1.272314E+04
       120  27  3.753411E+05  4.713645E+04  4.488890E+04 -3.304502E+04  8.727315E+02 -9.817456E+03
       121   1  3.049628E+04 -3.687652E+04 -3.118533E+04 -3.317393E+04  4.063622E+03  8.118408E+03
       121   2  8.176182E+04 -2.441269E+04 -2.080442E+04 -2.251546E+04  3.506374E+03  5.207669E+03
       121   3  1.331016E+05 -1.191430E+04 -1.005455E+04 -3.314026E+04  2.948707E+03  2.296146E+03
       121   4  1.819111E+05  8.705630E+00  1.843087E+03 -3.313808E+04  1.409326E+03  8.118986E+03
       121   5  1.818767E+05 -6.118953E+00  1.128001E+03 -2.249656E+04  8.511391E+02  5.208397E+03
       121   6  1.819141E+05  1.391793E+01  7.825140E+02 -3.313809E+04  2.925795E+02  2.297033E+03
       121   7  3.333473E+05  3.689241E+04  3.487015E+04 -3.310223E+04 -1.245609E+03  8.119563E+03
       121   8  2.820009E+05  2.439979E+04  2.305984E+04 -2.247765E+04 -1.804518E+03  5.209124E+03
       121   9  2.307289E+05  1.194198E+04  1.161945E+04 -3.313592E+04 -2.363755E+03  2.297921E+03
       121  10  3.049625E+04 -3.687659E+04 -3.118549E+04 -3.317395E+04 -9.664546E-09  4.778858E-10
       121  11  8.176180E+04 -2.441272E+04 -2.080449E+04 -2.251548E+04 -4.416421E-09  4.835599E-10
       121  12  1.331016E+05 -1.191431E+04 -1.005457E+04 -3.314027E+04  1.740109E-09 -7.607434E-11
       121  13  1.819110E+05  8.634305E+00  1.842959E+03 -3.313809E+04  9.752266E-10  2.324431E-10
       121  14  1.818767E+05 -6.148281E+00  1.127949E+03 -2.249656E+04  5.880353E-10  2.561725E-10
       121  15  1.819141E+05  1.391224E+01  7.825039E+02 -3.313809E+04 -1.064509E-09 -1.855802E-10
       121  16  3.333473E+05  3.689233E+04  3.487002E+04 -3.310222E+04  7.903577E-09 -8.191490E-10
       121  17  2.820009E+05  2.439976E+04  2.305978E+04 -2.247765E+04  1.910439E-09  6.535015E-10
       121  18  2.307289E+05  1.194197E+04  1.161943E+04 -3.313592E+04 -2.688045E-09 -4.846912E-11
       121  19  3.049628E+04 -3.687652E+04 -3.118533E+04 -3.317393E+04 -4.063622E+03 -8.118408E+03
       121  20  8.176182E+04 -2.441269E+04 -2.080442E+04 -2.251546E+04 -3.506374E+03 -5.207669E+03
       121  21  1.331016E+05 -1.191430E+04 -1.005455E+04 -3.314026E+04 -2.948707E+03 -2.296146E+03
       121  22  1.819111E+05  8.705630E+00  1.843087E+03 -3.313808E+04 -1.409326E+03 -8.118986E+03
       121  23  1.818767E+05 -6.118953E+00  1.128001E+03 -2.249656E+04 -8.511391E+02 -5.208397E+03
       121  24  1.819141E+05  1.391793E+01  7.825140E+02 -3.313809E+04 -2.925795E+02 -2.297033E+03
       121  25  3.333473E+05  3.689241E+04  3.487015E+04 -3.310223E+04  1.245609E+03 -8.119563E+03
       121  26  2.820009E+05  2.439979E+04  2.305984E+04 -2.247765E+04  1.804518E+03 -5.209124E+03
       121  27  2.307289E+05  1.194198E+04  1.161945E+04 -3.313592E+04  2.363755E+03 -2.297921E+03
       122   1  1.749916E+05 -1.642964E+03 -6.658393E+02 -3.314467E+04  2.813015E+03  6.014481E+02
       122   2  2.262709E+05  1.082187E+04  1.043330E+04 -2.249904E+04  2.459982E+03 -2.309597E+03
       122   3  2.775901E+05  2.330972E+04  2.176421E+04 -3.313328E+04  2.107091E+03 -5.219716E+03
       122   4  1.819071E+05  1.401935E+01  7.049877E+02 -3.313741E+04  1.569466E+02  6.023628E+02
       122   5  1.818874E+05  2.736256E+00  7.108373E+02 -2.249742E+04 -1.953095E+02 -2.308756E+03
       122   6  1.819058E+05  1.468492E+01  9.482110E+02 -3.313740E+04 -5.473947E+02 -5.218940E+03
       122   7  1.888227E+05  1.671003E+03  2.075839E+03 -3.313014E+04 -2.499151E+03  6.032773E+02
       122   8  1.375058E+05 -1.081653E+04 -9.011718E+03 -2.249580E+04 -2.850413E+03 -2.307915E+03
       122   9  8.623010E+04 -2.328096E+04 -1.986831E+04 -3.314153E+04 -3.201477E+03 -5.218163E+03
       122  10  1.749916E+05 -1.642966E+03 -6.658548E+02 -3.314467E+04 -1.257588E-09 -1.345402E-10
       122  11  2.262709E+05  1.082187E+04  1.043328E+04 -2.249903E+04 -1.057204E-09  2.464860E-10
       122  12  2.775901E+05  2.330969E+04  2.176415E+04 -3.313327E+04  6.194487E-10 -2.237986E-10
       122  13  1.819071E+05  1.401895E+01  7.049870E+02 -3.313741E+04 -1.167188E-10  3.207407E-10
       122  14  1.818874E+05  2.730521E+00  7.108272E+02 -2.249742E+04 -4.732544E-11  6.920947E-10
       122  15  1.819058E+05  1.465559E+01  9.481593E+02 -3.313741E+04 -5.897518E-10 -6.378317E-10
       122  16  1.888227E+05  1.671001E+03  2.075826E+03 -3.313014E+04 -6.387355E-11  9.192305E-11
       122  17  1.375058E+05 -1.081654E+04 -9.011743E+03 -2.249581E+04 -3.399944E-10  6.174465E-10
       122  18  8.623008E+04 -2.328099E+04 -1.986838E+04 -3.314154E+04  9.637297E-10 -2.833170E-10
       122  19  1.749916E+05 -1.642964E+03 -6.658393E+02 -3.314467E+04 -2.813015E+03 -6.014481E+02
       122  20  2.262709E+05  1.082187E+04  1.043330E+04 -2.249904E+04 -2.459982E+03  2.309597E+03
       122  21  2.775901E+05  2.330972E+04  2.176421E+04 -3.313328E+04 -2.107091E+03  5.219716E+03
       122  22  1.819071E+05  1.401935E+01  7.049877E+02 -3.313741E+04 -1.569466E+02 -6.023628E+02
       122  23  1.818874E+05  2.736256E+00  7.108373E+02 -2.249742E+04  1.953095E+02  2.308756E+03
       122  24  1.819058E+05  1.468492E+01  9.482110E+02 -3.313740E+04  5.473947E+02  5.218940E+03
       122  25  1.888227E+05  1.671003E+03  2.075839E+03 -3.313014E+04  2.499151E+03 -6.032773E+02
       122  26  1.375058E+05 -1.081653E+04 -9.011718E+03 -2.249580E+04  2.850413E+03  2.307915E+03
       122  27  8.623010E+04 -2.328096E+04 -1.986831E+04 -3.314153E+04  3.201477E+03  5.218163E+03
       123   1  3.195319E+05  3.356797E+04  3.145168E+04 -3.311386E+04  1.924090E+03 -6.916921E+03
       123   2  3.707801E+05  4.602705E+04  4.328870E+04 -2.246992E+04  9.557929E+02 -9.822316E+03
       123   3  4.222072E+05  5.867146E+04  5.580250E+04 -3.311610E+04 -1.189193E+01 -1.270083E+04
       123   4  1.819332E+05 -4.903676E-01  1.168484E+03 -3.313975E+04 -7.391329E+02 -6.916255E+03
       123   5  1.818446E+05 -2.542633E+01  1.901758E+03 -2.249448E+04 -1.682764E+03 -9.821953E+03
       123   6  1.819275E+05  1.307126E+02  3.294740E+03 -3.313971E+04 -2.625706E+03 -1.270076E+04
       123   7  4.435228E+04 -3.357021E+04 -2.911585E+04 -3.316564E+04 -3.401772E+03 -6.915588E+03
       123   8 -7.057508E+03 -4.608028E+04 -3.948733E+04 -2.251903E+04 -4.320529E+03 -9.821590E+03
       123   9 -5.829825E+04 -5.841387E+04 -4.921648E+04 -3.316331E+04 -5.238521E+03 -1.270069E+04
       123  10  3.195319E+05  3.356792E+04  3.145159E+04 -3.311385E+04 -1.457570E-09 -1.952036E-10
       123  11  3.707800E+05  4.602694E+04  4.328852E+04 -2.246992E+04 -1.693036E-10 -2.570144E-10
       123  12  4.222072E+05  5.867128E+04  5.580219E+04 -3.311610E+04  1.246082E-10  1.231365E-10
       123  13  1.819332E+05 -5.418849E-01  1.168393E+03 -3.313976E+04 -1.045087E-09 -7.638002E-10
       123  14  1.818445E+05 -2.553069E+01  1.901571E+03 -2.249449E+04 -2.046457E-09 -6.677229E-10
       123  15  1.819274E+05  1.305375E+02  3.294423E+03 -3.313974E+04 -3.925905E-09  6.703947E-11
       123  16  4.435226E+04 -3.357027E+04 -2.911596E+04 -3.316566E+04  3.257366E-10 -3.885955E-10
       123  17 -7.057554E+03 -4.608039E+04 -3.948754E+04 -2.251906E+04 -1.120232E-09 -6.529932E-10
       123  18 -5.829832E+04 -5.841405E+04 -4.921684E+04 -3.316336E+04 -3.992643E-11 -8.064590E-11
       123  19  3.195319E+05  3.356797E+04  3.145168E+04 -3.311386E+04 -1.924090E+03  6.916921E+03
       123  20  3.707801E+05  4.602705E+04  4.328870E+04 -2.246992E+04 -9.557929E+02  9.822316E+03
       123  21  4.222072E+05  5.867146E+04  5.580250E+04 -3.311610E+04  1.189193E+01  1.270083E+04
       123  22  1.819332E+05 -4.903676E-01  1.168484E+03 -3.313975E+04  7.391329E+02  6.916255E+03
       123  23  1.818446E+05 -2.542633E+01  1.901758E+03 -2.249448E+04  1.682764E+03  9.821953E+03
       123  24  1.819275E+05  1.307126E+02  3.294740E+03 -3.313971E+04  2.625706E+03  1.270076E+04
       123  25  4.435228E+04 -3.357021E+04 -2.911585E+04 -3.316564E+04  3.401772E+03  6.915588E+03
       123  26 -7.057508E+03 -4.608028E+04 -3.948733E+04 -2.251903E+04  4.320529E+03  9.821590E+03
       123  27 -5.829825E+04 -5.841387E+04 -4.921648E+04 -3.316331E+04  5.238521E+03  1.270069E+04
       124   1  4.644208E+05  6.864583E+04  6.624045E+04 -3.260964E+04 -4.969618E+02 -1.445190E+04
       124   2  5.151615E+05  8.121534E+04  8.054391E+04 -2.271839E+04 -4.775184E+03 -1.720628E+04
       124   3  5.672639E+05  9.683019E+04  9.840115E+04 -3.412279E+04 -9.052683E+03 -1.933849E+04
       124   4  1.821647E+05 -1.754655E+02  4.283880E+03 -3.314099E+04 -3.293665E+03 -1.445206E+04
       124   5  1.815287E+05 -1.158490E+02  7.386039E+03 -2.249286E+04 -7.002351E+03 -1.720697E+04
       124   6  1.821541E+05  2.891469E+03  1.364811E+04 -3.314104E+04 -1.070997E+04 -1.933955E+04
       124   7 -1.000168E+05 -6.900208E+04 -5.767751E+04 -3.367209E+04 -6.089114E+03 -1.445221E+04
       124   8 -1.519999E+05 -8.145447E+04 -6.577858E+04 -2.226746E+04 -9.228337E+03 -1.720766E+04
       124   9 -2.028171E+05 -9.105719E+04 -7.111400E+04 -3.215990E+04 -1.236623E+04 -1.934063E+04
       124  10  4.644207E+05  6.864560E+04  6.624005E+04 -3.260965E+04 -9.084347E-10  3.749439E-10
       124  11  5.151613E+05  8.121502E+04  8.054331E+04 -2.271845E+04 -8.746551E-10  5.184026E-10
       124  12  5.672638E+05  9.682977E+04  9.840030E+04 -3.412293E+04  1.540731E-09 -5.872100E-10
       124  13  1.821647E+05 -1.756927E+02  4.283467E+03 -3.314103E+04 -2.155382E-09  3.717046E-10
       124  14  1.815286E+05 -1.161801E+02  7.385390E+03 -2.249296E+04 -5.076143E-10  4.631441E-10
       124  15  1.821539E+05  2.891037E+03  1.364719E+04 -3.314120E+04  2.674602E-09 -3.677933E-10
       124  16 -1.000169E+05 -6.900231E+04 -5.767797E+04 -3.367216E+04 -9.132691E-10  2.993613E-10
       124  17 -1.520001E+05 -8.145481E+04 -6.577929E+04 -2.226759E+04 -3.893944E-11  3.988567E-10
       124  18 -2.028174E+05 -9.105763E+04 -7.111499E+04 -3.216009E+04  1.968287E-10  1.563131E-11
       124  19  4.644208E+05  6.864583E+04  6.624045E+04 -3.260964E+04  4.969618E+02  1.445190E+04
       124  20  5.151615E+05  8.121534E+04  8.054391E+04 -2.271839E+04  4.775184E+03  1.720628E+04
       124  21  5.672639E+05  9.683019E+04  9.840115E+04 -3.412279E+04  9.052683E+03  1.933849E+04
       124  22  1.821647E+05 -1.754655E+02  4.283880E+03 -3.314099E+04  3.293665E+03  1.445206E+04
       124  23  1.815287E+05 -1.158490E+02  7.386039E+03 -2.249286E+04  7.002351E+03  1.720697E+04
       124  24  1.821541E+05  2.891469E+03  1.364811E+04 -3.314104E+04  1.070997E+04  1.933955E+04
       124  25 -1.000168E+05 -6.900208E+04 -5.767751E+04 -3.367209E+04  6.089114E+03  1.445221E+04
       124  26 -1.519999E+05 -8.145447E+04 -6.577858E+04 -2.226746E+04  9.228337E+03  1.720766E+04
       124  27 -2.028171E+05 -9.105719E+04 -7.111400E+04 -3.215990E+04  1.236623E+04  1.934063E+04
       125   1  6.126499E+05  1.015126E+05  1.107718E+05 -2.526274E+04 -7.423558E+03 -2.225928E+04
       125   2  6.557810E+05  1.166992E+05  1.358892E+05 -3.138882E+04 -3.565578E+04 -2.156587E+04
       125   3  7.160065E+05  1.851866E+05  1.927202E+05 -5.827960E+04 -6.389806E+04 -6.919474E+03
       125   4  1.851766E+05 -2.666913E+03  1.716899E+04 -3.301718E+04 -1.314614E+04 -2.226138E+04
       125   5  1.777205E+05 -1.904324E+02  2.923254E+04 -2.264614E+04 -2.863244E+04 -2.156509E+04
       125   6  1.851578E+05  5.339678E+04  6.417570E+04 -3.303924E+04 -4.412613E+04 -6.912489E+03
       125   7 -2.421255E+05 -1.068583E+05 -7.644472E+04 -4.076622E+04 -1.886484E+04 -2.226333E+04
       125   8 -3.001269E+05 -1.170952E+05 -7.743823E+04 -1.391027E+04 -2.161443E+04 -2.156410E+04
       125   9 -3.454314E+05 -7.841107E+04 -6.438730E+04 -7.820528E+03 -2.437102E+04 -6.903896E+03
       125  10  6.126497E+05  1.015120E+05  1.107707E+05 -2.526287E+04 -9.995416E-10 -6.071370E-10
       125  11  6.557795E+05  1.166983E+05  1.358859E+05 -3.138944E+04 -1.059588E-09  4.037140E-10
       125  12  7.160021E+05  1.851855E+05  1.927125E+05 -5.827996E+04 -6.292331E-10  4.979429E-10
       125  13  1.851763E+05 -2.667492E+03  1.716774E+04 -3.301742E+04 -8.573730E-11 -8.016613E-10
       125  14  1.777195E+05 -1.911519E+02  2.923013E+04 -2.264663E+04 -1.641905E-09  2.886105E-10
       125  15  1.851557E+05  5.339621E+04  6.417195E+04 -3.303948E+04  8.129232E-10 -5.225253E-11
       125  16 -2.421260E+05 -1.068590E+05 -7.644632E+04 -4.076656E+04 -4.840057E-10 -1.788017E-10
       125  17 -3.001275E+05 -1.170958E+05 -7.743999E+04 -1.391065E+04 -1.076079E-09 -8.500846E-11
       125  18 -3.454321E+05 -7.841128E+04 -6.438850E+04 -7.820663E+03 -8.086162E-10  5.144011E-10
       125  19  6.126499E+05  1.015126E+05  1.107718E+05 -2.526274E+04  7.423558E+03  2.225928E+04
       125  20  6.557810E+05  1.166992E+05  1.358892E+05 -3.138882E+04  3.565578E+04  2.156587E+04
       125  21  7.160065E+05  1.851866E+05  1.927202E+05 -5.827960E+04  6.389806E+04  6.919474E+03
       125  22  1.851766E+05 -2.666913E+03  1.716899E+04 -3.301718E+04  1.314614E+04  2.226138E+04
       125  23  1.777205E+05 -1.904324E+02  2.923254E+04 -2.264614E+04  2.863244E+04  2.156509E+04
       125  24  1.851578E+05  5.339678E+04  6.417570E+04 -3.303924E+04  4.412613E+04  6.912489E+03
       125  25 -2.421255E+05 -1.068583E+05 -7.644472E+04 -4.076622E+04  1.886484E+04  2.226333E+04
       125  26 -3.001269E+05 -1.170952E+05 -7.743823E+04 -1.391027E+04  2.161443E+04  2.156410E+04
       125  27 -3.454314E+05 -7.841107E+04 -6.438730E+04 -7.820528E+03  2.437102E+04  6.903896E+03
       126   1  5.496193E+05  1.801402E+06  5.482406E+05 -3.268616E+05  2.296884E+04  1.051749E+05
       126   2  3.760689E+05  1.320906E+06  3.725227E+05 -2.154778E+05  6.664792E+04  3.947614E+04
       126   3  2.601957E+05  8.636742E+05  2.539405E+05 -2.956950E+05  5.479163E+04 -2.624754E+04
       126   4  5.028868E+04 -2.085681E+05  5.995842E+04 -3.008243E+05  2.307483E+04  3.990116E+04
       126   5  1.061526E+02 -2.155208E+05  2.829356E+04 -2.050587E+05  6.668804E+04  2.502250E+04
       126   6 -1.114428E+03 -2.081553E+05  1.859564E+04 -3.009107E+05  5.470760E+04  1.006840E+04
       126   7 -4.493342E+05 -2.214846E+06 -4.285997E+05 -2.748692E+05  2.317557E+04 -2.516251E+04
       126   8 -3.760171E+05 -1.749752E+06 -3.160840E+05 -1.946642E+05  6.672773E+04  1.060414E+04
       126   9 -2.625006E+05 -1.278908E+06 -2.168143E+05 -3.061164E+05  5.462287E+04  4.632247E+04
       126  10  5.496158E+05  1.801390E+06  5.482189E+05 -3.268636E+05  1.261954E-09  1.150614E-09
       126  11  3.760637E+05  1.320903E+06  3.725114E+05 -2.154799E+05 -6.676344E-10 -9.961335E-10
       126  12  2.601923E+05  8.636726E+05  2.539336E+05 -2.956939E+05  1.838679E-11 -1.248188E-09
       126  13  5.028768E+04 -2.085700E+05  5.995443E+04 -3.008251E+05 -2.046074E-09  5.451716E-10
       126  14  1.012086E+02 -2.155226E+05  2.828403E+04 -2.050600E+05  1.835593E-09  8.535192E-10
       126  15 -1.117669E+03 -2.081562E+05  1.858983E+04 -3.009111E+05 -1.642343E-11  4.570972E-10
       126  16 -4.493349E+05 -2.214847E+06 -4.286019E+05 -2.748688E+05 -3.344064E-10 -1.279020E-09
       126  17 -3.760219E+05 -1.749753E+06 -3.160926E+05 -1.946648E+05 -8.298369E-10 -1.400163E-11
       126  18 -2.625044E+05 -1.278911E+06 -2.168240E+05 -3.061184E+05 -3.089907E-09  9.311616E-10
       126  19  5.496193E+05  1.801402E+06  5.482406E+05 -3.268616E+05 -2.296884E+04 -1.051749E+05
       126  20  3.760689E+05  1.320906E+06  3.725227E+05 -2.154778E+05 -6.664792E+04 -3.947614E+04
       126  21  2.601957E+05  8.636742E+05  2.539405E+05 -2.956950E+05 -5.479163E+04  2.624754E+04
       126  22  5.028868E+04 -2.085681E+05  5.995842E+04 -3.008243E+05 -2.307483E+04 -3.990116E+04
       126  23  1.061526E+02 -2.155208E+05  2.829356E+04 -2.050587E+05 -6.668804E+04 -2.502250E+04
       126  24 -1.114428E+03 -2.081553E+05  1.859564E+04 -3.009107E+05 -5.470760E+04 -1.006840E+04
       126  25 -4.493342E+05 -2.214846E+06 -4.285997E+05 -2.748692E+05 -2.317557E+04  2.516251E+04
       126  26 -3.760171E+05 -1.749752E+06 -3.160840E+05 -1.946642E+05 -6.672773E+04 -1.060414E+04
       126  27 -2.625006E+05 -1.278908E+06 -2.168143E+05 -3.061164E+05 -5.462287E+04 -4.632247E+04
       127   1  1.717554E+05  4.767777E+05  1.677365E+05 -3.041218E+05  3.425052E+04 -1.349078E+04
       127   2  5.431778E+04  7.650588E+03  6.112836E+04 -2.048197E+05  1.134302E+04 -2.053519E+04
       127   3 -5.698165E+04 -4.598659E+05 -3.963170E+04 -2.995876E+05 -1.206082E+04 -2.758239E+04
       127   4  3.919876E+03 -2.108893E+05  1.616423E+04 -3.014320E+05  3.419772E+04  7.195034E+03
       127   5  8.578199E+02 -2.115230E+05  1.303094E+04 -2.043957E+05  1.128668E+04  6.008687E+02
       127   6  3.870807E+03 -2.108292E+05  1.544432E+04 -3.014322E+05 -1.212150E+04 -6.001223E+03
       127   7 -1.639472E+05 -8.981135E+05 -1.354354E+05 -2.987447E+05  3.414507E+04  2.785822E+04
       127   8 -5.260512E+04 -4.306506E+05 -3.506773E+04 -2.039718E+05  1.123035E+04  2.172956E+04
       127   9  6.471934E+04  3.826647E+04  7.051826E+04 -3.032775E+05 -1.218230E+04  1.558851E+04
       127  10  1.717541E+05  4.767771E+05  1.677339E+05 -3.041214E+05 -5.170774E-10  4.594911E-09
       127  11  5.431753E+04  7.650101E+03  6.112733E+04 -2.048195E+05  1.094396E-09 -3.974534E-09
       127  12 -5.698201E+04 -4.598668E+05 -3.963340E+04 -2.995879E+05 -1.456928E-11 -7.674319E-09
       127  13  3.918606E+03 -2.108897E+05  1.616194E+04 -3.014322E+05  4.297232E-10  1.187633E-09
       127  14  8.576830E+02 -2.115230E+05  1.303070E+04 -2.043957E+05 -1.126638E-09  1.323331E-09
       127  15  3.870640E+03 -2.108293E+05  1.544398E+04 -3.014323E+05 -2.133880E-10  5.478256E-10
       127  16 -1.639487E+05 -8.981146E+05 -1.354391E+05 -2.987455E+05 -2.306209E-09 -4.557371E-09
       127  17 -5.260538E+04 -4.306511E+05 -3.506885E+04 -2.039720E+05 -1.733840E-10  2.477784E-09
       127  18  6.471912E+04  3.826617E+04  7.051753E+04 -3.032774E+05  1.663105E-10  7.433352E-09
       127  19  1.717554E+05  4.767777E+05  1.677365E+05 -3.041218E+05 -3.425052E+04  1.349078E+04
       127  20  5.431778E+04  7.650588E+03  6.112836E+04 -2.048197E+05 -1.134302E+04  2.053519E+04
       127  21 -5.698165E+04 -4.598659E+05 -3.963170E+04 -2.995876E+05  1.206082E+04  2.758239E+04
       127  22  3.919876E+03 -2.108893E+05  1.616423E+04 -3.014320E+05 -3.419772E+04 -7.195034E+03
       127  23  8.578199E+02 -2.115230E+05  1.303094E+04 -2.043957E+05 -1.128668E+04 -6.008687E+02
       127  24  3.870807E+03 -2.108292E+05  1.544432E+04 -3.014322E+05  1.212150E+04  6.001223E+03
       127  25 -1.639472E+05 -8.981135E+05 -1.354354E+05 -2.987447E+05 -3.414507E+04 -2.785822E+04
       127  26 -5.260512E+04 -4.306506E+05 -3.506773E+04 -2.039718E+05 -1.123035E+04 -2.172956E+04
       127  27  6.471934E+04  3.826647E+04  7.051826E+04 -3.032775E+05  1.218230E+04 -1.558851E+04
       128   1 -1.550852E+05 -8.409450E+05 -1.218845E+05 -3.062907E+05 -3.161484E+04 -4.254366E+04
       128   2 -2.685354E+05 -1.311951E+06 -2.206560E+05 -1.954728E+05 -4.656322E+04 -1.585563E+04
       128   3 -3.441109E+05 -1.777196E+06 -3.274886E+05 -2.768468E+05 -1.699959E+04  1.089477E+04
       128   4 -6.605989E+02 -2.084069E+05  1.749558E+04 -3.010338E+05 -3.170573E+04 -8.733886E+03
       128   5  5.036906E+02 -2.148412E+05  2.620627E+04 -2.049048E+05 -4.654163E+04 -2.259586E+04
       128   6  4.656139E+04 -2.087013E+05  5.502810E+04 -3.009357E+05 -1.690206E+04 -3.637519E+04
       128   7  1.537379E+05  4.245082E+05  1.568554E+05 -2.957711E+05 -3.179599E+04  2.510996E+04
       128   8  2.694606E+05  8.833906E+05  2.729920E+05 -2.143527E+05 -4.651987E+04 -2.934788E+04
       128   9  4.370552E+05  1.362047E+06  4.373745E+05 -3.250842E+05 -1.680101E+04 -8.376445E+04
       128  10 -1.550868E+05 -8.409472E+05 -1.218898E+05 -3.062917E+05 -1.666144E-09  8.982173E-09
       128  11 -2.685378E+05 -1.311952E+06 -2.206605E+05 -1.954734E+05 -5.254323E-10  3.175358E-09
       128  12 -3.441112E+05 -1.777196E+06 -3.274894E+05 -2.768466E+05 -5.407812E-10 -8.808266E-10
       128  13 -6.616989E+02 -2.084072E+05  1.749354E+04 -3.010340E+05 -4.620539E-10  1.293866E-09
       128  14  5.012272E+02 -2.148423E+05  2.620124E+04 -2.049056E+05  1.605690E-09  1.108513E-09
       128  15  4.656073E+04 -2.087028E+05  5.502507E+04 -3.009362E+05  5.506233E-10  3.021234E-10
       128  16  1.537366E+05  4.245073E+05  1.568523E+05 -2.957705E+05 -8.273319E-10 -8.824235E-09
       128  17  2.694581E+05  8.833891E+05  2.729863E+05 -2.143538E+05 -1.207717E-09 -4.442002E-09
       128  18  4.370530E+05  1.362040E+06  4.373608E+05 -3.250853E+05 -9.048967E-11  5.155019E-10
       128  19 -1.550852E+05 -8.409450E+05 -1.218845E+05 -3.062907E+05  3.161484E+04  4.254366E+04
       128  20 -2.685354E+05 -1.311951E+06 -2.206560E+05 -1.954728E+05  4.656322E+04  1.585563E+04
       128  21 -3.441109E+05 -1.777196E+06 -3.274886E+05 -2.768468E+05  1.699959E+04 -1.089477E+04
       128  22 -6.605989E+02 -2.084069E+05  1.749558E+04 -3.010338E+05  3.170573E+04  8.733886E+03
       128  23  5.036906E+02 -2.148412E+05  2.620627E+04 -2.049048E+05  4.654163E+04  2.259586E+04
       128  24  4.656139E+04 -2.087013E+05  5.502810E+04 -3.009357E+05  1.690206E+04  3.637519E+04
       128  25  1.537379E+05  4.245082E+05  1.568554E+05 -2.957711E+05  3.179599E+04 -2.510996E+04
       128  26  2.694606E+05  8.833906E+05  2.729920E+05 -2.143527E+05  4.651987E+04  2.934788E+04
       128  27  4.370552E+05  1.362047E+06  4.373745E+05 -3.250842E+05  1.680101E+04  8.376445E+04
       129   1 -1.649974E+06 -5.534818E+05 -3.122769E+05 -6.131892E+05 -1.366645E+05 -4.360616E+04
       129   2 -1.600941E+06 -3.580575E+05 -1.869211E+05 -6.021197E+05 -8.785715E+04 -8.948507E+03
       129   3 -1.596952E+06 -3.169928E+05 -1.401548E+05 -5.723987E+05 -3.380048E+04  1.175906E+04
       129   4 -1.207861E+06 -3.243829E+05 -1.819585E+05 -4.283953E+05 -1.185876E+05 -3.683043E+04
       129   5 -1.176626E+06 -1.785516E+05 -7.880904E+04 -4.639342E+05 -8.164255E+04 -6.619089E+03
       129   6 -1.188043E+06 -1.846742E+05 -4.479531E+04 -4.808344E+05 -3.945263E+04  9.637043E+03
       129   7 -7.655479E+05 -9.521426E+04 -5.165767E+04 -2.434652E+05 -1.004966E+05 -3.004480E+04
       129   8 -7.521315E+05  9.816958E+02  2.928876E+04 -3.256573E+05 -7.542330E+04 -4.287384E+03
       129   9 -7.789657E+05 -5.235274E+04  5.055361E+04 -3.892191E+05 -4.510886E+04  7.513944E+03
       129  10 -1.649994E+06 -5.534888E+05 -3.123157E+05 -6.131941E+05 -3.321322E-11  1.884383E-10
       129  11 -1.600950E+06 -3.580596E+05 -1.869358E+05 -6.021203E+05  1.455984E-10  7.993290E-10
       129  12 -1.596953E+06 -3.169933E+05 -1.401572E+05 -5.723984E+05  5.165731E-10  3.487988E-10
       129  13 -1.207876E+06 -3.243881E+05 -1.819876E+05 -4.283988E+05  8.770633E-10  4.645217E-10
       129  14 -1.176634E+06 -1.785534E+05 -7.882168E+04 -4.639346E+05 -1.999460E-10  5.277942E-11
       129  15 -1.188044E+06 -1.846748E+05 -4.479841E+04 -4.808341E+05 -3.444166E-10  4.694050E-10
       129  16 -7.655590E+05 -9.521795E+04 -5.167838E+04 -2.434676E+05  7.313917E-11  7.350458E-11
       129  17 -7.521376E+05  9.801464E+02  2.927802E+04 -3.256576E+05  5.411882E-10 -3.011036E-10
       129  18 -7.789679E+05 -5.235335E+04  5.054967E+04 -3.892189E+05  4.241345E-10  3.389664E-10
       129  19 -1.649974E+06 -5.534818E+05 -3.122769E+05 -6.131892E+05  1.366645E+05  4.360616E+04
       129  20 -1.600941E+06 -3.580575E+05 -1.869211E+05 -6.021197E+05  8.785715E+04  8.948507E+03
       129  21 -1.596952E+06 -3.169928E+05 -1.401548E+05 -5.723987E+05  3.380048E+04 -1.175906E+04
       129  22 -1.207861E+06 -3.243829E+05 -1.819585E+05 -4.283953E+05  1.185876E+05  3.683043E+04
       129  23 -1.176626E+06 -1.785516E+05 -7.880904E+04 -4.639342E+05  8.164255E+04  6.619089E+03
       129  24 -1.188043E+06 -1.846742E+05 -4.479531E+04 -4.808344E+05  3.945263E+04 -9.637043E+03
       129  25 -7.655479E+05 -9.521426E+04 -5.165767E+04 -2.434652E+05  1.004966E+05  3.004480E+04
       129  26 -7.521315E+05  9.816958E+02  2.928876E+04 -3.256573E+05  7.542330E+04  4.287384E+03
       129  27 -7.789657E+05 -5.235274E+04  5.055361E+04 -3.892191E+05  4.510886E+04 -7.513944E+03
       130   1 -1.534332E+06 -3.326703E+05 -1.216985E+05 -5.720673E+05 -3.113830E+04  9.352503E+03
       130   2 -1.493476E+06 -2.972468E+05 -9.262414E+04 -5.511297E+05 -2.057771E+04  1.099902E+04
       130   3 -1.441941E+06 -2.857972E+05 -7.320758E+04 -5.456779E+05 -9.776815E+03  1.200406E+04
       130   4 -1.182152E+06 -1.985697E+05 -3.552927E+04 -4.725115E+05 -3.260568E+04  8.800677E+03
       130   5 -1.186941E+06 -1.824078E+05 -1.822030E+04 -4.663514E+05 -2.258650E+04  1.024461E+04
       130   6 -1.180941E+06 -1.901086E+05 -1.013485E+04 -4.756775E+05 -1.232787E+04  1.104684E+04
       130   7 -8.298493E+05 -6.445918E+04  5.063062E+04 -3.729037E+05 -3.407397E+04  8.248495E+03
       130   8 -8.803126E+05 -6.756237E+04  5.617633E+04 -3.815351E+05 -2.459637E+04  9.489780E+03
       130   9 -9.198759E+05 -9.441627E+04  5.293250E+04 -4.056509E+05 -1.488009E+04  1.008920E+04
       130  10 -1.534333E+06 -3.326706E+05 -1.217005E+05 -5.720671E+05  3.492279E-10 -5.345883E-11
       130  11 -1.493477E+06 -2.972470E+05 -9.262516E+04 -5.511295E+05 -1.286934E-09 -7.175582E-10
       130  12 -1.441941E+06 -2.857973E+05 -7.320803E+04 -5.456778E+05  6.282706E-10  4.302669E-10
       130  13 -1.182153E+06 -1.985701E+05 -3.553141E+04 -4.725113E+05 -7.421369E-10 -2.808491E-10
       130  14 -1.186941E+06 -1.824081E+05 -1.822146E+04 -4.663512E+05 -2.073574E-10 -5.015633E-10
       130  15 -1.180942E+06 -1.901087E+05 -1.013537E+04 -4.756774E+05  9.450532E-10  1.092434E-09
       130  16 -8.298506E+05 -6.445957E+04  5.062831E+04 -3.729034E+05 -1.178045E-09 -2.838110E-10
       130  17 -8.803132E+05 -6.756263E+04  5.617502E+04 -3.815349E+05  1.982052E-09 -3.203632E-10
       130  18 -9.198761E+05 -9.441644E+04  5.293189E+04 -4.056508E+05  3.633805E-09  1.729774E-09
       130  19 -1.534332E+06 -3.326703E+05 -1.216985E+05 -5.720673E+05  3.113830E+04 -9.352503E+03
       130  20 -1.493476E+06 -2.972468E+05 -9.262414E+04 -5.511297E+05  2.057771E+04 -1.099902E+04
       130  21 -1.441941E+06 -2.857972E+05 -7.320758E+04 -5.456779E+05  9.776815E+03 -1.200406E+04
       130  22 -1.182152E+06 -1.985697E+05 -3.552927E+04 -4.725115E+05  3.260568E+04 -8.800677E+03
       130  23 -1.186941E+06 -1.824078E+05 -1.822030E+04 -4.663514E+05  2.258650E+04 -1.024461E+04
       130  24 -1.180941E+06 -1.901086E+05 -1.013485E+04 -4.756775E+05  1.232787E+04 -1.104684E+04
       130  25 -8.298493E+05 -6.445918E+04  5.063062E+04 -3.729037E+05  3.407397E+04 -8.248495E+03
       130  26 -8.803126E+05 -6.756237E+04  5.617633E+04 -3.815351E+05  2.459637E+04 -9.489780E+03
       130  27 -9.198759E+05 -9.441627E+04  5.293250E+04 -4.056509E+05  1.488009E+04 -1.008920E+04
       131   1 -1.399879E+06 -2.725567E+05 -6.069964E+04 -5.352747E+05 -7.888271E+03  1.076711E+04
       131   2 -1.359557E+06 -2.465485E+05 -4.576736E+04 -5.134312E+05 -4.700165E+03  8.769161E+03
       131   3 -1.304331E+06 -2.364877E+05 -3.257120E+04 -5.091539E+05 -1.498956E+03  6.734675E+03
       131   4 -1.180389E+06 -1.909500E+05 -7.723626E+03 -4.751623E+05 -1.026018E+04  9.877355E+03
       131   5 -1.187805E+06 -1.827380E+05 -4.212938E+03 -4.664678E+05 -7.102500E+03  7.868304E+03
       131   6 -1.180314E+06 -1.904673E+05 -2.413890E+03 -4.753402E+05 -3.931911E+03  5.822670E+03
       131   7 -9.608498E+05 -1.093396E+05  4.524916E+04 -4.150303E+05 -1.263301E+04  8.987249E+03
       131   8 -1.016023E+06 -1.189253E+05  3.733945E+04 -4.194924E+05 -9.505567E+03  6.967174E+03
       131   9 -1.056282E+06 -1.444459E+05  2.774230E+04 -4.415203E+05 -6.365397E+03  4.910466E+03
       131  10 -1.399879E+06 -2.725568E+05 -6.069997E+04 -5.352746E+05  3.244446E-09  2.033730E-09
       131  11 -1.359557E+06 -2.465486E+05 -4.576755E+04 -5.134312E+05  4.366995E-10  2.874583E-10
       131  12 -1.304331E+06 -2.364877E+05 -3.257129E+04 -5.091539E+05  1.927473E-09  2.579301E-10
       131  13 -1.180389E+06 -1.909501E+05 -7.724007E+03 -4.751623E+05 -5.284557E-10  1.268577E-09
       131  14 -1.187805E+06 -1.827381E+05 -4.213149E+03 -4.664677E+05  6.668576E-10 -1.285986E-10
       131  15 -1.180314E+06 -1.904673E+05 -2.413982E+03 -4.753401E+05  1.768654E-09 -3.213746E-10
       131  16 -9.608500E+05 -1.093397E+05  4.524871E+04 -4.150302E+05  1.081747E-09  8.019459E-10
       131  17 -1.016023E+06 -1.189254E+05  3.733919E+04 -4.194923E+05 -1.249896E-09 -2.425622E-10
       131  18 -1.056282E+06 -1.444459E+05  2.774218E+04 -4.415202E+05  4.136117E-09 -7.748763E-11
       131  19 -1.399879E+06 -2.725567E+05 -6.069964E+04 -5.352747E+05  7.888271E+03 -1.076711E+04
       131  20 -1.359557E+06 -2.465485E+05 -4.576736E+04 -5.134312E+05  4.700165E+03 -8.769161E+03
       131  21 -1.304331E+06 -2.364877E+05 -3.257120E+04 -5.091539E+05  1.498956E+03 -6.734675E+03
       131  22 -1.180389E+06 -1.909500E+05 -7.723626E+03 -4.751623E+05  1.026018E+04 -9.877355E+03
       131  23 -1.187805E+06 -1.827380E+05 -4.212938E+03 -4.664678E+05  7.102500E+03 -7.868304E+03
       131  24 -1.180314E+06 -1.904673E+05 -2.413890E+03 -4.753402E+05  3.931911E+03 -5.822670E+03
       131  25 -9.608498E+05 -1.093396E+05  4.524916E+04 -4.150303E+05  1.263301E+04 -8.987249E+03
       131  26 -1.016023E+06 -1.189253E+05  3.733945E+04 -4.194924E+05  9.505567E+03 -6.967174E+03
       131  27 -1.056282E+06 -1.444459E+05  2.774230E+04 -4.415203E+05  6.365397E+03 -4.910466E+03
       132   1 -1.263369E+06 -2.213691E+05 -2.183252E+04 -4.980520E+05 -5.257959E+02  5.205061E+03
       132   2 -1.222985E+06 -1.957860E+05 -9.738212E+03 -4.760406E+05  1.170159E+03  2.589594E+03
       132   3 -1.167246E+06 -1.857005E+05  1.878591E+03 -4.717587E+05  2.867163E+03 -2.906174E+01
       132   4 -1.180234E+06 -1.905221E+05 -1.890236E+03 -4.753180E+05 -2.954548E+03  4.294755E+03
       132   5 -1.187908E+06 -1.827623E+05 -1.254177E+03 -4.664567E+05 -1.261314E+03  1.678336E+03
       132   6 -1.180230E+06 -1.904999E+05 -1.093453E+03 -4.753259E+05  4.329076E+02 -9.412773E+02
       132   7 -1.097093E+06 -1.596747E+05  1.805153E+04 -4.525813E+05 -5.383650E+03  3.384319E+03
       132   8 -1.152831E+06 -1.697387E+05  7.229738E+03 -4.568725E+05 -3.692924E+03  7.670275E+02
       132   9 -1.193214E+06 -1.952992E+05 -4.065449E+03 -4.788930E+05 -2.001270E+03 -1.853464E+03
       132  10 -1.263369E+06 -2.213692E+05 -2.183257E+04 -4.980520E+05  4.584921E-09  1.280529E-09
       132  11 -1.222985E+06 -1.957860E+05 -9.738227E+03 -4.760406E+05  2.740284E-09  3.648911E-10
       132  12 -1.167246E+06 -1.857005E+05  1.878576E+03 -4.717587E+05 -1.074092E-09  3.844208E-10
       132  13 -1.180234E+06 -1.905221E+05 -1.890287E+03 -4.753180E+05  4.254884E-09  2.531523E-10
       132  14 -1.187908E+06 -1.827623E+05 -1.254185E+03 -4.664567E+05  3.738018E-09  3.794023E-11
       132  15 -1.180230E+06 -1.904999E+05 -1.093455E+03 -4.753259E+05  4.810465E-10 -4.801739E-11
       132  16 -1.097093E+06 -1.596747E+05  1.805145E+04 -4.525812E+05  1.525504E-09 -5.245913E-10
       132  17 -1.152831E+06 -1.697387E+05  7.229711E+03 -4.568725E+05  8.804271E-12 -5.838267E-10
       132  18 -1.193214E+06 -1.952992E+05 -4.065463E+03 -4.788930E+05  2.132341E-11  2.382815E-10
       132  19 -1.263369E+06 -2.213691E+05 -2.183252E+04 -4.980520E+05  5.257959E+02 -5.205061E+03
       132  20 -1.222985E+06 -1.957860E+05 -9.738212E+03 -4.760406E+05 -1.170159E+03 -2.589594E+03
       132  21 -1.167246E+06 -1.857005E+05  1.878591E+03 -4.717587E+05 -2.867163E+03  2.906174E+01
       132  22 -1.180234E+06 -1.905221E+05 -1.890236E+03 -4.753180E+05  2.954548E+03 -4.294755E+03
       132  23 -1.187908E+06 -1.827623E+05 -1.254177E+03 -4.664567E+05  1.261314E+03 -1.678336E+03
       132  24 -1.180230E+06 -1.904999E+05 -1.093453E+03 -4.753259E+05 -4.329076E+02  9.412773E+02
       132  25 -1.097093E+06 -1.596747E+05  1.805153E+04 -4.525813E+05  5.383650E+03 -3.384319E+03
       132  26 -1.152831E+06 -1.697387E+05  7.229738E+03 -4.568725E+05  3.692924E+03 -7.670275E+02
       132  27 -1.193214E+06 -1.952992E+05 -4.065449E+03 -4.788930E+05  2.001270E+03  1.853464E+03
       133   1 -1.126333E+06 -1.704346E+05  1.205377E+04 -4.605868E+05  3.675484E+03 -1.621181E+03
       133   2 -1.086008E+06 -1.449170E+05  2.303263E+04 -4.386011E+05  5.541549E+03 -4.172294E+03
       133   3 -1.030378E+06 -1.348874E+05  3.340448E+04 -4.343164E+05  7.405621E+03 -6.716532E+03
       133   4 -1.180241E+06 -1.904945E+05 -1.157150E+03 -4.753212E+05  1.242502E+03 -2.532960E+03
       133   5 -1.187897E+06 -1.827677E+05 -1.612711E+03 -4.664641E+05  3.114140E+03 -5.082201E+03
       133   6 -1.180249E+06 -1.905303E+05 -2.679428E+03 -4.753091E+05  4.983710E+03 -7.624577E+03
       133   7 -1.234147E+06 -2.105545E+05 -1.436843E+04 -4.900545E+05 -1.190275E+03 -3.444663E+03
       133   8 -1.289775E+06 -2.206181E+05 -2.625903E+04 -4.943231E+05  6.871446E+02 -5.991952E+03
       133   9 -1.330099E+06 -2.461719E+05 -3.876521E+04 -5.162931E+05  2.562422E+03 -8.532390E+03
       133  10 -1.126333E+06 -1.704346E+05  1.205374E+04 -4.605868E+05 -5.551620E-10 -8.064835E-11
       133  11 -1.086008E+06 -1.449170E+05  2.303254E+04 -4.386011E+05  6.301164E-10 -7.921914E-10
       133  12 -1.030378E+06 -1.348874E+05  3.340429E+04 -4.343163E+05  7.044608E-10 -6.062547E-10
       133  13 -1.180241E+06 -1.904945E+05 -1.157165E+03 -4.753212E+05  1.024962E-09  6.012818E-11
       133  14 -1.187897E+06 -1.827677E+05 -1.612778E+03 -4.664641E+05 -1.269849E-09 -1.055333E-10
       133  15 -1.180249E+06 -1.905303E+05 -2.679584E+03 -4.753091E+05  3.866632E-10 -3.720669E-10
       133  16 -1.234147E+06 -2.105545E+05 -1.436846E+04 -4.900545E+05 -3.533531E-10  9.136525E-11
       133  17 -1.289775E+06 -2.206181E+05 -2.625910E+04 -4.943231E+05 -2.389500E-10  6.337024E-10
       133  18 -1.330099E+06 -2.461720E+05 -3.876536E+04 -5.162931E+05 -1.194981E-09 -4.638823E-10
       133  19 -1.126333E+06 -1.704346E+05  1.205377E+04 -4.605868E+05 -3.675484E+03  1.621181E+03
       133  20 -1.086008E+06 -1.449170E+05  2.303263E+04 -4.386011E+05 -5.541549E+03  4.172294E+03
       133  21 -1.030378E+06 -1.348874E+05  3.340448E+04 -4.343164E+05 -7.405621E+03  6.716532E+03
       133  22 -1.180241E+06 -1.904945E+05 -1.157150E+03 -4.753212E+05 -1.242502E+03  2.532960E+03
       133  23 -1.187897E+06 -1.827677E+05 -1.612711E+03 -4.664641E+05 -3.114140E+03  5.082201E+03
       133  24 -1.180249E+06 -1.905303E+05 -2.679428E+03 -4.753091E+05 -4.983710E+03  7.624577E+03
       133  25 -1.234147E+06 -2.105545E+05 -1.436843E+04 -4.900545E+05  1.190275E+03  3.444663E+03
       133  26 -1.289775E+06 -2.206181E+05 -2.625903E+04 -4.943231E+05 -6.871446E+02  5.991952E+03
       133  27 -1.330099E+06 -2.461719E+05 -3.876521E+04 -5.162931E+05 -2.562422E+03  8.532390E+03
       134   1 -9.897289E+05 -1.197121E+05  4.276357E+04 -4.233353E+05  8.538464E+03 -8.179736E+03
       134   2 -9.496045E+05 -9.426968E+04  5.136650E+04 -4.013574E+05  1.267898E+04 -9.845290E+03
       134   3 -8.948633E+05 -8.496333E+04  5.746505E+04 -3.968244E+05  1.680454E+04 -1.146715E+04
       134   4 -1.180376E+06 -1.904464E+05 -3.497877E+03 -4.753401E+05  6.113528E+03 -9.089115E+03
       134   5 -1.187734E+06 -1.827333E+05 -6.232658E+03 -4.664844E+05  1.028975E+04 -1.074173E+04
       134   6 -1.180486E+06 -1.911641E+05 -1.150099E+04 -4.750749E+05  1.445077E+04 -1.235073E+04
       134   7 -1.370985E+06 -2.611777E+05 -4.976152E+04 -5.273299E+05  3.689427E+03 -9.998184E+03
       134   8 -1.425807E+06 -2.711927E+05 -6.383580E+04 -5.315885E+05  7.901520E+03 -1.163779E+04
       134   9 -1.466028E+06 -2.973595E+05 -8.047329E+04 -5.532928E+05  1.209818E+04 -1.323387E+04
       134  10 -9.897290E+05 -1.197122E+05  4.276331E+04 -4.233352E+05  4.362533E-10 -2.874228E-10
       134  11 -9.496047E+05 -9.426982E+04  5.136602E+04 -4.013573E+05  1.163131E-09 -4.473974E-10
       134  12 -8.948637E+05 -8.496354E+04  5.746427E+04 -3.968242E+05 -1.229924E-09  5.132479E-10
       134  13 -1.180376E+06 -1.904465E+05 -3.498102E+03 -4.753400E+05 -1.397052E-09 -6.422947E-10
       134  14 -1.187734E+06 -1.827334E+05 -6.233074E+03 -4.664843E+05 -2.280022E-09 -3.434588E-10
       134  15 -1.180486E+06 -1.911643E+05 -1.150167E+04 -4.750747E+05  5.034039E-10  1.067107E-09
       134  16 -1.370985E+06 -2.611778E+05 -4.976173E+04 -5.273298E+05 -1.142954E-09 -5.054213E-10
       134  17 -1.425807E+06 -2.711928E+05 -6.383617E+04 -5.315884E+05  7.073138E-10  1.780970E-10
       134  18 -1.466028E+06 -2.973597E+05 -8.047390E+04 -5.532927E+05  1.553519E-09  1.698424E-09
       134  19 -9.897289E+05 -1.197121E+05  4.276357E+04 -4.233353E+05 -8.538464E+03  8.179736E+03
       134  20 -9.496045E+05 -9.426968E+04  5.136650E+04 -4.013574E+05 -1.267898E+04  9.845290E+03
       134  21 -8.948633E+05 -8.496333E+04  5.746505E+04 -3.968244E+05 -1.680454E+04  1.146715E+04
       134  22 -1.180376E+06 -1.904464E+05 -3.497877E+03 -4.753401E+05 -6.113528E+03  9.089115E+03
       134  23 -1.187734E+06 -1.827333E+05 -6.232658E+03 -4.664844E+05 -1.028975E+04  1.074173E+04
       134  24 -1.180486E+06 -1.911641E+05 -1.150099E+04 -4.750749E+05 -1.445077E+04  1.235073E+04
       134  25 -1.370985E+06 -2.611777E+05 -4.976152E+04 -5.273299E+05 -3.689427E+03  9.998184E+03
       134  26 -1.425807E+06 -2.711927E+05 -6.383580E+04 -5.315885E+05 -7.901520E+03  1.163779E+04
       134  27 -1.466028E+06 -2.973595E+05 -8.047329E+04 -5.532928E+05 -1.209818E+04  1.323387E+04
       135   1 -8.539280E+05 -7.024759E+04  6.387450E+04 -3.883675E+05  1.977185E+04 -1.229440E+04
       135   2 -8.147109E+05 -4.273864E+04  6.303621E+04 -3.632048E+05  3.396502E+04 -9.967061E+03
       135   3 -7.668811E+05 -4.313208E+04  4.891583E+04 -3.524480E+05  4.788868E+04 -6.915145E+03
       135   4 -1.181304E+06 -1.899203E+05 -1.511095E+04 -4.758602E+05  1.721725E+04 -1.325363E+04
       135   5 -1.186449E+06 -1.822173E+05 -2.719213E+04 -4.662928E+05  3.201956E+04 -1.069848E+04
       135   6 -1.183109E+06 -2.025439E+05 -5.304511E+04 -4.711325E+05  4.655132E+04 -7.419065E+03
       135   7 -1.508573E+06 -3.095860E+05 -9.410383E+04 -5.633109E+05  1.466412E+04 -1.421233E+04
       135   8 -1.558050E+06 -3.216858E+05 -1.174308E+05 -5.693244E+05  3.007536E+04 -1.142942E+04
       135   9 -1.599166E+06 -3.619418E+05 -1.550198E+05 -5.897441E+05  4.521492E+04 -7.922600E+03
       135  10 -8.539284E+05 -7.024786E+04  6.387348E+04 -3.883673E+05  8.128849E-10  1.297082E-09
       135  11 -8.147122E+05 -4.273906E+04  6.303385E+04 -3.632045E+05 -1.410785E-09  8.637356E-11
       135  12 -7.668835E+05 -4.313275E+04  4.891143E+04 -3.524478E+05  1.262942E-09 -3.712216E-10
       135  13 -1.181305E+06 -1.899206E+05 -1.511184E+04 -4.758600E+05 -2.919210E-10  8.912884E-10
       135  14 -1.186450E+06 -1.822177E+05 -2.719428E+04 -4.662926E+05  1.145062E-09 -2.558570E-10
       135  15 -1.183111E+06 -2.025445E+05 -5.304930E+04 -4.711322E+05  3.075324E-09  6.448176E-11
       135  16 -1.508573E+06 -3.095863E+05 -9.410461E+04 -5.633108E+05 -8.633609E-10  3.242493E-10
       135  17 -1.558051E+06 -3.216862E+05 -1.174327E+05 -5.693242E+05  1.633357E-09 -5.317988E-10
       135  18 -1.599169E+06 -3.619425E+05 -1.550237E+05 -5.897438E+05  4.716173E-09  4.517487E-10
       135  19 -8.539280E+05 -7.024759E+04  6.387450E+04 -3.883675E+05 -1.977185E+04  1.229440E+04
       135  20 -8.147109E+05 -4.273864E+04  6.303621E+04 -3.632048E+05 -3.396502E+04  9.967061E+03
       135  21 -7.668811E+05 -4.313208E+04  4.891583E+04 -3.524480E+05 -4.788868E+04  6.915145E+03
       135  22 -1.181304E+06 -1.899203E+05 -1.511095E+04 -4.758602E+05 -1.721725E+04  1.325363E+04
       135  23 -1.186449E+06 -1.822173E+05 -2.719213E+04 -4.662928E+05 -3.201956E+04  1.069848E+04
       135  24 -1.183109E+06 -2.025439E+05 -5.304511E+04 -4.711325E+05 -4.655132E+04  7.419065E+03
       135  25 -1.508573E+06 -3.095860E+05 -9.410383E+04 -5.633109E+05 -1.466412E+04  1.421233E+04
       135  26 -1.558050E+06 -3.216858E+05 -1.174308E+05 -5.693244E+05 -3.007536E+04  1.142942E+04
       135  27 -1.599166E+06 -3.619418E+05 -1.550198E+05 -5.897441E+05 -4.521492E+04  7.922600E+03
       136   1 -7.109918E+05 -3.260030E+04  4.406908E+04 -3.824060E+05  6.233078E+04 -5.076087E+03
       136   2 -6.903241E+05  3.470259E+04  6.115626E+03 -2.980106E+05  1.118766E+05  1.445067E+04
       136   3 -7.380462E+05 -1.147525E+05 -1.244257E+05 -1.773417E+05  1.555196E+05  4.969132E+04
       136   4 -1.191847E+06 -1.818540E+05 -6.688334E+04 -4.836296E+05  5.627939E+04 -7.347727E+03
       136   5 -1.171102E+06 -1.763749E+05 -1.176619E+05 -4.626035E+05  1.191777E+05  1.718656E+04
       136   6 -1.221472E+06 -3.904211E+05 -2.716784E+05 -4.052895E+05  1.761683E+05  5.742741E+04
       136   7 -1.672474E+06 -3.311075E+05 -1.778510E+05 -5.847897E+05  5.023310E+04 -9.618188E+03
       136   8 -1.651644E+06 -3.874080E+05 -2.414566E+05 -6.270698E+05  1.264726E+05  1.991915E+04
       136   9 -1.704636E+06 -6.659613E+05 -4.189473E+05 -6.330417E+05  1.967989E+05  6.514888E+04
       136  10 -7.109959E+05 -3.260137E+04  4.406172E+04 -3.824058E+05  2.504966E-09  7.782278E-10
       136  11 -6.903376E+05  3.469900E+04  6.091683E+03 -2.980119E+05  7.959645E-10 -5.659790E-10
       136  12 -7.380728E+05 -1.147617E+05 -1.244758E+05 -1.773480E+05 -3.119185E-10 -3.377553E-10
       136  13 -1.191850E+06 -1.818549E+05 -6.688940E+04 -4.836293E+05  3.119982E-09 -1.863056E-10
       136  14 -1.171117E+06 -1.763791E+05 -1.176892E+05 -4.626051E+05 -3.972673E-10  3.877662E-11
       136  15 -1.221506E+06 -3.904330E+05 -2.717431E+05 -4.052977E+05 -5.676943E-10 -2.430353E-10
       136  16 -1.672476E+06 -3.311082E+05 -1.778559E+05 -5.847893E+05  1.535624E-09  2.370246E-10
       136  17 -1.651661E+06 -3.874128E+05 -2.414875E+05 -6.270719E+05  8.879977E-10 -8.042495E-10
       136  18 -1.704679E+06 -6.659763E+05 -4.190283E+05 -6.330520E+05  6.566132E-11  8.592630E-10
       136  19 -7.109918E+05 -3.260030E+04  4.406908E+04 -3.824060E+05 -6.233078E+04  5.076087E+03
       136  20 -6.903241E+05  3.470259E+04  6.115626E+03 -2.980106E+05 -1.118766E+05 -1.445067E+04
       136  21 -7.380462E+05 -1.147525E+05 -1.244257E+05 -1.773417E+05 -1.555196E+05 -4.969132E+04
       136  22 -1.191847E+06 -1.818540E+05 -6.688334E+04 -4.836296E+05 -5.627939E+04  7.347727E+03
       136  23 -1.171102E+06 -1.763749E+05 -1.176619E+05 -4.626035E+05 -1.191777E+05 -1.718656E+04
       136  24 -1.221472E+06 -3.904211E+05 -2.716784E+05 -4.052895E+05 -1.761683E+05 -5.742741E+04
       136  25 -1.672474E+06 -3.311075E+05 -1.778510E+05 -5.847897E+05 -5.023310E+04  9.618188E+03
       136  26 -1.651644E+06 -3.874080E+05 -2.414566E+05 -6.270698E+05 -1.264726E+05 -1.991915E+04
       136  27 -1.704636E+06 -6.659613E+05 -4.189473E+05 -6.330417E+05 -1.967989E+05 -6.514888E+04
       137   1 -1.093762E+05 -2.100745E+04 -7.755799E+03  9.000947E+03  3.488504E+04  4.095287E+03
       137   2 -8.879483E+04 -6.944240E+04 -3.235547E+04 -2.856445E+03  2.599196E+04  1.281279E+04
       137   3 -5.385259E+04 -6.524574E+04 -3.799929E+04 -2.584750E+04  1.710279E+04  1.335987E+04
       137   4  2.022834E+05  5.638064E+04  6.772869E+04 -1.769530E+04  4.658077E+04  4.100092E+03
       137   5  1.944651E+05 -1.616770E+02  3.085306E+04 -1.211464E+04  3.023016E+04  1.281393E+04
       137   6  2.022933E+05 -2.792171E+03  1.810453E+04 -1.766670E+04  1.388399E+04  1.335853E+04
       137   7  5.140336E+05  1.337644E+05  1.432071E+05 -4.440501E+04  5.828236E+04  4.103890E+03
       137   8  4.778000E+05  6.911393E+04  9.405668E+04 -2.137712E+04  3.447027E+04  1.281495E+04
       137   9  4.585008E+05  5.965728E+04  7.420445E+04 -9.482494E+03  1.066388E+04  1.335709E+04
       137  10 -1.093775E+05 -2.100780E+04 -7.758117E+03  9.000832E+03  5.859668E-10 -7.175509E-10
       137  11 -8.879560E+04 -6.944276E+04 -3.235705E+04 -2.856713E+03 -7.355299E-10 -1.544834E-10
       137  12 -5.385295E+04 -6.524601E+04 -3.800017E+04 -2.584769E+04 -1.784212E-09 -1.815162E-10
       137  13  2.022811E+05  5.638004E+04  6.772458E+04 -1.769546E+04  1.423732E-10  2.670957E-10
       137  14  1.944641E+05 -1.620986E+02  3.085104E+04 -1.211496E+04  1.648933E-09 -2.427301E-10
       137  15  2.022930E+05 -2.792414E+03  1.810384E+04 -1.766685E+04  1.828311E-09 -3.175944E-10
       137  16  5.140300E+05  1.337634E+05  1.432007E+05 -4.440520E+04 -7.621234E-10  2.854980E-10
       137  17  4.777987E+05  6.911343E+04  9.405414E+04 -2.137747E+04  1.699651E-09 -6.231120E-11
       137  18  4.585006E+05  5.965705E+04  7.420390E+04 -9.482609E+03  2.405275E-09  7.507333E-10
       137  19 -1.093762E+05 -2.100745E+04 -7.755799E+03  9.000947E+03 -3.488504E+04 -4.095287E+03
       137  20 -8.879483E+04 -6.944240E+04 -3.235547E+04 -2.856445E+03 -2.599196E+04 -1.281279E+04
       137  21 -5.385259E+04 -6.524574E+04 -3.799929E+04 -2.584750E+04 -1.710279E+04 -1.335987E+04
       137  22  2.022834E+05  5.638064E+04  6.772869E+04 -1.769530E+04 -4.658077E+04 -4.100092E+03
       137  23  1.944651E+05 -1.616770E+02  3.085306E+04 -1.211464E+04 -3.023016E+04 -1.281393E+04
       137  24  2.022933E+05 -2.792171E+03  1.810453E+04 -1.766670E+04 -1.388399E+04 -1.335853E+04
       137  25  5.140336E+05  1.337644E+05  1.432071E+05 -4.440501E+04 -5.828236E+04 -4.103890E+03
       137  26  4.778000E+05  6.911393E+04  9.405668E+04 -2.137712E+04 -3.447027E+04 -1.281495E+04
       137  27  4.585008E+05  5.965728E+04  7.420445E+04 -9.482494E+03 -1.066388E+04 -1.335709E+04
       138   1 -3.429573E+04 -5.388377E+04 -3.699775E+04 -1.672369E+04  1.215681E+04  1.173047E+04
       138   2 -7.325741E+03 -5.029093E+04 -3.737160E+04 -1.182201E+04  8.592832E+03  1.062271E+04
       138   3  2.089327E+04 -4.365325E+04 -3.465847E+04 -1.835136E+04  5.028446E+03  9.150827E+03
       138   4  1.991079E+05  3.068933E+03  1.438509E+04 -1.774071E+04  1.131649E+04  1.172986E+04
       138   5  1.984571E+05 -1.115835E+02  7.762857E+03 -1.202491E+04  7.419083E+03  1.062216E+04
       138   6  1.991119E+05 -1.900034E+02  4.458208E+03 -1.773987E+04  3.521424E+03  9.150372E+03
       138   7  4.325625E+05  6.001799E+04  6.576461E+04 -1.875812E+04  1.047586E+04  1.172926E+04
       138   8  4.042796E+05  5.006494E+04  5.289474E+04 -1.222789E+04  6.244950E+03  1.062161E+04
       138   9  3.773602E+05  4.327112E+04  4.357296E+04 -1.712820E+04  2.013974E+03  9.149915E+03
       138  10 -3.429592E+04 -5.388396E+04 -3.699829E+04 -1.672380E+04 -2.876167E-10  1.866781E-10
       138  11 -7.325851E+03 -5.029108E+04 -3.737195E+04 -1.182209E+04 -1.240698E-09  2.827528E-10
       138  12  2.089322E+04 -4.365334E+04 -3.465868E+04 -1.835139E+04  5.706126E-11 -4.119015E-10
       138  13  1.991077E+05  3.068751E+03  1.438460E+04 -1.774081E+04 -9.678695E-10  7.978832E-10
       138  14  1.984570E+05 -1.117194E+02  7.762542E+03 -1.202498E+04  1.165099E-09  3.408506E-10
       138  15  1.991118E+05 -1.900966E+02  4.458027E+03 -1.773989E+04  1.559318E-09 -6.330021E-10
       138  16  4.325623E+05  6.001781E+04  6.576414E+04 -1.875821E+04  5.166042E-10  4.316867E-10
       138  17  4.042795E+05  5.006481E+04  5.289446E+04 -1.222794E+04  1.872253E-09 -1.826873E-10
       138  18  3.773602E+05  4.327103E+04  4.357280E+04 -1.712822E+04 -5.281710E-10 -4.452959E-10
       138  19 -3.429573E+04 -5.388377E+04 -3.699775E+04 -1.672369E+04 -1.215681E+04 -1.173047E+04
       138  20 -7.325741E+03 -5.029093E+04 -3.737160E+04 -1.182201E+04 -8.592832E+03 -1.062271E+04
       138  21  2.089327E+04 -4.365325E+04 -3.465847E+04 -1.835136E+04 -5.028446E+03 -9.150827E+03
       138  22  1.991079E+05  3.068933E+03  1.438509E+04 -1.774071E+04 -1.131649E+04 -1.172986E+04
       138  23  1.984571E+05 -1.115835E+02  7.762857E+03 -1.202491E+04 -7.419083E+03 -1.062216E+04
       138  24  1.991119E+05 -1.900034E+02  4.458208E+03 -1.773987E+04 -3.521424E+03 -9.150372E+03
       138  25  4.325625E+05  6.001799E+04  6.576461E+04 -1.875812E+04 -1.047586E+04 -1.172926E+04
       138  26  4.042796E+05  5.006494E+04  5.289474E+04 -1.222789E+04 -6.244950E+03 -1.062161E+04
       138  27  3.773602E+05  4.327112E+04  4.357296E+04 -1.712820E+04 -2.013974E+03 -9.149915E+03
       139   1  4.316237E+04 -3.781385E+04 -3.065104E+04 -1.781183E+04  4.229970E+03  8.208030E+03
       139   2  7.061639E+04 -3.127666E+04 -2.621289E+04 -1.210055E+04  3.319710E+03  6.664672E+03
       139   3  9.824316E+04 -2.456253E+04 -2.113579E+04 -1.781268E+04  2.409172E+03  5.105734E+03
       139   4  1.988623E+05  1.315136E+02  3.395704E+03 -1.773845E+04  2.830021E+03  8.207677E+03
       139   5  1.987759E+05 -3.278579E+01  1.865372E+03 -1.202681E+04  1.905319E+03  6.664420E+03
       139   6  1.988645E+05 -1.754266E+01  9.840126E+02 -1.773844E+04  9.803792E+02  5.105589E+03
       139   7  3.545849E+05  3.807527E+04  3.744099E+04 -1.766504E+04  1.429725E+03  8.207323E+03
       139   8  3.269509E+05  3.120999E+04  2.994265E+04 -1.195306E+04  4.906396E+02  6.664169E+03
       139   9  2.994953E+05  2.452677E+04  2.310320E+04 -1.766419E+04 -4.486428E+02  5.105444E+03
       139  10  4.316233E+04 -3.781393E+04 -3.065120E+04 -1.781186E+04 -1.009008E-10 -7.755351E-10
       139  11  7.061636E+04 -3.127671E+04 -2.621299E+04 -1.210057E+04 -5.978192E-10 -7.979291E-10
       139  12  9.824315E+04 -2.456256E+04 -2.113585E+04 -1.781269E+04  3.739378E-10  1.649471E-10
       139  13  1.988623E+05  1.314391E+02  3.395562E+03 -1.773847E+04 -3.734877E-11 -4.610183E-10
       139  14  1.987759E+05 -3.283446E+01  1.865282E+03 -1.202682E+04 -9.001379E-12 -2.622940E-11
       139  15  1.988645E+05 -1.757092E+01  9.839618E+02 -1.773844E+04  8.099172E-10  1.393798E-10
       139  16  3.545849E+05  3.807519E+04  3.744086E+04 -1.766505E+04 -1.116816E-09 -1.650702E-10
       139  17  3.269509E+05  3.120994E+04  2.994256E+04 -1.195306E+04 -1.499515E-09  4.144281E-10
       139  18  2.994953E+05  2.452674E+04  2.310315E+04 -1.766419E+04  8.457727E-11  3.907736E-10
       139  19  4.316237E+04 -3.781385E+04 -3.065104E+04 -1.781183E+04 -4.229970E+03 -8.208030E+03
       139  20  7.061639E+04 -3.127666E+04 -2.621289E+04 -1.210055E+04 -3.319710E+03 -6.664672E+03
       139  21  9.824316E+04 -2.456253E+04 -2.113579E+04 -1.781268E+04 -2.409172E+03 -5.105734E+03
       139  22  1.988623E+05  1.315136E+02  3.395704E+03 -1.773845E+04 -2.830021E+03 -8.207677E+03
       139  23  1.987759E+05 -3.278579E+01  1.865372E+03 -1.202681E+04 -1.905319E+03 -6.664420E+03
       139  24  1.988645E+05 -1.754266E+01  9.840126E+02 -1.773844E+04 -9.803792E+02 -5.105589E+03
       139  25  3.545849E+05  3.807527E+04  3.744099E+04 -1.766504E+04 -1.429725E+03 -8.207323E+03
       139  26  3.269509E+05  3.120999E+04  2.994265E+04 -1.195306E+04 -4.906396E+02 -6.664169E+03
       139  27  2.994953E+05  2.452677E+04  2.310320E+04 -1.766419E+04  4.486428E+02 -5.105444E+03
       140   1  1.206896E+05 -1.903662E+04 -1.636836E+04 -1.777764E+04  2.254748E+03  4.194999E+03
       140   2  1.481946E+05 -1.234584E+04 -1.091158E+04 -1.206685E+04  2.166682E+03  2.633973E+03
       140   3  1.757168E+05 -5.647425E+03 -5.394934E+03 -1.777012E+04  2.078509E+03  1.072535E+03
       140   4  1.988301E+05 -3.057574E+00  6.726036E+02 -1.773639E+04  8.311323E+02  4.194901E+03
       140   5  1.988225E+05 -4.074392E+00  1.790717E+02 -1.202939E+04  7.426336E+02  2.633915E+03
       140   6  1.988310E+05  2.562476E+00 -2.543995E+02 -1.773639E+04  6.540325E+02  1.072521E+03
       140   7  2.769763E+05  1.903010E+04  1.771321E+04 -1.769513E+04 -5.926605E+02  4.194802E+03
       140   8  2.494528E+05  1.233753E+04  1.126958E+04 -1.199192E+04 -6.815293E+02  2.633857E+03
       140   9  2.219457E+05  5.652515E+03  4.886110E+03 -1.770266E+04 -7.704967E+02  1.072507E+03
       140  10  1.206896E+05 -1.903664E+04 -1.636840E+04 -1.777765E+04 -4.719196E-10  1.721510E-10
       140  11  1.481946E+05 -1.234585E+04 -1.091160E+04 -1.206686E+04 -1.951827E-09 -4.404097E-10
       140  12  1.757168E+05 -5.647427E+03 -5.394945E+03 -1.777012E+04  2.947057E-10 -4.630964E-10
       140  13  1.988301E+05 -3.076658E+00  6.725693E+02 -1.773639E+04 -1.058764E-09  2.810597E-10
       140  14  1.988225E+05 -4.081990E+00  1.790577E+02 -1.202939E+04 -3.972789E-11 -8.143442E-11
       140  15  1.988310E+05  2.561126E+00 -2.544024E+02 -1.773639E+04  2.090577E-10 -3.847826E-10
       140  16  2.769763E+05  1.903008E+04  1.771317E+04 -1.769512E+04 -8.506841E-10  3.952079E-10
       140  17  2.494528E+05  1.233752E+04  1.126956E+04 -1.199192E+04 -5.312475E-10  2.444327E-10
       140  18  2.219457E+05  5.652513E+03  4.886107E+03 -1.770266E+04  1.732552E-09 -1.853533E-10
       140  19  1.206896E+05 -1.903662E+04 -1.636836E+04 -1.777764E+04 -2.254748E+03 -4.194999E+03
       140  20  1.481946E+05 -1.234584E+04 -1.091158E+04 -1.206685E+04 -2.166682E+03 -2.633973E+03
       140  21  1.757168E+05 -5.647425E+03 -5.394934E+03 -1.777012E+04 -2.078509E+03 -1.072535E+03
       140  22  1.988301E+05 -3.057574E+00  6.726036E+02 -1.773639E+04 -8.311323E+02 -4.194901E+03
       140  23  1.988225E+05 -4.074392E+00  1.790717E+02 -1.202939E+04 -7.426336E+02 -2.633915E+03
       140  24  1.988310E+05  2.562476E+00 -2.543995E+02 -1.773639E+04 -6.540325E+02 -1.072521E+03
       140  25  2.769763E+05  1.903010E+04  1.771321E+04 -1.769513E+04  5.926605E+02 -4.194802E+03
       140  26  2.494528E+05  1.233753E+04  1.126958E+04 -1.199192E+04  6.815293E+02 -2.633857E+03
       140  27  2.219457E+05  5.652515E+03  4.886110E+03 -1.770266E+04  7.704967E+02 -1.072507E+03
       141   1  1.981652E+05 -1.394447E+02 -5.560147E+02 -1.777329E+04  2.146124E+03  1.636918E+02
       141   2  2.257147E+05  6.564297E+03  4.782132E+03 -1.208900E+04  2.691135E+03 -1.397533E+03
       141   3  2.531882E+05  1.323838E+04  9.758414E+03 -1.781683E+04  3.236222E+03 -2.958295E+03
       141   4  1.988105E+05  2.408315E+00 -4.919163E+02 -1.773598E+04  7.216975E+02  1.636836E+02
       141   5  1.988487E+05  1.537167E+01 -1.102956E+03 -1.202991E+04  1.267076E+03 -1.397565E+03
       141   6  1.988101E+05 -1.352938E+00 -2.076123E+03 -1.773599E+04  1.812507E+03 -2.958347E+03
       141   7  1.994558E+05  1.442624E+02 -4.278103E+02 -1.769867E+04 -7.027305E+02  1.636753E+02
       141   8  1.719834E+05 -6.533601E+03 -6.988081E+03 -1.197082E+04 -1.569227E+02 -1.397597E+03
       141   9  1.444348E+05 -1.324128E+04 -1.391083E+04 -1.765515E+04  3.889145E+02 -2.958400E+03
       141  10  1.981652E+05 -1.394460E+02 -5.560234E+02 -1.777329E+04  6.264121E-10 -7.320892E-11
       141  11  2.257147E+05  6.564293E+03  4.782114E+03 -1.208900E+04 -1.116160E-10  4.111659E-10
       141  12  2.531882E+05  1.323837E+04  9.758378E+03 -1.781682E+04  1.808082E-10  3.345134E-10
       141  13  1.988105E+05  2.408147E+00 -4.919173E+02 -1.773598E+04  1.552390E-10 -1.943514E-10
       141  14  1.988487E+05  1.536914E+01 -1.102963E+03 -1.202991E+04  1.407479E-10  1.425030E-10
       141  15  1.988101E+05 -1.363218E+00 -2.076146E+03 -1.773598E+04  1.111032E-09  8.425578E-11
       141  16  1.994558E+05  1.442623E+02 -4.278113E+02 -1.769867E+04  1.818520E-09 -3.062230E-10
       141  17  1.719834E+05 -6.533603E+03 -6.988084E+03 -1.197082E+04  1.517469E-10 -2.080629E-10
       141  18  1.444348E+05 -1.324129E+04 -1.391085E+04 -1.765515E+04  1.617815E-09 -1.344236E-10
       141  19  1.981652E+05 -1.394447E+02 -5.560147E+02 -1.777329E+04 -2.146124E+03 -1.636918E+02
       141  20  2.257147E+05  6.564297E+03  4.782132E+03 -1.208900E+04 -2.691135E+03  1.397533E+03
       141  21  2.531882E+05  1.323838E+04  9.758414E+03 -1.781683E+04 -3.236222E+03  2.958295E+03
       141  22  1.988105E+05  2.408315E+00 -4.919163E+02 -1.773598E+04 -7.216975E+02 -1.636836E+02
       141  23  1.988487E+05  1.537167E+01 -1.102956E+03 -1.202991E+04 -1.267076E+03  1.397565E+03
       141  24  1.988101E+05 -1.352938E+00 -2.076123E+03 -1.773599E+04 -1.812507E+03  2.958347E+03
       141  25  1.994558E+05  1.442624E+02 -4.278103E+02 -1.769867E+04  7.027305E+02 -1.636753E+02
       141  26  1.719834E+05 -6.533601E+03 -6.988081E+03 -1.197082E+04  1.569227E+02  1.397597E+03
       141  27  1.444348E+05 -1.324128E+04 -1.391083E+04 -1.765515E+04 -3.889145E+02  2.958400E+03
       142   1  2.755880E+05  1.878501E+04  1.413862E+04 -1.789894E+04  3.678427E+03 -3.868550E+03
       142   2  3.033323E+05  2.551070E+04  1.797981E+04 -1.216977E+04  6.089136E+03 -5.426707E+03
       142   3  3.306547E+05  3.177475E+04  2.013808E+04 -1.786120E+04  8.500110E+03 -6.970297E+03
       142   4  1.987322E+05  3.562968E+01 -2.773186E+03 -1.773790E+04  2.249893E+03 -3.868636E+03
       142   5  1.989438E+05  6.554442E+01 -4.887558E+03 -1.202754E+04  4.673500E+03 -5.426879E+03
       142   6  1.987308E+05 -3.683786E+02 -8.693930E+03 -1.773789E+04  7.097269E+03 -6.970553E+03
       142   7  1.218818E+05 -1.871414E+04 -1.968535E+04 -1.757688E+04  8.215333E+02 -3.868723E+03
       142   8  9.456552E+04 -2.538034E+04 -2.775558E+04 -1.188533E+04  3.258100E+03 -5.427053E+03
       142   9  6.682331E+04 -3.251266E+04 -3.752699E+04 -1.761461E+04  5.694722E+03 -6.970809E+03
       142  10  2.755880E+05  1.878499E+04  1.413857E+04 -1.789893E+04 -2.674570E-10 -1.030419E-10
       142  11  3.033323E+05  2.551066E+04  1.797969E+04 -1.216975E+04 -7.847189E-10 -8.213733E-10
       142  12  3.306546E+05  3.177468E+04  2.013786E+04 -1.786115E+04 -2.615637E-09 -1.069399E-11
       142  13  1.987322E+05  3.561225E+01 -2.773224E+03 -1.773789E+04  1.090441E-09 -1.233210E-10
       142  14  1.989438E+05  6.550693E+01 -4.887654E+03 -1.202752E+04 -1.698961E-09 -6.390484E-11
       142  15  1.987308E+05 -3.684443E+02 -8.694116E+03 -1.773785E+04 -2.848089E-09  5.014764E-10
       142  16  1.218818E+05 -1.871416E+04 -1.968538E+04 -1.757688E+04  5.490675E-10 -7.317947E-11
       142  17  9.456550E+04 -2.538038E+04 -2.775566E+04 -1.188532E+04 -8.408987E-10  4.723509E-10
       142  18  6.682326E+04 -3.251272E+04 -3.752714E+04 -1.761458E+04  1.182611E-09  1.158964E-09
       142  19  2.755880E+05  1.878501E+04  1.413862E+04 -1.789894E+04 -3.678427E+03  3.868550E+03
       142  20  3.033323E+05  2.551070E+04  1.797981E+04 -1.216977E+04 -6.089136E+03  5.426707E+03
       142  21  3.306547E+05  3.177475E+04  2.013808E+04 -1.786120E+04 -8.500110E+03  6.970297E+03
       142  22  1.987322E+05  3.562968E+01 -2.773186E+03 -1.773790E+04 -2.249893E+03  3.868636E+03
       142  23  1.989438E+05  6.554442E+01 -4.887558E+03 -1.202754E+04 -4.673500E+03  5.426879E+03
       142  24  1.987308E+05 -3.683786E+02 -8.693930E+03 -1.773789E+04 -7.097269E+03  6.970553E+03
       142  25  1.218818E+05 -1.871414E+04 -1.968535E+04 -1.757688E+04 -8.215333E+02  3.868723E+03
       142  26  9.456552E+04 -2.538034E+04 -2.775558E+04 -1.188533E+04 -3.258100E+03  5.427053E+03
       142  27  6.682331E+04 -3.251266E+04 -3.752699E+04 -1.761461E+04 -5.694722E+03  6.970809E+03
       143   1  3.525424E+05  3.810186E+04  2.253976E+04 -1.920598E+04  1.036635E+04 -7.909584E+03
       143   2  3.817169E+05  4.460252E+04  2.020188E+04 -1.137773E+04  1.995671E+04 -9.383986E+03
       143   3  4.077095E+05  4.328705E+04  9.673976E+03 -1.496974E+04  2.954775E+04 -1.052002E+04
       143   4  1.981043E+05  4.444231E+02 -1.136065E+04 -1.773836E+04  8.863802E+03 -7.909905E+03
       143   5  1.997226E+05  2.336238E+02 -1.970801E+04 -1.202721E+04  1.876017E+04 -9.384446E+03
       143   6  1.981034E+05 -7.847993E+03 -3.645984E+04 -1.773666E+04  2.865681E+04 -1.052064E+04
       143   7  4.368839E+04 -3.721460E+04 -4.526250E+04 -1.627112E+04  7.361623E+03 -7.910232E+03
       143   8  1.775919E+04 -4.413749E+04 -5.961992E+04 -1.267650E+04  1.756398E+04 -9.384903E+03
       143   9 -1.146156E+04 -5.898595E+04 -8.259635E+04 -2.050265E+04  2.776617E+04 -1.052125E+04
       143  10  3.525423E+05  3.810176E+04  2.253944E+04 -1.920591E+04  6.015616E-10  1.893262E-11
       143  11  3.817164E+05  4.460232E+04  2.020097E+04 -1.137758E+04 -1.485749E-10 -4.434311E-10
       143  12  4.077086E+05  4.328669E+04  9.672128E+03 -1.496949E+04 -1.295012E-09 -2.128026E-10
       143  13  1.981042E+05  4.443348E+02 -1.136092E+04 -1.773831E+04 -1.054807E-09  2.872225E-10
       143  14  1.997221E+05  2.334348E+02 -1.970884E+04 -1.202707E+04  2.139013E-09 -7.197857E-10
       143  15  1.981025E+05 -7.848333E+03 -3.646159E+04 -1.773642E+04 -1.164336E-09 -8.042036E-10
       143  16  4.368832E+04 -3.721468E+04 -4.526272E+04 -1.627107E+04 -2.752852E-10  6.797527E-10
       143  17  1.775883E+04 -4.413767E+04 -5.962066E+04 -1.267637E+04  1.365336E-09 -3.302781E-10
       143  18 -1.146242E+04 -5.898628E+04 -8.259800E+04 -2.050242E+04  3.337874E-10 -1.273113E-09
       143  19  3.525424E+05  3.810186E+04  2.253976E+04 -1.920598E+04 -1.036635E+04  7.909584E+03
       143  20  3.817169E+05  4.460252E+04  2.020188E+04 -1.137773E+04 -1.995671E+04  9.383986E+03
       143  21  4.077095E+05  4.328705E+04  9.673976E+03 -1.496974E+04 -2.954775E+04  1.052002E+04
       143  22  1.981043E+05  4.444231E+02 -1.136065E+04 -1.773836E+04 -8.863802E+03  7.909905E+03
       143  23  1.997226E+05  2.336238E+02 -1.970801E+04 -1.202721E+04 -1.876017E+04  9.384446E+03
       143  24  1.981034E+05 -7.847993E+03 -3.645984E+04 -1.773666E+04 -2.865681E+04  1.052064E+04
       143  25  4.368839E+04 -3.721460E+04 -4.526250E+04 -1.627112E+04 -7.361623E+03  7.910232E+03
       143  26  1.775919E+04 -4.413749E+04 -5.961992E+04 -1.267650E+04 -1.756398E+04  9.384903E+03
       143  27 -1.146156E+04 -5.898595E+04 -8.259635E+04 -2.050265E+04 -2.776617E+04  1.052125E+04
       144   1  4.223985E+05  6.360866E+04  5.009536E+03 -3.816814E+04  3.826217E+04 -1.209256E+04
       144   2  4.692386E+05  6.378566E+04 -2.026734E+04  1.168429E+04  7.278643E+04 -1.167490E+04
       144   3  4.778097E+05 -7.134543E+04 -1.018218E+05  5.046376E+04  1.073094E+05 -3.677082E+03
       144   4  1.900434E+05  6.992697E+03 -4.587114E+04 -1.767613E+04  3.516373E+04 -1.209255E+04
       144   5  2.097941E+05  3.158021E+02 -7.815906E+04 -1.210878E+04  7.658594E+04 -1.167655E+04
       144   6  1.900569E+05 -1.429045E+05 -1.715300E+05 -1.761460E+04  1.180047E+05 -3.683895E+03
       144   7 -4.226019E+04 -4.962528E+04 -9.675484E+04  2.808106E+03  3.206644E+04 -1.209275E+04
       144   8 -4.958640E+04 -6.315650E+04 -1.360547E+05 -3.589182E+04  8.038388E+04 -1.167849E+04
       144   9 -9.761017E+04 -2.144521E+05 -2.412413E+05 -8.566133E+04  1.286951E+05 -3.693055E+03
       144  10  4.223969E+05  6.360811E+04  5.006512E+03 -3.816777E+04  6.862505E-10 -5.007619E-10
       144  11  4.692329E+05  6.378410E+04 -2.027755E+04  1.168498E+04 -1.762593E-10 -1.937670E-09
       144  12  4.777973E+05 -7.134853E+04 -1.018434E+05  5.046407E+04  6.727308E-10 -6.045008E-10
       144  13  1.900421E+05  6.992208E+03 -4.587374E+04 -1.767579E+04 -1.993498E-10 -1.819968E-09
       144  14  2.097878E+05  3.140816E+02 -7.817034E+04 -1.210806E+04 -3.222853E-10  7.835464E-10
       144  15  1.900419E+05 -1.429082E+05 -1.715562E+05 -1.761425E+04  1.254941E-09 -1.075114E-10
       144  16 -4.226134E+04 -4.962571E+04 -9.675705E+04  2.808418E+03  6.121784E-10 -9.186184E-10
       144  17 -4.959338E+04 -6.315838E+04 -1.360671E+05 -3.589106E+04 -8.253581E-10  1.175827E-09
       144  18 -9.762797E+04 -2.144566E+05 -2.412725E+05 -8.566095E+04  2.102214E-09 -5.767941E-11
       144  19  4.223985E+05  6.360866E+04  5.009536E+03 -3.816814E+04 -3.826217E+04  1.209256E+04
       144  20  4.692386E+05  6.378566E+04 -2.026734E+04  1.168429E+04 -7.278643E+04  1.167490E+04
       144  21  4.778097E+05 -7.134543E+04 -1.018218E+05  5.046376E+04 -1.073094E+05  3.677082E+03
       144  22  1.900434E+05  6.992697E+03 -4.587114E+04 -1.767613E+04 -3.516373E+04  1.209255E+04
       144  23  2.097941E+05  3.158021E+02 -7.815906E+04 -1.210878E+04 -7.658594E+04  1.167655E+04
       144  24  1.900569E+05 -1.429045E+05 -1.715300E+05 -1.761460E+04 -1.180047E+05  3.683895E+03
       144  25 -4.226019E+04 -4.962528E+04 -9.675484E+04  2.808106E+03 -3.206644E+04  1.209275E+04
       144  26 -4.958640E+04 -6.315650E+04 -1.360547E+05 -3.589182E+04 -8.038388E+04  1.167849E+04
       144  27 -9.761017E+04 -2.144521E+05 -2.412413E+05 -8.566133E+04 -1.286951E+05  3.693055E+03
       145   1  3.570924E+05  1.326057E+06  3.507478E+05 -2.111425E+05  1.615984E+04  5.264236E+04
       145   2  2.641268E+05  1.000846E+06  2.461280E+05 -1.429463E+05  4.691466E+04  1.495634E+04
       145   3  1.857698E+05  6.843346E+05  1.696766E+05 -2.058611E+05  3.894628E+04 -2.274865E+04
       145   4  8.514998E+03 -7.698203E+04  9.879234E+03 -2.060725E+05  1.621204E+04  6.897434E+03
       145   5  1.037429E+02 -7.812382E+04  4.404703E+03 -1.405160E+05  4.693491E+04  4.598153E+03
       145   6  1.851783E+02 -7.678126E+04  2.568786E+03 -2.060828E+05  3.890476E+04  2.260514E+03
       145   7 -3.402058E+05 -1.478222E+06 -3.311239E+05 -2.010132E+05  1.626357E+04 -3.874458E+04
       145   8 -2.639986E+05 -1.156011E+06 -2.373918E+05 -1.380896E+05  4.695510E+04 -5.742244E+03
       145   9 -1.854378E+05 -8.373542E+05 -1.645720E+05 -2.063039E+05  3.886319E+04  2.723941E+04
       145  10  3.570913E+05  1.326054E+06  3.507422E+05 -2.111432E+05  2.492935E-10  7.684079E-10
       145  11  2.641243E+05  1.000846E+06  2.461235E+05 -1.429469E+05 -3.095948E-09  2.246967E-09
       145  12  1.857680E+05  6.843336E+05  1.696728E+05 -2.058604E+05 -6.226542E-10 -2.583292E-09
       145  13  8.514703E+03 -7.698215E+04  9.878650E+03 -2.060726E+05 -9.189869E-10 -8.152000E-10
       145  14  1.013718E+02 -7.812443E+04  4.400523E+03 -1.405162E+05 -1.602224E-09  6.308159E-10
       145  15  1.835516E+02 -7.678167E+04  2.565932E+03 -2.060829E+05 -8.315965E-10 -5.856107E-10
       145  16 -3.402065E+05 -1.478224E+06 -3.311272E+05 -2.010127E+05 -2.911314E-10 -1.573702E-09
       145  17 -2.640009E+05 -1.156011E+06 -2.373960E+05 -1.380893E+05  1.541244E-09 -2.864873E-09
       145  18 -1.854396E+05 -8.373554E+05 -1.645763E+05 -2.063047E+05  2.091162E-09  1.148748E-09
       145  19  3.570924E+05  1.326057E+06  3.507478E+05 -2.111425E+05 -1.615984E+04 -5.264236E+04
       145  20  2.641268E+05  1.000846E+06  2.461280E+05 -1.429463E+05 -4.691466E+04 -1.495634E+04
       145  21  1.857698E+05  6.843346E+05  1.696766E+05 -2.058611E+05 -3.894628E+04  2.274865E+04
       145  22  8.514998E+03 -7.698203E+04  9.879234E+03 -2.060725E+05 -1.621204E+04 -6.897434E+03
       145  23  1.037429E+02 -7.812382E+04  4.404703E+03 -1.405160E+05 -4.693491E+04 -4.598153E+03
       145  24  1.851783E+02 -7.678126E+04  2.568786E+03 -2.060828E+05 -3.890476E+04 -2.260514E+03
       145  25 -3.402058E+05 -1.478222E+06 -3.311239E+05 -2.010132E+05 -1.626357E+04  3.874458E+04
       145  26 -2.639986E+05 -1.156011E+06 -2.373918E+05 -1.380896E+05 -4.695510E+04  5.742244E+03
       145  27 -1.854378E+05 -8.373542E+05 -1.645720E+05 -2.063039E+05 -3.886319E+04 -2.723941E+04
       146   1  1.227272E+05  4.210179E+05  1.117868E+05 -2.072407E+05  2.483455E+04 -1.222736E+04
       146   2  4.386163E+04  1.006620E+05  3.988295E+04 -1.403427E+05  9.183055E+03 -1.305102E+04
       146   3 -3.419914E+04 -2.198086E+05 -3.141741E+04 -2.062160E+05 -6.871702E+03 -1.387872E+04
       146   4  1.113910E+03 -7.731980E+04  1.960196E+03 -2.064462E+05  2.480888E+04  1.868884E+03
       146   5  4.923526E+02 -7.716606E+04  8.639746E+02 -1.400601E+05  9.155332E+03  1.410245E+03
       146   6  6.187554E+02 -7.728648E+04  1.221651E+02 -2.064473E+05 -6.901879E+03  9.471648E+02
       146   7 -1.205160E+05 -5.754250E+05 -1.078809E+05 -2.056523E+05  2.478322E+04  1.595395E+04
       146   8 -4.287893E+04 -2.549640E+05 -3.815614E+04 -1.397775E+05  9.127617E+03  1.586742E+04
       146   9  3.543540E+04  6.525514E+04  3.166131E+04 -2.066786E+05 -6.932064E+03  1.577641E+04
       146  10  1.227265E+05  4.210176E+05  1.117854E+05 -2.072404E+05  9.224417E-10 -2.601757E-09
       146  11  4.386150E+04  1.006617E+05  3.988247E+04 -1.403427E+05 -1.308621E-09  2.150226E-09
       146  12 -3.419925E+04 -2.198089E+05 -3.141786E+04 -2.062161E+05 -8.505407E-10 -1.485565E-09
       146  13  1.113248E+03 -7.731997E+04  1.959032E+03 -2.064463E+05  1.704197E-09 -1.691562E-09
       146  14  4.922621E+02 -7.716609E+04  8.638134E+02 -1.400601E+05  1.090001E-09  9.308627E-10
       146  15  6.187040E+02 -7.728649E+04  1.220739E+02 -2.064473E+05 -1.281201E-09 -6.616540E-10
       146  16 -1.205167E+05 -5.754255E+05 -1.078826E+05 -2.056526E+05  1.095771E-09  8.997195E-10
       146  17 -4.287909E+04 -2.549643E+05 -3.815677E+04 -1.397776E+05  6.271508E-10 -3.052329E-09
       146  18  3.543529E+04  6.525486E+04  3.166075E+04 -2.066785E+05 -5.402912E-10 -1.230624E-10
       146  19  1.227272E+05  4.210179E+05  1.117868E+05 -2.072407E+05 -2.483455E+04  1.222736E+04
       146  20  4.386163E+04  1.006620E+05  3.988295E+04 -1.403427E+05 -9.183055E+03  1.305102E+04
       146  21 -3.419914E+04 -2.198086E+05 -3.141741E+04 -2.062160E+05  6.871702E+03  1.387872E+04
       146  22  1.113910E+03 -7.731980E+04  1.960196E+03 -2.064462E+05 -2.480888E+04 -1.868884E+03
       146  23  4.923526E+02 -7.716606E+04  8.639746E+02 -1.400601E+05 -9.155332E+03 -1.410245E+03
       146  24  6.187554E+02 -7.728648E+04  1.221651E+02 -2.064473E+05  6.901879E+03 -9.471648E+02
       146  25 -1.205160E+05 -5.754250E+05 -1.078809E+05 -2.056523E+05 -2.478322E+04 -1.595395E+04
       146  26 -4.287893E+04 -2.549640E+05 -3.815614E+04 -1.397775E+05 -9.127617E+03 -1.586742E+04
       146  27  3.543540E+04  6.525514E+04  3.166131E+04 -2.066786E+05  6.932064E+03 -1.577641E+04
       147   1 -9.800094E+04 -4.823036E+05 -8.941007E+04 -2.052792E+05 -2.020138E+04 -2.208007E+04
       147   2 -1.768667E+05 -8.001162E+05 -1.636323E+05 -1.398635E+05 -3.060765E+04  5.520715E+03
       147   3 -2.619073E+05 -1.123239E+06 -2.574589E+05 -2.060076E+05 -1.127262E+04  3.314819E+04
       147   4  8.539365E+02 -7.741299E+04 -1.748220E+02 -2.061744E+05 -2.024614E+04  9.062951E+02
       147   5  3.408574E+02 -7.713154E+04 -9.592025E+02 -1.404009E+05 -3.059813E+04  1.409857E+03
       147   6 -1.630765E+03 -7.754819E+04 -2.513575E+03 -2.061781E+05 -1.122432E+04  1.954874E+03
       147   7  9.969809E+04  3.276321E+05  8.905235E+04 -2.070700E+05 -2.029095E+04  2.390748E+04
       147   8  1.775126E+05  6.463399E+05  1.616807E+05 -1.409387E+05 -3.058862E+04 -2.705746E+03
       147   9  2.585656E+05  9.691435E+05  2.523559E+05 -2.063483E+05 -1.117605E+04 -2.929093E+04
       147  10 -9.800151E+04 -4.823042E+05 -8.941176E+04 -2.052796E+05 -8.045426E-10 -1.337127E-09
       147  11 -1.768677E+05 -8.001165E+05 -1.636341E+05 -1.398633E+05 -3.747093E-10  1.980139E-09
       147  12 -2.619077E+05 -1.123240E+06 -2.574612E+05 -2.060073E+05 -4.209897E-10 -1.127474E-09
       147  13  8.534961E+02 -7.741310E+04 -1.755938E+02 -2.061744E+05  1.183342E-09 -1.734061E-09
       147  14  3.398516E+02 -7.713180E+04 -9.609655E+02 -1.404008E+05 -2.540625E-11  8.041426E-10
       147  15 -1.630901E+03 -7.754823E+04 -2.513819E+03 -2.061780E+05  1.056604E-09 -4.703921E-10
       147  16  9.969749E+04  3.276313E+05  8.905051E+04 -2.070697E+05 -1.384197E-12 -4.078832E-10
       147  17  1.775116E+05  6.463396E+05  1.616789E+05 -1.409387E+05 -8.702592E-10 -2.716875E-09
       147  18  2.585652E+05  9.691426E+05  2.523541E+05 -2.063486E+05  1.157001E-09 -1.282095E-11
       147  19 -9.800094E+04 -4.823036E+05 -8.941007E+04 -2.052792E+05  2.020138E+04  2.208007E+04
       147  20 -1.768667E+05 -8.001162E+05 -1.636323E+05 -1.398635E+05  3.060765E+04 -5.520715E+03
       147  21 -2.619073E+05 -1.123239E+06 -2.574589E+05 -2.060076E+05  1.127262E+04 -3.314819E+04
       147  22  8.539365E+02 -7.741299E+04 -1.748220E+02 -2.061744E+05  2.024614E+04 -9.062951E+02
       147  23  3.408574E+02 -7.713154E+04 -9.592025E+02 -1.404009E+05  3.059813E+04 -1.409857E+03
       147  24 -1.630765E+03 -7.754819E+04 -2.513575E+03 -2.061781E+05  1.122432E+04 -1.954874E+03
       147  25  9.969809E+04  3.276321E+05  8.905235E+04 -2.070700E+05  2.029095E+04 -2.390748E+04
       147  26  1.775126E+05  6.463399E+05  1.616807E+05 -1.409387E+05  3.058862E+04  2.705746E+03
       147  27  2.585656E+05  9.691435E+05  2.523559E+05 -2.063483E+05  1.117605E+04  2.929093E+04
       148   1 -7.358483E+05 -2.827517E+05 -1.665968E+05 -2.743248E+05 -5.759096E+04 -1.580483E+04
       148   2 -6.917395E+05 -1.947585E+05 -1.092259E+05 -2.565201E+05 -3.691213E+04  3.956570E+03
       148   3 -6.552366E+05 -1.733162E+05 -8.426254E+04 -2.430150E+05 -1.213928E+04  1.282719E+04
       148   4 -3.755916E+05 -1.244692E+05 -6.593365E+04 -1.528037E+05 -4.399335E+04 -1.070059E+04
       148   5 -3.691339E+05 -6.680723E+04 -2.856877E+04 -1.601529E+05 -3.259680E+04  5.575527E+03
       148   6 -3.684328E+05 -7.384090E+04 -1.623997E+04 -1.718056E+05 -1.710946E+04  1.096137E+04
       148   7 -1.520566E+04  3.383600E+04  3.471878E+04 -3.121349E+04 -3.038700E+04 -5.591816E+03
       148   8 -4.642445E+04  6.115529E+04  5.208053E+04 -6.373839E+04 -2.827901E+04  7.195543E+03
       148   9 -8.154765E+04  2.563747E+04  5.177690E+04 -1.005674E+05 -2.208214E+04  9.094759E+03
       148  10 -7.358519E+05 -2.827528E+05 -1.666036E+05 -2.743256E+05  3.038376E-10 -3.070189E-11
       148  11 -6.917409E+05 -1.947589E+05 -1.092285E+05 -2.565200E+05 -5.421606E-10 -7.723172E-10
       148  12 -6.552368E+05 -1.733164E+05 -8.426313E+04 -2.430148E+05 -6.725244E-10 -6.478383E-10
       148  13 -3.755937E+05 -1.244698E+05 -6.593750E+04 -1.528041E+05  9.430045E-10  4.125098E-10
       148  14 -3.691350E+05 -6.680755E+04 -2.857083E+04 -1.601527E+05  2.223596E-10 -6.542416E-10
       148  15 -3.684332E+05 -7.384110E+04 -1.624075E+04 -1.718054E+05 -1.637064E-09 -9.619128E-10
       148  16 -1.520666E+04  3.383572E+04  3.471698E+04 -3.121362E+04 -7.163620E-13 -4.993370E-10
       148  17 -4.642532E+04  6.115502E+04  5.207893E+04 -6.373822E+04  2.438400E-09 -4.441018E-11
       148  18 -8.154819E+04  2.563725E+04  5.177583E+04 -1.005672E+05 -5.487400E-10 -8.481470E-10
       148  19 -7.358483E+05 -2.827517E+05 -1.665968E+05 -2.743248E+05  5.759096E+04  1.580483E+04
       148  20 -6.917395E+05 -1.947585E+05 -1.092259E+05 -2.565201E+05  3.691213E+04 -3.956570E+03
       148  21 -6.552366E+05 -1.733162E+05 -8.426254E+04 -2.430150E+05  1.213928E+04 -1.282719E+04
       148  22 -3.755916E+05 -1.244692E+05 -6.593365E+04 -1.528037E+05  4.399335E+04  1.070059E+04
       148  23 -3.691339E+05 -6.680723E+04 -2.856877E+04 -1.601529E+05  3.259680E+04 -5.575527E+03
       148  24 -3.684328E+05 -7.384090E+04 -1.623997E+04 -1.718056E+05  1.710946E+04 -1.096137E+04
       148  25 -1.520566E+04  3.383600E+04  3.471878E+04 -3.121349E+04  3.038700E+04  5.591816E+03
       148  26 -4.642445E+04  6.115529E+04  5.208053E+04 -6.373839E+04  2.827901E+04 -7.195543E+03
       148  27 -8.154765E+04  2.563747E+04  5.177690E+04 -1.005674E+05  2.208214E+04 -9.094759E+03
       149   1 -6.064327E+05 -1.693480E+05 -7.141458E+04 -2.357698E+05 -1.232351E+04  9.666453E+03
       149   2 -5.660165E+05 -1.402514E+05 -5.341377E+04 -2.142149E+05 -7.708551E+03  8.859994E+03
       149   3 -5.119758E+05 -1.296773E+05 -3.908994E+04 -2.094855E+05 -2.909542E+03  7.561609E+03
       149   4 -3.662670E+05 -7.890306E+04 -1.288354E+04 -1.688270E+05 -1.401433E+04  9.031553E+03
       149   5 -3.729006E+05 -6.814738E+04 -6.614706E+03 -1.609888E+05 -9.817789E+03  8.068423E+03
       149   6 -3.658283E+05 -7.583043E+04 -3.689944E+03 -1.699770E+05 -5.437521E+03  6.613326E+03
       149   7 -1.260454E+05  1.154575E+04  4.564286E+04 -1.018608E+05 -1.570585E+04  8.396382E+03
       149   8 -1.797477E+05  3.959331E+03  4.018161E+04 -1.077477E+05 -1.192774E+04  7.276581E+03
       149   9 -2.196589E+05 -2.198192E+04  3.170869E+04 -1.304599E+05 -7.966161E+03  5.664800E+03
       149  10 -6.064329E+05 -1.693481E+05 -7.141504E+04 -2.357697E+05 -9.907513E-10 -6.345439E-10
       149  11 -5.660166E+05 -1.402515E+05 -5.341403E+04 -2.142148E+05 -3.090309E-09 -6.394326E-11
       149  12 -5.119758E+05 -1.296774E+05 -3.909006E+04 -2.094855E+05 -1.982348E-09  7.105109E-11
       149  13 -3.662672E+05 -7.890320E+04 -1.288406E+04 -1.688269E+05  4.389664E-10 -1.042260E-09
       149  14 -3.729007E+05 -6.814748E+04 -6.615010E+03 -1.609887E+05 -1.298159E-09 -6.361169E-10
       149  15 -3.658283E+05 -7.583048E+04 -3.690082E+03 -1.699770E+05  6.021192E-10  5.196086E-10
       149  16 -1.260457E+05  1.154561E+04  4.564226E+04 -1.018607E+05 -4.790926E-11 -1.025942E-09
       149  17 -1.797479E+05  3.959236E+03  4.018124E+04 -1.077476E+05 -6.951071E-10 -7.811100E-10
       149  18 -2.196590E+05 -2.198197E+04  3.170851E+04 -1.304598E+05  4.426010E-10  9.686388E-10
       149  19 -6.064327E+05 -1.693480E+05 -7.141458E+04 -2.357698E+05  1.232351E+04 -9.666453E+03
       149  20 -5.660165E+05 -1.402514E+05 -5.341377E+04 -2.142149E+05  7.708551E+03 -8.859994E+03
       149  21 -5.119758E+05 -1.296773E+05 -3.908994E+04 -2.094855E+05  2.909542E+03 -7.561609E+03
       149  22 -3.662670E+05 -7.890306E+04 -1.288354E+04 -1.688270E+05  1.401433E+04 -9.031553E+03
       149  23 -3.729006E+05 -6.814738E+04 -6.614706E+03 -1.609888E+05  9.817789E+03 -8.068423E+03
       149  24 -3.658283E+05 -7.583043E+04 -3.689944E+03 -1.699770E+05  5.437521E+03 -6.613326E+03
       149  25 -1.260454E+05  1.154575E+04  4.564286E+04 -1.018608E+05  1.570585E+04 -8.396382E+03
       149  26 -1.797477E+05  3.959331E+03  4.018161E+04 -1.077477E+05  1.192774E+04 -7.276581E+03
       149  27 -2.196589E+05 -2.198192E+04  3.170869E+04 -1.304599E+05  7.966161E+03 -5.664800E+03
       150   1 -4.708707E+05 -1.152244E+05 -2.811373E+04 -1.986308E+05 -1.898781E+03  6.008318E+03
       150   2 -4.307601E+05 -8.964438E+04 -1.547723E+04 -1.767893E+05 -4.521803E+01  3.506476E+03
       150   3 -3.754921E+05 -7.960915E+04 -3.491355E+03 -1.724958E+05  1.816682E+03  9.817016E+02
       150   4 -3.656352E+05 -7.612855E+04 -2.821005E+03 -1.697829E+05 -4.281046E+03  5.114831E+03
       150   5 -3.732016E+05 -6.827068E+04 -1.564500E+03 -1.610410E+05 -2.446957E+03  2.605791E+03
       150   6 -3.656089E+05 -7.595364E+04 -9.429107E+02 -1.698477E+05 -6.046029E+02  7.380735E+01
       150   7 -2.603888E+05 -3.703192E+04  2.247093E+04 -1.409306E+05 -6.663752E+03  4.221179E+03
       150   8 -3.156400E+05 -4.689681E+04  1.234797E+04 -1.452914E+05 -4.848932E+03  1.705017E+03
       150   9 -3.557255E+05 -7.229814E+04  1.605537E+03 -1.671996E+05 -3.025918E+03 -8.340977E+02
       150  10 -4.708707E+05 -1.152245E+05 -2.811380E+04 -1.986308E+05  4.164746E-10  7.865791E-10
       150  11 -4.307601E+05 -8.964439E+04 -1.547725E+04 -1.767893E+05  1.292257E-09  6.084437E-10
       150  12 -3.754921E+05 -7.960916E+04 -3.491363E+03 -1.724958E+05 -1.289003E-10 -5.978649E-11
       150  13 -3.656353E+05 -7.612858E+04 -2.821089E+03 -1.697829E+05 -2.748737E-10  7.556451E-10
       150  14 -3.732017E+05 -6.827069E+04 -1.564524E+03 -1.610410E+05 -1.216180E-09  3.539564E-10
       150  15 -3.656089E+05 -7.595364E+04 -9.429114E+02 -1.698477E+05 -2.810513E-10  3.157799E-10
       150  16 -2.603889E+05 -3.703195E+04  2.247081E+04 -1.409306E+05  1.963105E-10  7.257893E-10
       150  17 -3.156401E+05 -4.689682E+04  1.234792E+04 -1.452914E+05 -1.580711E-09  1.566322E-10
       150  18 -3.557256E+05 -7.229814E+04  1.605518E+03 -1.671996E+05 -1.179792E-09  6.085026E-10
       150  19 -4.708707E+05 -1.152244E+05 -2.811373E+04 -1.986308E+05  1.898781E+03 -6.008318E+03
       150  20 -4.307601E+05 -8.964438E+04 -1.547723E+04 -1.767893E+05  4.521803E+01 -3.506476E+03
       150  21 -3.754921E+05 -7.960915E+04 -3.491355E+03 -1.724958E+05 -1.816682E+03 -9.817016E+02
       150  22 -3.656352E+05 -7.612855E+04 -2.821005E+03 -1.697829E+05  4.281046E+03 -5.114831E+03
       150  23 -3.732016E+05 -6.827068E+04 -1.564500E+03 -1.610410E+05  2.446957E+03 -2.605791E+03
       150  24 -3.656089E+05 -7.595364E+04 -9.429107E+02 -1.698477E+05  6.046029E+02 -7.380735E+01
       150  25 -2.603888E+05 -3.703192E+04  2.247093E+04 -1.409306E+05  6.663752E+03 -4.221179E+03
       150  26 -3.156400E+05 -4.689681E+04  1.234797E+04 -1.452914E+05  4.848932E+03 -1.705017E+03
       150  27 -3.557255E+05 -7.229814E+04  1.605537E+03 -1.671996E+05  3.025918E+03  8.340977E+02
       151   1 -3.348711E+05 -6.450554E+04  6.819783E+03 -1.614105E+05  2.570455E+03 -6.173832E+02
       151   2 -2.948217E+05 -3.913490E+04  1.833615E+04 -1.395492E+05  3.939489E+03 -3.330599E+03
       151   3 -2.394831E+05 -2.911519E+04  2.961953E+04 -1.352575E+05  5.308764E+03 -6.043411E+03
       151   4 -3.655886E+05 -7.596729E+04 -7.753696E+02 -1.698319E+05  1.558555E+02 -1.522785E+03
       151   5 -3.732329E+05 -6.829138E+04 -6.190283E+02 -1.610469E+05  1.525041E+03 -4.236102E+03
       151   6 -3.655915E+05 -7.596736E+04 -6.960759E+02 -1.698331E+05  2.894430E+03 -6.949000E+03
       151   7 -3.963054E+05 -8.742907E+04 -8.370639E+03 -1.782529E+05 -2.258633E+03 -2.428145E+03
       151   8 -4.516378E+05 -9.744734E+04 -1.957457E+04 -1.825421E+05 -8.890667E+02 -5.141477E+03
       151   9 -4.916824E+05 -1.228177E+05 -3.101233E+04 -2.044018E+05  4.806634E+02 -7.854376E+03
       151  10 -3.348711E+05 -6.450554E+04  6.819770E+03 -1.614105E+05  2.728075E-10  1.291622E-10
       151  11 -2.948217E+05 -3.913491E+04  1.833610E+04 -1.395492E+05 -2.685887E-09  3.080391E-10
       151  12 -2.394831E+05 -2.911523E+04  2.961941E+04 -1.352575E+05  8.166056E-10 -5.817486E-10
       151  13 -3.655886E+05 -7.596729E+04 -7.753740E+02 -1.698319E+05 -1.202623E-09  4.075749E-10
       151  14 -3.732329E+05 -6.829140E+04 -6.190664E+02 -1.610469E+05  1.286759E-09  2.029244E-10
       151  15 -3.655915E+05 -7.596741E+04 -6.961823E+02 -1.698331E+05  1.732492E-09 -5.693775E-10
       151  16 -3.963054E+05 -8.742907E+04 -8.370659E+03 -1.782529E+05 -3.909118E-10  6.116325E-10
       151  17 -4.516378E+05 -9.744737E+04 -1.957462E+04 -1.825421E+05  9.115879E-10 -1.792841E-10
       151  18 -4.916824E+05 -1.228178E+05 -3.101245E+04 -2.044018E+05 -2.206613E-10 -5.851672E-10
       151  19 -3.348711E+05 -6.450554E+04  6.819783E+03 -1.614105E+05 -2.570455E+03  6.173832E+02
       151  20 -2.948217E+05 -3.913490E+04  1.833615E+04 -1.395492E+05 -3.939489E+03  3.330599E+03
       151  21 -2.394831E+05 -2.911519E+04  2.961953E+04 -1.352575E+05 -5.308764E+03  6.043411E+03
       151  22 -3.655886E+05 -7.596729E+04 -7.753696E+02 -1.698319E+05 -1.558555E+02  1.522785E+03
       151  23 -3.732329E+05 -6.829138E+04 -6.190283E+02 -1.610469E+05 -1.525041E+03  4.236102E+03
       151  24 -3.655915E+05 -7.596736E+04 -6.960759E+02 -1.698331E+05 -2.894430E+03  6.949000E+03
       151  25 -3.963054E+05 -8.742907E+04 -8.370639E+03 -1.782529E+05  2.258633E+03  2.428145E+03
       151  26 -4.516378E+05 -9.744734E+04 -1.957457E+04 -1.825421E+05  8.890667E+02  5.141477E+03
       151  27 -4.916824E+05 -1.228177E+05 -3.101233E+04 -2.044018E+05 -4.806634E+02  7.854376E+03
       152   1 -1.989644E+05 -1.398889E+04  3.962907E+04 -1.241706E+05  6.050207E+03 -7.642448E+03
       152   2 -1.590003E+05  1.132387E+04  5.046598E+04 -1.023441E+05  7.759168E+03 -1.022224E+04
       152   3 -1.038122E+05  2.128641E+04  6.081397E+04 -9.804516E+04  9.467172E+03 -1.279648E+04
       152   4 -3.656071E+05 -7.596029E+04 -8.180422E+02 -1.698273E+05  3.637456E+03 -8.547613E+03
       152   5 -3.732235E+05 -6.830661E+04 -1.312500E+03 -1.610558E+05  5.350677E+03 -1.112623E+04
       152   6 -3.656183E+05 -7.600436E+04 -2.299067E+03 -1.698130E+05  7.062889E+03 -1.369931E+04
       152   7 -5.322234E+05 -1.379302E+05 -4.126749E+04 -2.154731E+05  1.225396E+03 -9.452519E+03
       152   8 -5.874038E+05 -1.479348E+05 -5.309501E+04 -2.197496E+05  2.943065E+03 -1.202990E+04
       152   9 -6.273609E+05 -1.732920E+05 -6.541829E+04 -2.415544E+05  4.659672E+03 -1.460174E+04
       152  10 -1.989645E+05 -1.398896E+04  3.962890E+04 -1.241706E+05 -1.725230E-09 -1.060274E-09
       152  11 -1.590004E+05  1.132374E+04  5.046567E+04 -1.023441E+05  4.344773E-10  5.426011E-10
       152  12 -1.038124E+05  2.128621E+04  6.081350E+04 -9.804507E+04  1.689715E-09  7.407372E-10
       152  13 -3.656071E+05 -7.596037E+04 -8.182043E+02 -1.698273E+05  9.384738E-11 -4.199421E-10
       152  14 -3.732236E+05 -6.830675E+04 -1.312787E+03 -1.610557E+05 -2.343824E-10  6.057104E-10
       152  15 -3.656184E+05 -7.600457E+04 -2.299514E+03 -1.698129E+05  1.926225E-09  8.216821E-10
       152  16 -5.322234E+05 -1.379303E+05 -4.126766E+04 -2.154731E+05  2.645056E-10  1.902516E-10
       152  17 -5.874038E+05 -1.479350E+05 -5.309530E+04 -2.197496E+05 -1.513461E-10  6.437228E-10
       152  18 -6.273610E+05 -1.732922E+05 -6.541873E+04 -2.415544E+05  4.159835E-09  1.581783E-09
       152  19 -1.989644E+05 -1.398889E+04  3.962907E+04 -1.241706E+05 -6.050207E+03  7.642448E+03
       152  20 -1.590003E+05  1.132387E+04  5.046598E+04 -1.023441E+05 -7.759168E+03  1.022224E+04
       152  21 -1.038122E+05  2.128641E+04  6.081397E+04 -9.804516E+04 -9.467172E+03  1.279648E+04
       152  22 -3.656071E+05 -7.596029E+04 -8.180422E+02 -1.698273E+05 -3.637456E+03  8.547613E+03
       152  23 -3.732235E+05 -6.830661E+04 -1.312500E+03 -1.610558E+05 -5.350677E+03  1.112623E+04
       152  24 -3.656183E+05 -7.600436E+04 -2.299067E+03 -1.698130E+05 -7.062889E+03  1.369931E+04
       152  25 -5.322234E+05 -1.379302E+05 -4.126749E+04 -2.154731E+05 -1.225396E+03  9.452519E+03
       152  26 -5.874038E+05 -1.479348E+05 -5.309501E+04 -2.197496E+05 -2.943065E+03  1.202990E+04
       152  27 -6.273609E+05 -1.732920E+05 -6.541829E+04 -2.415544E+05 -4.659672E+03  1.460174E+04
       153   1 -6.345497E+04  3.634614E+04  7.017105E+04 -8.711836E+04  1.053183E+04 -1.427111E+04
       153   2 -2.356263E+04  6.168072E+04  7.902221E+04 -6.522482E+04  1.428327E+04 -1.606034E+04
       153   3  3.100307E+04  7.104253E+04  8.568938E+04 -6.068376E+04  1.801992E+04 -1.780539E+04
       153   4 -3.657215E+05 -7.594245E+04 -3.034404E+03 -1.698531E+05  8.119559E+03 -1.517727E+04
       153   5 -3.731041E+05 -6.827446E+04 -5.465460E+03 -1.610577E+05  1.190683E+04 -1.695369E+04
       153   6 -3.658224E+05 -7.658678E+04 -1.010951E+04 -1.696156E+05  1.567911E+04 -1.868600E+04
       153   7 -6.678935E+05 -1.882232E+05 -7.624540E+04 -2.525502E+05  5.708605E+03 -1.608294E+04
       153   8 -7.225219E+05 -1.982201E+05 -8.996134E+04 -2.568408E+05  9.531869E+03 -1.784649E+04
       153   9 -7.624913E+05 -2.242048E+05 -1.059198E+05 -2.784840E+05  1.333993E+04 -1.956600E+04
       153  10 -6.345515E+04  3.634589E+04  7.017045E+04 -8.711824E+04  2.561935E-09  7.221546E-10
       153  11 -2.356292E+04  6.168039E+04  7.902134E+04 -6.522463E+04  3.742425E-10 -2.100923E-10
       153  12  3.100263E+04  7.104210E+04  8.568818E+04 -6.068350E+04 -2.215708E-09  6.899062E-10
       153  13 -3.657217E+05 -7.594272E+04 -3.034961E+03 -1.698530E+05  2.730688E-09  1.139936E-09
       153  14 -3.731043E+05 -6.827481E+04 -5.466267E+03 -1.610575E+05  5.303808E-10  1.234325E-09
       153  15 -3.658227E+05 -7.658722E+04 -1.011063E+04 -1.696154E+05 -4.722744E-10 -6.750873E-11
       153  16 -6.678936E+05 -1.882234E+05 -7.624595E+04 -2.525501E+05  3.782204E-09  1.352200E-09
       153  17 -7.225221E+05 -1.982205E+05 -8.996211E+04 -2.568406E+05  1.015828E-09 -1.829028E-10
       153  18 -7.624916E+05 -2.242053E+05 -1.059208E+05 -2.784838E+05 -4.394669E-10 -6.402329E-10
       153  19 -6.345497E+04  3.634614E+04  7.017105E+04 -8.711836E+04 -1.053183E+04  1.427111E+04
       153  20 -2.356263E+04  6.168072E+04  7.902221E+04 -6.522482E+04 -1.428327E+04  1.606034E+04
       153  21  3.100307E+04  7.104253E+04  8.568938E+04 -6.068376E+04 -1.801992E+04  1.780539E+04
       153  22 -3.657215E+05 -7.594245E+04 -3.034404E+03 -1.698531E+05 -8.119559E+03  1.517727E+04
       153  23 -3.731041E+05 -6.827446E+04 -5.465460E+03 -1.610577E+05 -1.190683E+04  1.695369E+04
       153  24 -3.658224E+05 -7.658678E+04 -1.010951E+04 -1.696156E+05 -1.567911E+04  1.868600E+04
       153  25 -6.678935E+05 -1.882232E+05 -7.624540E+04 -2.525502E+05 -5.708605E+03  1.608294E+04
       153  26 -7.225219E+05 -1.982201E+05 -8.996134E+04 -2.568408E+05 -9.531869E+03  1.784649E+04
       153  27 -7.624913E+05 -2.242048E+05 -1.059198E+05 -2.784840E+05 -1.333993E+04  1.956600E+04
       154   1  7.182354E+04  8.576588E+04  9.250117E+04 -5.191973E+04  2.078613E+04 -1.871969E+04
       154   2  1.111544E+05  1.130968E+05  9.316536E+04 -2.708119E+04  3.320233E+04 -1.702219E+04
       154   3  1.600378E+05  1.140725E+05  8.231640E+04 -1.701290E+04  4.530027E+04 -1.447003E+04
       154   4 -3.665164E+05 -7.551510E+04 -1.328775E+04 -1.703274E+05  1.819530E+04 -1.969469E+04
       154   5 -3.720119E+05 -6.781330E+04 -2.392743E+04 -1.608578E+05  3.133138E+04 -1.772757E+04
       154   6 -3.681046E+05 -8.661750E+04 -4.665822E+04 -1.661606E+05  4.414814E+04 -1.490591E+04
       154   7 -8.046688E+05 -2.367847E+05 -1.190914E+05 -2.886602E+05  1.560646E+04 -2.066897E+04
       154   8 -8.549486E+05 -2.487069E+05 -1.410379E+05 -2.945399E+05  2.946200E+04 -1.843235E+04
       154   9 -8.959714E+05 -2.872852E+05 -1.756539E+05 -3.151918E+05  4.299707E+04 -1.534137E+04
       154  10  7.182298E+04  8.576539E+04  9.249970E+04 -5.191941E+04  1.701946E-09 -1.856220E-10
       154  11  1.111531E+05  1.130962E+05  9.316275E+04 -2.708074E+04 -4.922111E-10 -1.726146E-10
       154  12  1.600355E+05  1.140717E+05  8.231215E+04 -1.701237E+04  7.831724E-10 -2.458815E-10
       154  13 -3.665169E+05 -7.551560E+04 -1.328910E+04 -1.703271E+05  1.690629E-09 -1.418967E-09
       154  14 -3.720130E+05 -6.781390E+04 -2.392987E+04 -1.608574E+05 -2.856559E-10 -9.218112E-10
       154  15 -3.681068E+05 -8.661827E+04 -4.666230E+04 -1.661600E+05 -1.043445E-09  1.695462E-09
       154  16 -8.046692E+05 -2.367852E+05 -1.190927E+05 -2.886600E+05 -1.013728E-09  8.508576E-11
       154  17 -8.549497E+05 -2.487075E+05 -1.410402E+05 -2.945395E+05 -1.323859E-09  1.129328E-09
       154  18 -8.959734E+05 -2.872859E+05 -1.756578E+05 -3.151913E+05  2.214692E-11  4.652824E-10
       154  19  7.182354E+04  8.576588E+04  9.250117E+04 -5.191973E+04 -2.078613E+04  1.871969E+04
       154  20  1.111544E+05  1.130968E+05  9.316536E+04 -2.708119E+04 -3.320233E+04  1.702219E+04
       154  21  1.600378E+05  1.140725E+05  8.231640E+04 -1.701290E+04 -4.530027E+04  1.447003E+04
       154  22 -3.665164E+05 -7.551510E+04 -1.328775E+04 -1.703274E+05 -1.819530E+04  1.969469E+04
       154  23 -3.720119E+05 -6.781330E+04 -2.392743E+04 -1.608578E+05 -3.133138E+04  1.772757E+04
       154  24 -3.681046E+05 -8.661750E+04 -4.665822E+04 -1.661606E+05 -4.414814E+04  1.490591E+04
       154  25 -8.046688E+05 -2.367847E+05 -1.190914E+05 -2.886602E+05 -1.560646E+04  2.066897E+04
       154  26 -8.549486E+05 -2.487069E+05 -1.410379E+05 -2.945399E+05 -2.946200E+04  1.843235E+04
       154  27 -8.959714E+05 -2.872852E+05 -1.756539E+05 -3.151918E+05 -4.299707E+04  1.534137E+04
       155   1  2.144753E+05  1.251974E+05  7.905147E+04 -4.185434E+04  5.979597E+04 -1.296760E+04
       155   2  2.375857E+05  1.878057E+05  4.779644E+04  3.510325E+04  9.881898E+04  3.387654E+03
       155   3  2.033753E+05  5.895119E+04 -6.141847E+04  1.419086E+05  1.307573E+05  3.855591E+04
       155   4 -3.757790E+05 -6.845251E+04 -5.882913E+04 -1.771642E+05  5.297504E+04 -1.553472E+04
       155   5 -3.585227E+05 -6.270390E+04 -1.034932E+05 -1.575906E+05  1.080149E+05  6.843485E+03
       155   6 -4.018376E+05 -2.517146E+05 -2.388720E+05 -1.081538E+05  1.559640E+05  4.803406E+04
       155   7 -9.656884E+05 -2.620960E+05 -1.967330E+05 -3.123655E+05  4.616118E+04 -1.809991E+04
       155   8 -9.542728E+05 -3.131595E+05 -2.548097E+05 -3.501052E+05  1.172011E+05  1.029461E+04
       155   9 -1.006667E+06 -5.622490E+05 -4.163546E+05 -3.579607E+05  1.811434E+05  5.749350E+04
       155  10  2.144714E+05  1.251963E+05  7.904444E+04 -4.185371E+04  2.696203E-10  1.719146E-10
       155  11  2.375753E+05  1.878030E+05  4.777807E+04  3.510298E+04  9.990637E-11 -2.411534E-09
       155  12  2.033565E+05  5.894501E+04 -6.145338E+04  1.419045E+05 -3.697545E-10  1.166868E-10
       155  13 -3.757821E+05 -6.845352E+04 -5.883486E+04 -1.771636E+05  6.234142E-10 -2.899023E-10
       155  14 -3.585353E+05 -6.270709E+04 -1.035153E+05 -1.575912E+05 -1.502801E-09  9.587617E-09
       155  15 -4.018643E+05 -2.517236E+05 -2.389221E+05 -1.081598E+05 -1.184491E-09  4.591420E-09
       155  16 -9.656908E+05 -2.620969E+05 -1.967376E+05 -3.123648E+05 -8.253712E-10  8.452576E-10
       155  17 -9.542876E+05 -3.131633E+05 -2.548357E+05 -3.501061E+05 -3.094591E-10  2.858274E-09
       155  18 -1.006703E+06 -5.622613E+05 -4.164226E+05 -3.579691E+05 -1.232096E-09  1.576496E-09
       155  19  2.144753E+05  1.251974E+05  7.905147E+04 -4.185434E+04 -5.979597E+04  1.296760E+04
       155  20  2.375857E+05  1.878057E+05  4.779644E+04  3.510325E+04 -9.881898E+04 -3.387654E+03
       155  21  2.033753E+05  5.895119E+04 -6.141847E+04  1.419086E+05 -1.307573E+05 -3.855591E+04
       155  22 -3.757790E+05 -6.845251E+04 -5.882913E+04 -1.771642E+05 -5.297504E+04  1.553472E+04
       155  23 -3.585227E+05 -6.270390E+04 -1.034932E+05 -1.575906E+05 -1.080149E+05 -6.843485E+03
       155  24 -4.018376E+05 -2.517146E+05 -2.388720E+05 -1.081538E+05 -1.559640E+05 -4.803406E+04
       155  25 -9.656884E+05 -2.620960E+05 -1.967330E+05 -3.123655E+05 -4.616118E+04  1.809991E+04
       155  26 -9.542728E+05 -3.131595E+05 -2.548097E+05 -3.501052E+05 -1.172011E+05 -1.029461E+04
       155  27 -1.006667E+06 -5.622490E+05 -4.163546E+05 -3.579607E+05 -1.811434E+05 -5.749350E+04
       156   1  2.207050E+05  2.047899E+06  2.272877E+05  1.354104E+04  8.834986E+03  1.169294E+05
       156   2  1.540359E+05  2.117719E+06  1.694883E+05  3.644177E+04  3.206583E+04  7.030394E+04
       156   3  1.559193E+05  2.210814E+06  1.591473E+05  8.097790E+04  4.390020E+04  2.367056E+04
       156   4  9.894577E+04  1.553246E+06  1.124697E+05  7.350627E+04  8.865570E+03  7.377841E+04
       156   5  1.686367E+04  1.543102E+06  5.722905E+04  6.265629E+04  3.208591E+04  4.416712E+04
       156   6  4.134661E+02  1.553287E+06  3.766909E+04  7.343947E+04  4.390998E+04  1.455218E+04
       156   7 -2.281620E+04  1.058830E+06 -2.355986E+03  1.334235E+05  8.887856E+03  3.066146E+04
       156   8 -1.203255E+05  9.688035E+05 -5.504309E+04  8.884612E+04  3.210380E+04  1.805388E+04
       156   9 -1.551167E+05  8.961783E+05 -8.382686E+04  6.590926E+04  4.391999E+04  5.443170E+03
       156  10  2.207012E+05  2.047884E+06  2.272620E+05  1.354021E+04  9.057343E-10 -3.330717E-11
       156  11  1.540335E+05  2.117714E+06  1.694771E+05  3.643995E+04 -1.493701E-10 -3.401591E-09
       156  12  1.559170E+05  2.210812E+06  1.591427E+05  8.097706E+04 -4.644651E-10 -2.641722E-09
       156  13  9.894423E+04  1.553240E+06  1.124593E+05  7.350574E+04  9.174200E-12  1.027001E-10
       156  14  1.686205E+04  1.543100E+06  5.722346E+04  6.265515E+04  3.773225E-09 -1.737896E-09
       156  15  4.113377E+02  1.553286E+06  3.766507E+04  7.343896E+04 -1.397192E-09  1.695696E-09
       156  16 -2.281654E+04  1.058829E+06 -2.357898E+03  1.334233E+05  1.015556E-10 -4.614123E-10
       156  17 -1.203267E+05  9.688028E+05 -5.504564E+04  8.884565E+04 -3.587863E-10  1.933419E-09
       156  18 -1.551188E+05  8.961777E+05 -8.383054E+04  6.590907E+04 -3.016869E-09  4.718333E-09
       156  19  2.207050E+05  2.047899E+06  2.272877E+05  1.354104E+04 -8.834986E+03 -1.169294E+05
       156  20  1.540359E+05  2.117719E+06  1.694883E+05  3.644177E+04 -3.206583E+04 -7.030394E+04
       156  21  1.559193E+05  2.210814E+06  1.591473E+05  8.097790E+04 -4.390020E+04 -2.367056E+04
       156  22  9.894577E+04  1.553246E+06  1.124697E+05  7.350627E+04 -8.865570E+03 -7.377841E+04
       156  23  1.686367E+04  1.543102E+06  5.722905E+04  6.265629E+04 -3.208591E+04 -4.416712E+04
       156  24  4.134661E+02  1.553287E+06  3.766909E+04  7.343947E+04 -4.390998E+04 -1.455218E+04
       156  25 -2.281620E+04  1.058830E+06 -2.355986E+03  1.334235E+05 -8.887856E+03 -3.066146E+04
       156  26 -1.203255E+05  9.688035E+05 -5.504309E+04  8.884612E+04 -3.210380E+04 -1.805388E+04
       156  27 -1.551167E+05  8.961783E+05 -8.382686E+04  6.590926E+04 -4.391999E+04 -5.443170E+03
       157   1  1.718648E+05  2.261631E+06  1.652042E+05  7.026033E+04  4.752492E+04  2.032024E+04
       157   2  1.883399E+05  2.341331E+06  1.780893E+05  6.237404E+04  5.369848E+04  1.807600E+01
       157   3  2.132447E+05  2.425917E+06  2.063012E+05  7.546568E+04  5.701450E+04 -2.028652E+04
       157   4  3.467904E+03  1.549668E+06  3.365789E+04  7.330442E+04  4.753818E+04  8.991312E+03
       157   5  7.463545E+02  1.547573E+06  3.211610E+04  6.281539E+04  5.371085E+04 -7.028857E+03
       157   6  5.719773E+03  1.549622E+06  4.294495E+04  7.330559E+04  5.702435E+04 -2.304889E+04
       157   7 -1.649578E+05  8.381953E+05 -9.790905E+04  7.634501E+04  4.755135E+04 -2.325004E+03
       157   8 -1.868829E+05  7.544235E+05 -1.138830E+05  6.325627E+04  5.372322E+04 -1.406704E+04
       157   9 -2.018493E+05  6.740663E+05 -1.204441E+05  7.114877E+04  5.703424E+04 -2.580745E+04
       157  10  1.718623E+05  2.261630E+06  1.651991E+05  7.025955E+04 -2.582808E-09 -8.760923E-10
       157  11  1.883368E+05  2.341330E+06  1.780839E+05  6.237404E+04 -2.014481E-09 -3.661835E-09
       157  12  2.132411E+05  2.425916E+06  2.062943E+05  7.546661E+04 -1.235004E-09 -4.860590E-10
       157  13  3.465454E+03  1.549668E+06  3.365349E+04  7.330408E+04 -1.054652E-09 -2.208420E-10
       157  14  7.432413E+02  1.547572E+06  3.211058E+04  6.281569E+04 -2.998331E-09 -2.591450E-09
       157  15  5.716137E+03  1.549620E+06  4.293784E+04  7.330665E+04 -1.827335E-09  2.828846E-09
       157  16 -1.649602E+05  8.381947E+05 -9.791331E+04  7.634510E+04 -9.019048E-10 -2.214671E-10
       157  17 -1.868860E+05  7.544225E+05 -1.138888E+05  6.325688E+04 -6.597695E-10  8.463104E-10
       157  18 -2.018529E+05  6.740647E+05 -1.204514E+05  7.114996E+04 -1.939139E-09  3.761766E-09
       157  19  1.718648E+05  2.261631E+06  1.652042E+05  7.026033E+04 -4.752492E+04 -2.032024E+04
       157  20  1.883399E+05  2.341331E+06  1.780893E+05  6.237404E+04 -5.369848E+04 -1.807600E+01
       157  21  2.132447E+05  2.425917E+06  2.063012E+05  7.546568E+04 -5.701450E+04  2.028652E+04
       157  22  3.467904E+03  1.549668E+06  3.365789E+04  7.330442E+04 -4.753818E+04 -8.991312E+03
       157  23  7.463545E+02  1.547573E+06  3.211610E+04  6.281539E+04 -5.371085E+04  7.028857E+03
       157  24  5.719773E+03  1.549622E+06  4.294495E+04  7.330559E+04 -5.702435E+04  2.304889E+04
       157  25 -1.649578E+05  8.381953E+05 -9.790905E+04  7.634501E+04 -4.755135E+04  2.325004E+03
       157  26 -1.868829E+05  7.544235E+05 -1.138830E+05  6.325627E+04 -5.372322E+04  1.406704E+04
       157  27 -2.018493E+05  6.740663E+05 -1.204441E+05  7.114877E+04 -5.703424E+04  2.580745E+04
       158   1  2.216363E+05  2.488588E+06  2.266094E+05  5.908537E+04  6.004003E+04 -2.288329E+04
       158   2  2.691427E+05  2.552373E+06  2.899136E+05  1.028837E+05  5.152942E+04 -1.087085E+05
       158   3  4.274909E+05  2.655185E+06  4.366980E+05  1.663261E+05  1.582635E+04 -1.945996E+05
       158   4  5.694314E+02  1.555812E+06  5.209200E+04  7.296807E+04  6.005593E+04 -3.028316E+04
       158   5  2.666748E+04  1.539709E+06  8.714914E+04  6.325639E+04  5.149646E+04 -7.547057E+04
       158   6  1.566575E+05  1.555644E+06  1.775892E+05  7.318076E+04  1.573910E+04 -1.207078E+05
       158   7 -2.205468E+05  6.238750E+05 -1.224626E+05  8.682965E+04  6.007151E+04 -3.767220E+04
       158   8 -2.158640E+05  5.280253E+05 -1.156622E+05  2.369505E+04  5.145925E+04 -4.228554E+04
       158   9 -1.142262E+05  4.572409E+05 -8.157762E+04 -1.979892E+04  1.562970E+04 -4.694554E+04
       158  10  2.216322E+05  2.488587E+06  2.266016E+05  5.908648E+04 -6.621587E-10 -2.569208E-08
       158  11  2.691367E+05  2.552360E+06  2.898865E+05  1.028882E+05 -4.511715E-10 -3.928782E-09
       158  12  4.274805E+05  2.655144E+06  4.366266E+05  1.663285E+05  6.595596E-10  2.600302E-08
       158  13  5.653101E+02  1.555810E+06  5.208349E+04  7.296953E+04 -2.234131E-09 -3.261707E-10
       158  14  2.666311E+04  1.539702E+06  8.713347E+04  6.325951E+04 -2.077606E-10 -3.302355E-09
       158  15  1.566534E+05  1.555628E+06  1.775614E+05  7.318229E+04 -1.954789E-10  4.440903E-09
       158  16 -2.205511E+05  6.238725E+05 -1.224720E+05  8.683147E+04 -1.708815E-09  2.389448E-08
       158  17 -2.158673E+05  5.280226E+05 -1.156706E+05  2.369680E+04  2.451400E-10  1.187101E-10
       158  18 -1.142271E+05  4.572385E+05 -8.158221E+04 -1.979833E+04 -2.350370E-10 -2.112948E-08
       158  19  2.216363E+05  2.488588E+06  2.266094E+05  5.908537E+04 -6.004003E+04  2.288329E+04
       158  20  2.691427E+05  2.552373E+06  2.899136E+05  1.028837E+05 -5.152942E+04  1.087085E+05
       158  21  4.274909E+05  2.655185E+06  4.366980E+05  1.663261E+05 -1.582635E+04  1.945996E+05
       158  22  5.694314E+02  1.555812E+06  5.209200E+04  7.296807E+04 -6.005593E+04  3.028316E+04
       158  23  2.666748E+04  1.539709E+06  8.714914E+04  6.325639E+04 -5.149646E+04  7.547057E+04
       158  24  1.566575E+05  1.555644E+06  1.775892E+05  7.318076E+04 -1.573910E+04  1.207078E+05
       158  25 -2.205468E+05  6.238750E+05 -1.224626E+05  8.682965E+04 -6.007151E+04  3.767220E+04
       158  26 -2.158640E+05  5.280253E+05 -1.156622E+05  2.369505E+04 -5.145925E+04  4.228554E+04
       158  27 -1.142262E+05  4.572409E+05 -8.157762E+04 -1.979892E+04 -1.562970E+04  4.694554E+04
       159   1 -2.112597E+05 -1.294362E+05 -8.847736E+04  5.142235E+03  9.344072E+04  1.563217E+04
       159   2 -1.166256E+05 -2.637234E+05 -1.486565E+05 -2.288300E+04  7.365080E+04  4.857187E+04
       159   3  1.988235E+04 -2.430859E+05 -1.571168E+05 -9.745053E+04  5.389853E+04  5.016833E+04
       159   4  9.824584E+05  1.667472E+05  2.005768E+05 -7.314919E+04  1.379722E+05  1.567727E+04
       159   5  9.591617E+05 -7.183222E+02  9.135983E+04 -4.978952E+04  8.952780E+04  4.857820E+04
       159   6  9.826098E+05 -8.444191E+03  5.367123E+04 -7.296091E+04  4.112694E+04  5.015696E+04
       159   7  2.177495E+06  4.628507E+05  4.895393E+05 -1.515920E+05  1.825889E+05  1.571112E+04
       159   8  2.036029E+06  2.622111E+05  3.313049E+05 -7.674338E+04  1.054319E+05  4.858315E+04
       159   9  1.946206E+06  2.261380E+05  2.644040E+05 -4.843294E+04  2.833575E+04  5.014458E+04
       159  10 -2.112692E+05 -1.294388E+05 -8.849423E+04  5.141059E+03  2.955661E-10 -8.036004E-12
       159  11 -1.166320E+05 -2.637274E+05 -1.486711E+05 -2.288588E+04 -6.238613E-10  9.315382E-11
       159  12  1.987855E+04 -2.430894E+05 -1.571270E+05 -9.745271E+04 -8.867159E-10  3.645114E-10
       159  13  9.824379E+05  1.667418E+05  2.005406E+05 -7.315093E+04  5.313645E-10 -2.024142E-11
       159  14  9.591524E+05 -7.230052E+02  9.134035E+04 -4.979302E+04 -1.043515E-09  1.389585E-10
       159  15  9.826073E+05 -8.447347E+03  5.366332E+04 -7.296258E+04  5.202395E-10  2.385941E-10
       159  16  2.177460E+06  4.628415E+05  4.894764E+05 -1.515943E+05  3.235290E-10  4.364777E-11
       159  17  2.036016E+06  2.622056E+05  3.312797E+05 -7.674750E+04  1.025561E-09  1.585021E-10
       159  18  1.946204E+06  2.261351E+05  2.643977E+05 -4.843408E+04  4.600832E-10  4.449825E-11
       159  19 -2.112597E+05 -1.294362E+05 -8.847736E+04  5.142235E+03 -9.344072E+04 -1.563217E+04
       159  20 -1.166256E+05 -2.637234E+05 -1.486565E+05 -2.288300E+04 -7.365080E+04 -4.857187E+04
       159  21  1.988235E+04 -2.430859E+05 -1.571168E+05 -9.745053E+04 -5.389853E+04 -5.016833E+04
       159  22  9.824584E+05  1.667472E+05  2.005768E+05 -7.314919E+04 -1.379722E+05 -1.567727E+04
       159  23  9.591617E+05 -7.183222E+02  9.135983E+04 -4.978952E+04 -8.952780E+04 -4.857820E+04
       159  24  9.826098E+05 -8.444191E+03  5.367123E+04 -7.296091E+04 -4.112694E+04 -5.015696E+04
       159  25  2.177495E+06  4.628507E+05  4.895393E+05 -1.515920E+05 -1.825889E+05 -1.571112E+04
       159  26  2.036029E+06  2.622111E+05  3.313049E+05 -7.674338E+04 -1.054319E+05 -4.858315E+04
       159  27  1.946206E+06  2.261380E+05  2.644040E+05 -4.843294E+04 -2.833575E+04 -5.014458E+04
       160   1  1.044447E+05 -2.029360E+05 -1.484905E+05 -7.027819E+04  3.713670E+04  4.363566E+04
       160   2  2.163272E+05 -1.843921E+05 -1.424047E+05 -4.899368E+04  2.682893E+04  3.892773E+04
       160   3  3.320483E+05 -1.568642E+05 -1.273072E+05 -7.485055E+04  1.651430E+04  3.284041E+04
       160   4  9.731443E+05  8.932632E+03  4.265729E+04 -7.314462E+04  3.350688E+04  4.362946E+04
       160   5  9.711538E+05 -4.267516E+02  2.307012E+04 -4.957483E+04  2.192585E+04  3.892327E+04
       160   6  9.732042E+05 -5.877904E+02  1.336827E+04 -7.314247E+04  1.033981E+04  3.283842E+04
       160   7  1.842549E+06  2.207507E+05  2.337590E+05 -7.601515E+04  2.987202E+04  4.362330E+04
       160   8  1.726513E+06  1.835006E+05  1.885104E+05 -5.015670E+04  1.701687E+04  3.891882E+04
       160   9  1.614744E+06  1.556612E+05  1.540189E+05 -7.143258E+04  4.159021E+03  3.283641E+04
       160  10  1.044427E+05 -2.029384E+05 -1.484966E+05 -7.027949E+04 -6.312729E-10  2.622688E-10
       160  11  2.163260E+05 -1.843939E+05 -1.424089E+05 -4.899452E+04  3.918363E-10 -2.874141E-10
       160  12  3.320478E+05 -1.568655E+05 -1.273097E+05 -7.485099E+04 -6.835653E-11 -4.360031E-10
       160  13  9.731425E+05  8.930286E+03  4.265161E+04 -7.314580E+04 -2.189099E-11  5.282150E-11
       160  14  9.711529E+05 -4.285081E+02  2.306637E+04 -4.957552E+04 -2.402627E-10 -1.742957E-10
       160  15  9.732038E+05 -5.889776E+02  1.336604E+04 -7.314275E+04  4.611488E-11 -1.437290E-10
       160  16  1.842547E+06  2.207484E+05  2.337537E+05 -7.601620E+04 -4.295548E-10 -9.113379E-11
       160  17  1.726512E+06  1.834989E+05  1.885070E+05 -5.015724E+04  6.461783E-10 -8.224791E-11
       160  18  1.614744E+06  1.556601E+05  1.540168E+05 -7.143269E+04  4.379105E-12  1.697218E-11
       160  19  1.044447E+05 -2.029360E+05 -1.484905E+05 -7.027819E+04 -3.713670E+04 -4.363566E+04
       160  20  2.163272E+05 -1.843921E+05 -1.424047E+05 -4.899368E+04 -2.682893E+04 -3.892773E+04
       160  21  3.320483E+05 -1.568642E+05 -1.273072E+05 -7.485055E+04 -1.651430E+04 -3.284041E+04
       160  22  9.731443E+05  8.932632E+03  4.265729E+04 -7.314462E+04 -3.350688E+04 -4.362946E+04
       160  23  9.711538E+05 -4.267516E+02  2.307012E+04 -4.957483E+04 -2.192585E+04 -3.892327E+04
       160  24  9.732042E+05 -5.877904E+02  1.336827E+04 -7.314247E+04 -1.033981E+04 -3.283842E+04
       160  25  1.842549E+06  2.207507E+05  2.337590E+05 -7.601515E+04 -2.987202E+04 -4.362330E+04
       160  26  1.726513E+06  1.835006E+05  1.885104E+05 -5.015670E+04 -1.701687E+04 -3.891882E+04
       160  27  1.614744E+06  1.556612E+05  1.540189E+05 -7.143258E+04 -4.159021E+03 -3.283641E+04
       161   1  4.237851E+05 -1.332511E+05 -1.095961E+05 -7.317354E+04  1.400915E+04  2.897606E+04
       161   2  5.364118E+05 -1.062611E+05 -8.953847E+04 -4.974695E+04  1.114716E+04  2.264182E+04
       161   3  6.496038E+05 -7.871662E+04 -6.747073E+04 -7.313942E+04  8.281143E+03  1.625759E+04
       161   4  9.724557E+05  3.715097E+02  1.026075E+04 -7.307187E+04  8.256199E+03  2.897527E+04
       161   5  9.721897E+05 -9.567802E+01  5.870033E+03 -4.966346E+04  5.345793E+03  2.264248E+04
       161   6  9.724863E+05  7.735190E-01  3.522287E+03 -7.307209E+04  2.431878E+03  1.625977E+04
       161   7  1.521408E+06  1.339741E+05  1.300995E+05 -7.297008E+04  2.498226E+03  2.897447E+04
       161   8  1.408145E+06  1.060571E+05  1.012672E+05 -4.957988E+04 -4.595900E+02  2.264314E+04
       161   9  1.295466E+06  7.871121E+04  7.450907E+04 -7.300472E+04 -3.420390E+03  1.626195E+04
       161  10  4.237846E+05 -1.332520E+05 -1.095980E+05 -7.317386E+04 -6.732426E-10 -2.955123E-10
       161  11  5.364115E+05 -1.062617E+05 -8.953967E+04 -4.974716E+04 -2.350653E-10  9.923654E-11
       161  12  6.496037E+05 -7.871692E+04 -6.747136E+04 -7.313953E+04 -8.336074E-11 -8.272946E-11
       161  13  9.724554E+05  3.705894E+02  1.025905E+04 -7.307206E+04  9.881123E-10 -2.217408E-11
       161  14  9.721895E+05 -9.623647E+01  5.869015E+03 -4.966355E+04 -1.418081E-09  1.898128E-10
       161  15  9.724862E+05  4.879002E-01  3.521779E+03 -7.307212E+04 -4.973692E-10 -7.382495E-11
       161  16  1.521408E+06  1.339732E+05  1.300979E+05 -7.297014E+04  2.212359E-10  1.405730E-10
       161  17  1.408145E+06  1.060566E+05  1.012662E+05 -4.957987E+04 -6.568713E-10  2.191241E-10
       161  18  1.295466E+06  7.871092E+04  7.450855E+04 -7.300467E+04 -2.707441E-10 -2.065472E-10
       161  19  4.237851E+05 -1.332511E+05 -1.095961E+05 -7.317354E+04 -1.400915E+04 -2.897606E+04
       161  20  5.364118E+05 -1.062611E+05 -8.953847E+04 -4.974695E+04 -1.114716E+04 -2.264182E+04
       161  21  6.496038E+05 -7.871662E+04 -6.747073E+04 -7.313942E+04 -8.281143E+03 -1.625759E+04
       161  22  9.724557E+05  3.715097E+02  1.026075E+04 -7.307187E+04 -8.256199E+03 -2.897527E+04
       161  23  9.721897E+05 -9.567802E+01  5.870033E+03 -4.966346E+04 -5.345793E+03 -2.264248E+04
       161  24  9.724863E+05  7.735190E-01  3.522287E+03 -7.307209E+04 -2.431878E+03 -1.625977E+04
       161  25  1.521408E+06  1.339741E+05  1.300995E+05 -7.297008E+04 -2.498226E+03 -2.897447E+04
       161  26  1.408145E+06  1.060571E+05  1.012672E+05 -4.957988E+04  4.595900E+02 -2.264314E+04
       161  27  1.295466E+06  7.871121E+04  7.450907E+04 -7.300472E+04  3.420390E+03 -1.626195E+04
       162   1  7.414585E+05 -5.614129E+04 -4.744736E+04 -7.303765E+04  7.684214E+03  1.253342E+04
       162   2  8.539149E+05 -2.882799E+04 -2.401258E+04 -4.970654E+04  6.737261E+03  6.153139E+03
       162   3  9.664805E+05 -1.441462E+03  4.463826E+01 -7.302648E+04  5.789161E+03 -2.264125E+02
       162   4  9.723941E+05  4.894764E+01  2.787439E+03 -7.303504E+04  1.859583E+03  1.253617E+04
       162   5  9.723504E+05  1.965323E+01  1.910476E+03 -4.970980E+04  9.124784E+02  6.156266E+03
       162   6  9.724022E+05  6.386837E+01  1.655775E+03 -7.303506E+04 -3.560646E+01 -2.228605E+02
       162   7  1.203380E+06  5.623567E+04  5.301917E+04 -7.303243E+04 -3.967184E+03  1.253892E+04
       162   8  1.090799E+06  2.886638E+04  2.783281E+04 -4.971306E+04 -4.913400E+03  6.159394E+03
       162   9  9.783240E+05  1.569214E+03  3.267035E+03 -7.304365E+04 -5.860430E+03 -2.193084E+02
       162  10  7.414584E+05 -5.614147E+04 -4.744777E+04 -7.303772E+04 -1.020848E-09 -1.422235E-10
       162  11  8.539148E+05 -2.882804E+04 -2.401274E+04 -4.970658E+04  3.402637E-10 -2.903668E-10
       162  12  9.664804E+05 -1.441471E+03  4.457528E+01 -7.302648E+04  3.450724E-10  1.223839E-10
       162  13  9.723940E+05  4.877788E+01  2.787137E+03 -7.303506E+04 -5.285374E-10 -2.020839E-10
       162  14  9.723504E+05  1.961229E+01  1.910403E+03 -4.970981E+04 -9.707031E-10  1.535688E-10
       162  15  9.724022E+05  6.386831E+01  1.655775E+03 -7.303506E+04 -9.161853E-10  2.488997E-10
       162  16  1.203380E+06  5.623549E+04  5.301885E+04 -7.303239E+04 -3.920416E-10 -1.463046E-10
       162  17  1.090799E+06  2.886633E+04  2.783269E+04 -4.971303E+04 -8.746403E-10  2.008660E-10
       162  18  9.783240E+05  1.569205E+03  3.266971E+03 -7.304365E+04 -1.373743E-10  1.277031E-10
       162  19  7.414585E+05 -5.614129E+04 -4.744736E+04 -7.303765E+04 -7.684214E+03 -1.253342E+04
       162  20  8.539149E+05 -2.882799E+04 -2.401258E+04 -4.970654E+04 -6.737261E+03 -6.153139E+03
       162  21  9.664805E+05 -1.441462E+03  4.463826E+01 -7.302648E+04 -5.789161E+03  2.264125E+02
       162  22  9.723941E+05  4.894764E+01  2.787439E+03 -7.303504E+04 -1.859583E+03 -1.253617E+04
       162  23  9.723504E+05  1.965323E+01  1.910476E+03 -4.970980E+04 -9.124784E+02 -6.156266E+03
       162  24  9.724022E+05  6.386837E+01  1.655775E+03 -7.303506E+04  3.560646E+01  2.228605E+02
       162  25  1.203380E+06  5.623567E+04  5.301917E+04 -7.303243E+04  3.967184E+03 -1.253892E+04
       162  26  1.090799E+06  2.886638E+04  2.783281E+04 -4.971306E+04  4.913400E+03 -6.159394E+03
       162  27  9.783240E+05  1.569214E+03  3.267035E+03 -7.304365E+04  5.860430E+03  2.193084E+02
       163   1  1.058312E+06  2.104732E+04  2.083575E+04 -7.306387E+04  5.481211E+03 -3.939024E+03
       163   2  1.170834E+06  4.834547E+04  4.569846E+04 -4.970479E+04  4.363211E+03 -1.031969E+04
       163   3  1.283501E+06  7.572424E+04  7.129806E+04 -7.301982E+04  3.246632E+03 -1.670330E+04
       163   4  9.724088E+05  6.341538E+01  1.721282E+03 -7.304051E+04 -3.450054E+02 -3.935556E+03
       163   5  9.723356E+05  5.934042E+00  2.259691E+03 -4.970299E+04 -1.465875E+03 -1.031692E+04
       163   6  9.723953E+05  3.037061E+01  3.537591E+03 -7.304048E+04 -2.585125E+03 -1.670118E+04
       163   7  8.865130E+05 -2.092097E+04 -1.739351E+04 -7.301715E+04 -6.170425E+03 -3.932088E+03
       163   8  7.738738E+05 -4.833621E+04 -4.118134E+04 -4.970117E+04 -7.293122E+03 -1.031414E+04
       163   9  6.613800E+05 -7.566990E+04 -6.422856E+04 -7.306112E+04 -8.414002E+03 -1.669905E+04
       163  10  1.058312E+06  2.104730E+04  2.083566E+04 -7.306386E+04 -7.139913E-11  1.713257E-10
       163  11  1.170834E+06  4.834535E+04  4.569822E+04 -4.970476E+04  7.938788E-11 -1.128759E-10
       163  12  1.283501E+06  7.572394E+04  7.129752E+04 -7.301978E+04 -4.307857E-11  1.147426E-10
       163  13  9.724088E+05  6.339871E+01  1.721253E+03 -7.304051E+04 -5.927823E-10  1.616892E-10
       163  14  9.723356E+05  5.819116E+00  2.259487E+03 -4.970300E+04 -4.228287E-10 -4.351318E-11
       163  15  9.723952E+05  3.006915E+01  3.537054E+03 -7.304052E+04 -6.295989E-11 -4.075856E-11
       163  16  8.865129E+05 -2.092100E+04 -1.739362E+04 -7.301717E+04 -3.225977E-10 -1.376209E-10
       163  17  7.738737E+05 -4.833634E+04 -4.118164E+04 -4.970123E+04 -8.461197E-10 -1.917907E-10
       163  18  6.613798E+05 -7.567022E+04 -6.422922E+04 -7.306123E+04 -2.418225E-10 -4.146603E-10
       163  19  1.058312E+06  2.104732E+04  2.083575E+04 -7.306387E+04 -5.481211E+03  3.939024E+03
       163  20  1.170834E+06  4.834547E+04  4.569846E+04 -4.970479E+04 -4.363211E+03  1.031969E+04
       163  21  1.283501E+06  7.572424E+04  7.129806E+04 -7.301982E+04 -3.246632E+03  1.670330E+04
       163  22  9.724088E+05  6.341538E+01  1.721282E+03 -7.304051E+04  3.450054E+02  3.935556E+03
       163  23  9.723356E+05  5.934042E+00  2.259691E+03 -4.970299E+04  1.465875E+03  1.031692E+04
       163  24  9.723953E+05  3.037061E+01  3.537591E+03 -7.304048E+04  2.585125E+03  1.670118E+04
       163  25  8.865130E+05 -2.092097E+04 -1.739351E+04 -7.301715E+04  6.170425E+03  3.932088E+03
       163  26  7.738738E+05 -4.833621E+04 -4.118134E+04 -4.970117E+04  7.293122E+03  1.031414E+04
       163  27  6.613800E+05 -7.566990E+04 -6.422856E+04 -7.306112E+04  8.414002E+03  1.669905E+04
       164   1  1.375725E+06  9.820818E+04  9.308601E+04 -7.296357E+04  2.542994E+03 -2.043053E+04
       164   2  1.488492E+06  1.255794E+05  1.206984E+05 -4.947395E+04 -1.333041E+03 -2.681965E+04
       164   3  1.602038E+06  1.536911E+05  1.510302E+05 -7.288236E+04 -5.205505E+03 -3.315736E+04
       164   4  9.725203E+05 -3.283758E+01  4.549077E+03 -7.309061E+04 -3.317366E+03 -2.042915E+04
       164   5  9.721207E+05 -1.478673E+02  7.711075E+03 -4.964027E+04 -7.143980E+03 -2.682006E+04
       164   6  9.724836E+05  4.708008E+02  1.356092E+04 -7.309036E+04 -1.096634E+04 -3.315950E+04
       164   7  5.694669E+05 -9.828470E+04 -8.399763E+04 -7.321753E+04 -9.173971E+03 -2.042777E+04
       164   8  4.559988E+05 -1.258929E+05 -1.052923E+05 -4.980644E+04 -1.295015E+04 -2.682047E+04
       164   9  3.432994E+05 -1.527758E+05 -1.239321E+05 -7.329813E+04 -1.672141E+04 -3.316163E+04
       164  10  1.375725E+06  9.820773E+04  9.308521E+04 -7.296353E+04  1.931734E-11  1.481506E-10
       164  11  1.488491E+06  1.255786E+05  1.206971E+05 -4.947397E+04 -1.390334E-10 -1.756497E-11
       164  12  1.602038E+06  1.536899E+05  1.510281E+05 -7.288250E+04  8.448303E-10  3.829604E-11
       164  13  9.725201E+05 -3.328891E+01  4.548271E+03 -7.309066E+04  3.716289E-11 -8.773734E-11
       164  14  9.721204E+05 -1.486538E+02  7.709627E+03 -4.964043E+04  5.997610E-10  1.844406E-10
       164  15  9.724832E+05  4.695872E+02  1.355862E+04 -7.309066E+04  6.365803E-10 -2.365444E-10
       164  16  5.694667E+05 -9.828517E+04 -8.399857E+04 -7.321769E+04 -2.207286E-12 -6.190796E-11
       164  17  4.559985E+05 -1.258937E+05 -1.052939E+05 -4.980672E+04 -7.902123E-10  2.809461E-10
       164  18  3.432988E+05 -1.527771E+05 -1.239347E+05 -7.329858E+04 -5.282539E-10 -2.741419E-10
       164  19  1.375725E+06  9.820818E+04  9.308601E+04 -7.296357E+04 -2.542994E+03  2.043053E+04
       164  20  1.488492E+06  1.255794E+05  1.206984E+05 -4.947395E+04  1.333041E+03  2.681965E+04
       164  21  1.602038E+06  1.536911E+05  1.510302E+05 -7.288236E+04  5.205505E+03  3.315736E+04
       164  22  9.725203E+05 -3.283758E+01  4.549077E+03 -7.309061E+04  3.317366E+03  2.042915E+04
       164  23  9.721207E+05 -1.478673E+02  7.711075E+03 -4.964027E+04  7.143980E+03  2.682006E+04
       164  24  9.724836E+05  4.708008E+02  1.356092E+04 -7.309036E+04  1.096634E+04  3.315950E+04
       164  25  5.694669E+05 -9.828470E+04 -8.399763E+04 -7.321753E+04  9.173971E+03  2.042777E+04
       164  26  4.559988E+05 -1.258929E+05 -1.052923E+05 -4.980644E+04  1.295015E+04  2.682047E+04
       164  27  3.432994E+05 -1.527758E+05 -1.239321E+05 -7.329813E+04  1.672141E+04  3.316163E+04
       165   1  1.695825E+06  1.751166E+05  1.760093E+05 -7.081564E+04 -7.508637E+03 -3.703591E+04
       165   2  1.807247E+06  2.031045E+05  2.137542E+05 -5.023569E+04 -2.421634E+04 -4.311402E+04
       165   3  1.924250E+06  2.434993E+05  2.655209E+05 -7.690684E+04 -4.092212E+04 -4.772498E+04
       165   4  9.734734E+05 -7.989122E+02  1.768777E+04 -7.316762E+04 -1.372096E+04 -3.703948E+04
       165   5  9.707686E+05 -5.632813E+02  3.056431E+04 -4.954295E+04 -2.906928E+04 -4.312010E+04
       165   6  9.734050E+05  1.185436E+04  5.653402E+04 -7.317270E+04 -4.441265E+04 -4.773276E+04
       165   7  2.516089E+05 -1.767491E+05 -1.406653E+05 -7.551682E+04 -1.992614E+04 -3.704301E+04
       165   8  1.349434E+05 -2.042777E+05 -1.526679E+05 -4.885118E+04 -3.391576E+04 -4.312619E+04
       165   9  2.340277E+04 -2.198509E+05 -1.525080E+05 -6.944442E+04 -4.789787E+04 -4.774060E+04
       165  10  1.695825E+06  1.751151E+05  1.760066E+05 -7.081586E+04 -6.011688E-10  1.704987E-11
       165  11  1.807246E+06  2.031024E+05  2.137496E+05 -5.023653E+04  1.072355E-10  2.740822E-10
       165  12  1.924248E+06  2.434964E+05  2.655135E+05 -7.690842E+04 -4.438046E-10 -5.134864E-11
       165  13  9.734728E+05 -8.004366E+02  1.768483E+04 -7.316803E+04 -1.207349E-10 -2.783236E-10
       165  14  9.707672E+05 -5.655054E+02  3.055923E+04 -4.954395E+04 -6.258651E-10  1.545401E-10
       165  15  9.734022E+05  1.185139E+04  5.652603E+04 -7.317441E+04  9.816653E-12  9.856773E-12
       165  16  2.516081E+05 -1.767507E+05 -1.406686E+05 -7.551742E+04  8.382701E-10 -5.797104E-10
       165  17  1.349416E+05 -2.042800E+05 -1.526736E+05 -4.885236E+04  6.387396E-10 -2.677375E-10
       165  18  2.339969E+04 -2.198540E+05 -1.525166E+05 -6.944626E+04  5.445289E-10  1.419820E-10
       165  19  1.695825E+06  1.751166E+05  1.760093E+05 -7.081564E+04  7.508637E+03  3.703591E+04
       165  20  1.807247E+06  2.031045E+05  2.137542E+05 -5.023569E+04  2.421634E+04  4.311402E+04
       165  21  1.924250E+06  2.434993E+05  2.655209E+05 -7.690684E+04  4.092212E+04  4.772498E+04
       165  22  9.734734E+05 -7.989122E+02  1.768777E+04 -7.316762E+04  1.372096E+04  3.703948E+04
       165  23  9.707686E+05 -5.632813E+02  3.056431E+04 -4.954295E+04  2.906928E+04  4.312010E+04
       165  24  9.734050E+05  1.185436E+04  5.653402E+04 -7.317270E+04  4.441265E+04  4.773276E+04
       165  25  2.516089E+05 -1.767491E+05 -1.406653E+05 -7.551682E+04  1.992614E+04  3.704301E+04
       165  26  1.349434E+05 -2.042777E+05 -1.526679E+05 -4.885118E+04  3.391576E+04  4.312619E+04
       165  27  2.340277E+04 -2.198509E+05 -1.525080E+05 -6.944442E+04  4.789787E+04  4.774060E+04
       166   1  2.031294E+06  2.433241E+05  2.997174E+05 -4.040143E+04 -4.125794E+04 -5.444385E+04
       166   2  2.113903E+06  2.820174E+05  3.792938E+05 -8.549093E+04 -1.360387E+05 -5.240239E+04
       166   3  2.263587E+06  5.375143E+05  5.747684E+05 -1.772964E+05 -2.308982E+05 -1.697370E+04
       166   4  9.859444E+05 -1.117105E+04  7.113363E+04 -7.296954E+04 -5.451100E+04 -5.445936E+04
       166   5  9.549177E+05 -9.037324E+02  1.211117E+05 -4.977124E+04 -1.186703E+05 -5.239607E+04
       166   6  9.857632E+05  2.210634E+05  2.658814E+05 -7.327631E+04 -1.828859E+05 -1.693845E+04
       166   7 -5.838295E+04 -2.657349E+05 -1.575151E+05 -1.054824E+05 -6.774203E+04 -5.447348E+04
       166   8 -2.028158E+05 -2.839107E+05 -1.371527E+05 -1.411908E+04 -1.013337E+05 -5.238777E+04
       166   9 -2.905442E+05 -9.546456E+04 -4.310811E+04  3.052914E+04 -1.349715E+05 -1.688715E+04
       166  10  2.031292E+06  2.433205E+05  2.997087E+05 -4.040324E+04  3.514411E-11  2.769066E-10
       166  11  2.113883E+06  2.820095E+05  3.792540E+05 -8.549667E+04  4.416662E-10  2.640055E-10
       166  12  2.263530E+06  5.374998E+05  5.746680E+05 -1.772995E+05 -2.234289E-10 -1.318630E-10
       166  13  9.859404E+05 -1.117503E+04  7.112248E+04 -7.297193E+04 -8.039461E-14  1.118398E-10
       166  14  9.549019E+05 -9.104552E+02  1.210801E+05 -4.977625E+04 -7.580228E-10 -1.137707E-10
       166  15  9.857272E+05  2.210541E+05  2.658181E+05 -7.327881E+04  9.331016E-11  5.613957E-11
       166  16 -5.838868E+04 -2.657393E+05 -1.575293E+05 -1.054854E+05  1.891370E-10  1.490646E-10
       166  17 -2.028275E+05 -2.839164E+05 -1.371772E+05 -1.412336E+04 -1.190976E-11  3.210679E-10
       166  18 -2.905638E+05 -9.546975E+04 -4.314289E+04  3.052731E+04  2.011199E-10 -9.724545E-11
       166  19  2.031294E+06  2.433241E+05  2.997174E+05 -4.040143E+04  4.125794E+04  5.444385E+04
       166  20  2.113903E+06  2.820174E+05  3.792938E+05 -8.549093E+04  1.360387E+05  5.240239E+04
       166  21  2.263587E+06  5.375143E+05  5.747684E+05 -1.772964E+05  2.308982E+05  1.697370E+04
       166  22  9.859444E+05 -1.117105E+04  7.113363E+04 -7.296954E+04  5.451100E+04  5.445936E+04
       166  23  9.549177E+05 -9.037324E+02  1.211117E+05 -4.977124E+04  1.186703E+05  5.239607E+04
       166  24  9.857632E+05  2.210634E+05  2.658814E+05 -7.327631E+04  1.828859E+05  1.693845E+04
       166  25 -5.838295E+04 -2.657349E+05 -1.575151E+05 -1.054824E+05  6.774203E+04  5.447348E+04
       166  26 -2.028158E+05 -2.839107E+05 -1.371527E+05 -1.411908E+04  1.013337E+05  5.238777E+04
       166  27 -2.905442E+05 -9.546456E+04 -4.310811E+04  3.052914E+04  1.349715E+05  1.688715E+04
       167   1  1.517443E+05  7.152175E+05  1.600454E+05 -1.191192E+05  3.924668E+03  5.380014E+04
       167   2  6.195985E+04  5.623535E+05  8.604218E+04 -7.304299E+04  1.034494E+04  2.785990E+04
       167   3  2.429467E+04  4.256802E+05  4.189951E+04 -8.640550E+04  5.236508E+03  1.905975E+03
       167   4  5.264357E+04  3.170984E+05  6.294268E+04 -9.366033E+04  3.946426E+03  4.270683E+04
       167   5  8.109823E+01  3.099343E+05  2.913458E+04 -6.398993E+04  1.034664E+04  2.729820E+04
       167   6 -2.174828E+03  3.171276E+05  1.789114E+04 -9.375595E+04  5.217420E+03  1.186983E+04
       167   7 -4.646640E+04 -8.087466E+04 -3.417077E+04 -6.821776E+04  3.967284E+03  3.162060E+04
       167   8 -6.180173E+04  5.757438E+04 -2.777705E+04 -5.494056E+04  1.034833E+04  2.673672E+04
       167   9 -2.864486E+04  2.085863E+05 -6.117562E+03 -1.011051E+05  5.198094E+03  2.183196E+04
       167  10  1.517435E+05  7.152143E+05  1.600399E+05 -1.191194E+05  2.063985E-10  9.545358E-10
       167  11  6.195953E+04  5.623526E+05  8.604052E+04 -7.304323E+04 -1.056356E-09 -2.270871E-10
       167  12  2.429464E+04  4.256802E+05  4.189945E+04 -8.640551E+04 -3.062797E-10 -1.770146E-09
       167  13  5.264307E+04  3.170964E+05  6.293923E+04 -9.366047E+04  8.173865E-10 -3.763746E-11
       167  14  8.078329E+01  3.099334E+05  2.913298E+04 -6.399016E+04 -5.164628E-11 -7.108007E-11
       167  15 -2.174895E+03  3.171274E+05  1.789082E+04 -9.375600E+04  3.528118E-10 -5.111831E-12
       167  16 -4.646668E+04 -8.087574E+04 -3.417268E+04 -6.821786E+04  4.794105E-10 -9.509269E-10
       167  17 -6.180203E+04  5.757358E+04 -2.777860E+04 -5.494078E+04  2.410722E-09  3.132796E-10
       167  18 -2.864501E+04  2.085858E+05 -6.118509E+03 -1.011052E+05 -9.291544E-11  1.665171E-09
       167  19  1.517443E+05  7.152175E+05  1.600454E+05 -1.191192E+05 -3.924668E+03 -5.380014E+04
       167  20  6.195985E+04  5.623535E+05  8.604218E+04 -7.304299E+04 -1.034494E+04 -2.785990E+04
       167  21  2.429467E+04  4.256802E+05  4.189951E+04 -8.640550E+04 -5.236508E+03 -1.905975E+03
       167  22  5.264357E+04  3.170984E+05  6.294268E+04 -9.366033E+04 -3.946426E+03 -4.270683E+04
       167  23  8.109823E+01  3.099343E+05  2.913458E+04 -6.398993E+04 -1.034664E+04 -2.729820E+04
       167  24 -2.174828E+03  3.171276E+05  1.789114E+04 -9.375595E+04 -5.217420E+03 -1.186983E+04
       167  25 -4.646640E+04 -8.087466E+04 -3.417077E+04 -6.821776E+04 -3.967284E+03 -3.162060E+04
       167  26 -6.180173E+04  5.757438E+04 -2.777705E+04 -5.494056E+04 -1.034833E+04 -2.673672E+04
       167  27 -2.864486E+04  2.085863E+05 -6.117562E+03 -1.011051E+05 -5.198094E+03 -2.183196E+04
       168   1  7.549145E+02  3.043454E+05  1.271687E+04 -9.502798E+04 -6.298651E+02  2.400088E+03
       168   2 -3.758149E+04  1.589754E+05 -2.407212E+04 -6.380123E+04 -7.953364E+03 -2.232662E+03
       168   3 -7.179166E+04  1.501107E+04 -5.687560E+04 -9.251658E+04 -1.492819E+04 -6.862272E+03
       168   4  3.152425E+03  3.142586E+05  1.482212E+04 -9.384118E+04 -6.430769E+02  9.248857E+03
       168   5  1.024741E+02  3.135316E+05  9.831996E+03 -6.387250E+04 -7.965327E+03  4.297119E+03
       168   6  1.235113E+03  3.142461E+05  9.049861E+03 -9.384472E+04 -1.493900E+04 -6.525217E+02
       168   7  5.549959E+03  3.241719E+05  1.692754E+04 -9.265435E+04 -6.562624E+02  1.609773E+04
       168   8  3.778486E+04  4.681102E+05  4.373482E+04 -6.394378E+04 -7.977290E+03  1.082850E+04
       168   9  7.425591E+04  6.135649E+05  7.496998E+04 -9.517347E+04 -1.494983E+04  5.560186E+03
       168  10  7.549125E+02  3.043454E+05  1.271686E+04 -9.502798E+04 -8.195586E-10  1.090048E-10
       168  11 -3.758156E+04  1.589754E+05 -2.407225E+04 -6.380124E+04 -2.019546E-10 -1.869176E-11
       168  12 -7.179192E+04  1.501096E+04 -5.687611E+04 -9.251666E+04  2.135065E-10 -4.289629E-10
       168  13  3.152401E+03  3.142585E+05  1.482196E+04 -9.384117E+04 -4.414413E-10  1.044358E-10
       168  14  1.024010E+02  3.135315E+05  9.831842E+03 -6.387247E+04  3.375859E-10 -1.331484E-12
       168  15  1.234873E+03  3.142460E+05  9.049441E+03 -9.384473E+04  3.870269E-10  1.085295E-10
       168  16  5.549889E+03  3.241717E+05  1.692705E+04 -9.265434E+04 -4.136447E-10 -1.295356E-10
       168  17  3.778476E+04  4.681100E+05  4.373448E+04 -6.394371E+04 -1.077244E-09  1.859720E-10
       168  18  7.425566E+04  6.135648E+05  7.496950E+04 -9.517340E+04  5.051880E-12  4.944314E-10
       168  19  7.549145E+02  3.043454E+05  1.271687E+04 -9.502798E+04  6.298651E+02 -2.400088E+03
       168  20 -3.758149E+04  1.589754E+05 -2.407212E+04 -6.380123E+04  7.953364E+03  2.232662E+03
       168  21 -7.179166E+04  1.501107E+04 -5.687560E+04 -9.251658E+04  1.492819E+04  6.862272E+03
       168  22  3.152425E+03  3.142586E+05  1.482212E+04 -9.384118E+04  6.430769E+02 -9.248857E+03
       168  23  1.024741E+02  3.135316E+05  9.831996E+03 -6.387250E+04  7.965327E+03 -4.297119E+03
       168  24  1.235113E+03  3.142461E+05  9.049861E+03 -9.384472E+04  1.493900E+04  6.525217E+02
       168  25  5.549959E+03  3.241719E+05  1.692754E+04 -9.265435E+04  6.562624E+02 -1.609773E+04
       168  26  3.778486E+04  4.681102E+05  4.373482E+04 -6.394378E+04  7.977290E+03 -1.082850E+04
       168  27  7.425591E+04  6.135649E+05  7.496998E+04 -9.517347E+04  1.494983E+04 -5.560186E+03
       169   1 -1.024539E+05 -1.027189E+05 -8.237189E+04 -9.595838E+04 -2.144018E+04 -1.389039E+04
       169   2 -1.373533E+05 -2.489733E+05 -1.134575E+05 -6.005078E+04 -2.460699E+04 -2.656310E+03
       169   3 -1.558259E+05 -3.926579E+05 -1.477743E+05 -8.333486E+04 -8.380425E+03  8.601027E+03
       169   4 -5.558949E+02  3.151546E+05  9.338502E+03 -9.368471E+04 -2.145975E+04 -2.180837E+03
       169   5  6.080485E+01  3.123227E+05  1.225419E+04 -6.407598E+04 -2.459614E+04 -8.631331E+03
       169   6  2.016675E+04  3.151044E+05  2.421581E+04 -9.365433E+04 -8.347228E+03 -1.505576E+04
       169   7  1.013305E+05  7.331917E+05  1.010388E+05 -9.140941E+04 -2.147924E+04  9.536501E+03
       169   8  1.374535E+05  8.739122E+05  1.379461E+05 -6.810473E+04 -2.458523E+04 -1.461170E+04
       169   9  1.961233E+05  1.023325E+06  1.961718E+05 -1.039854E+05 -8.313265E+03 -3.873944E+04
       169  10 -1.024544E+05 -1.027192E+05 -8.237312E+04 -9.595862E+04 -2.573580E-10  4.849415E-10
       169  11 -1.373540E+05 -2.489735E+05 -1.134587E+05 -6.005083E+04  7.735089E-10  3.359692E-10
       169  12 -1.558260E+05 -3.926580E+05 -1.477746E+05 -8.333480E+04  3.332848E-10 -3.732305E-10
       169  13 -5.563908E+02  3.151545E+05  9.337628E+03 -9.368475E+04  1.011562E-09  1.860773E-11
       169  14  6.013511E+01  3.123224E+05  1.225291E+04 -6.407615E+04  5.519767E-10 -1.625586E-11
       169  15  2.016662E+04  3.151041E+05  2.421525E+04 -9.365443E+04  2.775019E-10  7.375993E-12
       169  16  1.013300E+05  7.331915E+05  1.010377E+05 -9.140924E+04 -2.555047E-10 -3.760308E-10
       169  17  1.374528E+05  8.739118E+05  1.379446E+05 -6.810502E+04  6.201473E-10 -4.334778E-10
       169  18  1.961228E+05  1.023324E+06  1.961689E+05 -1.039857E+05  7.224362E-10  2.916466E-10
       169  19 -1.024539E+05 -1.027189E+05 -8.237189E+04 -9.595838E+04  2.144018E+04  1.389039E+04
       169  20 -1.373533E+05 -2.489733E+05 -1.134575E+05 -6.005078E+04  2.460699E+04  2.656310E+03
       169  21 -1.558259E+05 -3.926579E+05 -1.477743E+05 -8.333486E+04  8.380425E+03 -8.601027E+03
       169  22 -5.558949E+02  3.151546E+05  9.338502E+03 -9.368471E+04  2.145975E+04  2.180837E+03
       169  23  6.080485E+01  3.123227E+05  1.225419E+04 -6.407598E+04  2.459614E+04  8.631331E+03
       169  24  2.016675E+04  3.151044E+05  2.421581E+04 -9.365433E+04  8.347228E+03  1.505576E+04
       169  25  1.013305E+05  7.331917E+05  1.010388E+05 -9.140941E+04  2.147924E+04 -9.536501E+03
       169  26  1.374535E+05  8.739122E+05  1.379461E+05 -6.810473E+04  2.458523E+04  1.461170E+04
       169  27  1.961233E+05  1.023325E+06  1.961718E+05 -1.039854E+05  8.313265E+03  3.873944E+04
       170   1 -1.556474E+06 -6.291403E+05 -4.033426E+05 -5.661151E+05 -1.714099E+05 -5.368833E+04
       170   2 -1.500567E+06 -3.917242E+05 -2.491341E+05 -5.551467E+05 -1.108538E+05 -7.684750E+03
       170   3 -1.502034E+06 -3.423000E+05 -1.927335E+05 -5.191451E+05 -4.308224E+04  1.919153E+04
       170   4 -9.388310E+05 -3.192109E+05 -2.233651E+05 -3.184848E+05 -1.460339E+05 -4.415791E+04
       170   5 -8.995940E+05 -1.411701E+05 -9.676064E+04 -3.632305E+05 -1.017348E+05 -4.260706E+03
       170   6 -9.144402E+05 -1.478040E+05 -5.499517E+04 -3.829653E+05 -5.022759E+04  1.650330E+04
       170   7 -3.208048E+05 -9.163845E+03 -4.342253E+04 -7.060360E+04 -1.206303E+05 -3.460916E+04
       170   8 -2.982629E+05  1.094338E+05  5.558386E+04 -1.711365E+05 -9.260614E+04 -8.320546E+02
       170   9 -3.265025E+05  4.669974E+04  8.272025E+04 -2.466754E+05 -5.738034E+04  1.381299E+04
       170  10 -1.556507E+06 -6.291513E+05 -4.034034E+05 -5.661226E+05 -3.787191E-10 -2.223454E-11
       170  11 -1.500580E+06 -3.917276E+05 -2.491574E+05 -5.551473E+05 -4.830330E-10 -9.344141E-11
       170  12 -1.502036E+06 -3.423008E+05 -1.927377E+05 -5.191444E+05 -4.509576E-10  2.427290E-12
       170  13 -9.388545E+05 -3.192187E+05 -2.234089E+05 -3.184900E+05 -1.065588E-10 -3.858233E-11
       170  14 -8.996051E+05 -1.411729E+05 -9.678015E+04 -3.632309E+05 -7.466166E-10 -1.680864E-10
       170  15 -9.144430E+05 -1.478050E+05 -5.500043E+04 -3.829646E+05 -1.912667E-10 -2.203964E-11
       170  16 -3.208207E+05 -9.169041E+03 -4.345214E+04 -7.060696E+04 -8.849236E-10 -1.155450E-10
       170  17 -2.982721E+05  1.094315E+05  5.556774E+04 -1.711366E+05 -1.962184E-10 -1.134574E-10
       170  18 -3.265061E+05  4.669866E+04  8.271370E+04 -2.466748E+05  3.546023E-10 -1.091498E-11
       170  19 -1.556474E+06 -6.291403E+05 -4.033426E+05 -5.661151E+05  1.714099E+05  5.368833E+04
       170  20 -1.500567E+06 -3.917242E+05 -2.491341E+05 -5.551467E+05  1.108538E+05  7.684750E+03
       170  21 -1.502034E+06 -3.423000E+05 -1.927335E+05 -5.191451E+05  4.308224E+04 -1.919153E+04
       170  22 -9.388310E+05 -3.192109E+05 -2.233651E+05 -3.184848E+05  1.460339E+05  4.415791E+04
       170  23 -8.995940E+05 -1.411701E+05 -9.676064E+04 -3.632305E+05  1.017348E+05  4.260706E+03
       170  24 -9.144402E+05 -1.478040E+05 -5.499517E+04 -3.829653E+05  5.022759E+04 -1.650330E+04
       170  25 -3.208048E+05 -9.163845E+03 -4.342253E+04 -7.060360E+04  1.206303E+05  3.460916E+04
       170  26 -2.982629E+05  1.094338E+05  5.558386E+04 -1.711365E+05  9.260614E+04  8.320546E+02
       170  27 -3.265025E+05  4.669974E+04  8.272025E+04 -2.466754E+05  5.738034E+04 -1.381299E+04
       171   1 -1.429685E+06 -3.632465E+05 -1.713305E+05 -5.199049E+05 -4.041325E+04  1.600120E+04
       171   2 -1.384099E+06 -3.225649E+05 -1.368505E+05 -4.966504E+05 -2.753447E+04  1.848871E+04
       171   3 -1.327086E+06 -3.095978E+05 -1.142721E+05 -4.903884E+05 -1.432660E+04  2.009827E+04
       171   4 -9.072117E+05 -1.648541E+05 -4.361892E+04 -3.727453E+05 -4.181558E+04  1.547167E+04
       171   5 -9.122541E+05 -1.458752E+05 -2.237044E+04 -3.661965E+05 -2.967554E+04  1.768244E+04
       171   6 -9.057200E+05 -1.544579E+05 -1.242937E+04 -3.766414E+05 -1.720753E+04  1.901510E+04
       171   7 -3.844707E+05  3.355892E+04  8.407135E+04 -2.254725E+05 -4.321919E+04  1.494165E+04
       171   8 -4.401882E+05  3.083071E+04  9.209309E+04 -2.356521E+05 -3.181838E+04  1.687551E+04
       171   9 -4.841760E+05  6.941463E+02  8.940085E+04 -2.628240E+05 -2.009061E+04  1.793114E+04
       171  10 -1.429687E+06 -3.632472E+05 -1.713340E+05 -5.199044E+05  6.752904E-11  1.493887E-10
       171  11 -1.384100E+06 -3.225655E+05 -1.368526E+05 -4.966500E+05 -1.614109E-10 -1.210724E-10
       171  12 -1.327087E+06 -3.095983E+05 -1.142732E+05 -4.903882E+05 -4.397393E-10  1.497379E-10
       171  13 -9.072136E+05 -1.648549E+05 -4.362266E+04 -3.727448E+05  5.294600E-10  9.676842E-12
       171  14 -9.122551E+05 -1.458758E+05 -2.237268E+04 -3.661961E+05  8.922417E-10 -1.095361E-10
       171  15 -9.057204E+05 -1.544583E+05 -1.243060E+04 -3.766412E+05 -3.656708E-10  2.237750E-10
       171  16 -3.844727E+05  3.355818E+04  8.406742E+04 -2.254720E+05  4.575161E-10 -2.135725E-10
       171  17 -4.401893E+05  3.083014E+04  9.209065E+04 -2.356517E+05 -1.269879E-10 -1.157480E-10
       171  18 -4.841766E+05  6.936930E+02  8.939949E+04 -2.628237E+05  5.821014E-10  1.265111E-10
       171  19 -1.429685E+06 -3.632465E+05 -1.713305E+05 -5.199049E+05  4.041325E+04 -1.600120E+04
       171  20 -1.384099E+06 -3.225649E+05 -1.368505E+05 -4.966504E+05  2.753447E+04 -1.848871E+04
       171  21 -1.327086E+06 -3.095978E+05 -1.142721E+05 -4.903884E+05  1.432660E+04 -2.009827E+04
       171  22 -9.072117E+05 -1.648541E+05 -4.361892E+04 -3.727453E+05  4.181558E+04 -1.547167E+04
       171  23 -9.122541E+05 -1.458752E+05 -2.237044E+04 -3.661965E+05  2.967554E+04 -1.768244E+04
       171  24 -9.057200E+05 -1.544579E+05 -1.242937E+04 -3.766414E+05  1.720753E+04 -1.901510E+04
       171  25 -3.844707E+05  3.355892E+04  8.407135E+04 -2.254725E+05  4.321919E+04 -1.494165E+04
       171  26 -4.401882E+05  3.083071E+04  9.209309E+04 -2.356521E+05  3.181838E+04 -1.687551E+04
       171  27 -4.841760E+05  6.941463E+02  8.940085E+04 -2.628240E+05  2.009061E+04 -1.793114E+04
       172   1 -1.280070E+06 -2.950482E+05 -1.000720E+05 -4.788535E+05 -1.210331E+04  1.874762E+04
       172   2 -1.235103E+06 -2.659353E+05 -8.299985E+04 -4.544757E+05 -8.320950E+03  1.661628E+04
       172   3 -1.173516E+06 -2.546783E+05 -6.804075E+04 -4.496638E+05 -4.520813E+03  1.443349E+04
       172   4 -9.050398E+05 -1.554909E+05 -9.463961E+03 -3.760100E+05 -1.473747E+04  1.775761E+04
       172   5 -9.133039E+05 -1.462637E+05 -5.139710E+03 -3.663384E+05 -1.099730E+04  1.561111E+04
       172   6 -9.049419E+05 -1.548831E+05 -2.893851E+03 -3.762327E+05 -7.239603E+03  1.341310E+04
       172   7 -5.298705E+05 -1.592383E+04  8.113368E+04 -2.731100E+05 -1.737337E+04  1.676696E+04
       172   8 -5.914031E+05 -2.658534E+04  7.271255E+04 -2.781596E+05 -1.367515E+04  1.460537E+04
       172   9 -6.362981E+05 -5.508340E+04  6.224733E+04 -3.027731E+05 -9.959663E+03  1.239222E+04
       172  10 -1.280070E+06 -2.950486E+05 -1.000729E+05 -4.788533E+05  1.915451E-10  4.320420E-10
       172  11 -1.235103E+06 -2.659356E+05 -8.300049E+04 -4.544756E+05  1.204142E-10  1.395853E-11
       172  12 -1.173516E+06 -2.546786E+05 -6.804118E+04 -4.496638E+05 -3.255343E-11 -6.323774E-11
       172  13 -9.050401E+05 -1.554913E+05 -9.464961E+03 -3.760098E+05  3.569244E-10  1.990007E-10
       172  14 -9.133040E+05 -1.462640E+05 -5.140395E+03 -3.663382E+05  7.955144E-10  5.381919E-11
       172  15 -9.049420E+05 -1.548833E+05 -2.894287E+03 -3.762326E+05 -5.380395E-10  8.833538E-12
       172  16 -5.298709E+05 -1.592421E+04  8.113259E+04 -2.731098E+05 -4.700117E-10  2.882607E-11
       172  17 -5.914033E+05 -2.658562E+04  7.271180E+04 -2.781595E+05 -3.512504E-10  1.496075E-10
       172  18 -6.362982E+05 -5.508359E+04  6.224686E+04 -3.027730E+05 -2.322966E-10 -1.635932E-10
       172  19 -1.280070E+06 -2.950482E+05 -1.000720E+05 -4.788535E+05  1.210331E+04 -1.874762E+04
       172  20 -1.235103E+06 -2.659353E+05 -8.299985E+04 -4.544757E+05  8.320950E+03 -1.661628E+04
       172  21 -1.173516E+06 -2.546783E+05 -6.804075E+04 -4.496638E+05  4.520813E+03 -1.443349E+04
       172  22 -9.050398E+05 -1.554909E+05 -9.463961E+03 -3.760100E+05  1.473747E+04 -1.775761E+04
       172  23 -9.133039E+05 -1.462637E+05 -5.139710E+03 -3.663384E+05  1.099730E+04 -1.561111E+04
       172  24 -9.049419E+05 -1.548831E+05 -2.893851E+03 -3.762327E+05  7.239603E+03 -1.341310E+04
       172  25 -5.298705E+05 -1.592383E+04  8.113368E+04 -2.731100E+05  1.737337E+04 -1.676696E+04
       172  26 -5.914031E+05 -2.658534E+04  7.271255E+04 -2.781596E+05  1.367515E+04 -1.460537E+04
       172  27 -6.362981E+05 -5.508340E+04  6.224733E+04 -3.027731E+05  9.959663E+03 -1.239222E+04
       173   1 -1.127737E+06 -2.378016E+05 -5.596532E+04 -4.372664E+05 -3.406319E+03  1.273415E+04
       173   2 -1.082555E+06 -2.091439E+05 -4.228434E+04 -4.126214E+05 -1.519908E+03  9.805351E+03
       173   3 -1.020164E+06 -1.978398E+05 -2.912597E+04 -4.078090E+05  3.687256E+02  6.868325E+03
       173   4 -9.048348E+05 -1.549612E+05 -2.228979E+03 -3.762196E+05 -6.121113E+03  1.171558E+04
       173   5 -9.134316E+05 -1.462643E+05 -1.372586E+03 -3.663091E+05 -4.241492E+03  8.784583E+03
       173   6 -9.048228E+05 -1.549200E+05 -1.033557E+03 -3.762323E+05 -2.359722E+03  5.845349E+03
       173   7 -6.818821E+05 -7.211690E+04  5.150405E+04 -3.151525E+05 -8.836983E+03  1.069661E+04
       173   8 -7.442795E+05 -8.338261E+04  3.953720E+04 -3.199853E+05 -6.963892E+03  7.763509E+03
       173   9 -7.894681E+05 -1.119992E+05  2.705790E+04 -3.446503E+05 -5.088723E+03  4.822167E+03
       173  10 -1.127737E+06 -2.378018E+05 -5.596564E+04 -4.372663E+05 -3.691609E-10 -1.234593E-10
       173  11 -1.082555E+06 -2.091440E+05 -4.228452E+04 -4.126214E+05 -1.833065E-10  2.320077E-11
       173  12 -1.020164E+06 -1.978398E+05 -2.912606E+04 -4.078090E+05  5.950491E-10  4.751827E-11
       173  13 -9.048348E+05 -1.549613E+05 -2.229307E+03 -3.762195E+05 -2.906587E-12  2.272340E-13
       173  14 -9.134317E+05 -1.462644E+05 -1.372764E+03 -3.663091E+05  9.524049E-11  1.463428E-10
       173  15 -9.048228E+05 -1.549200E+05 -1.033631E+03 -3.762323E+05 -3.785480E-11 -6.428324E-12
       173  16 -6.818822E+05 -7.211705E+04  5.150369E+04 -3.151524E+05  5.483250E-10  1.304555E-10
       173  17 -7.442796E+05 -8.338269E+04  3.953700E+04 -3.199852E+05 -1.598092E-10  2.895774E-10
       173  18 -7.894682E+05 -1.119993E+05  2.705781E+04 -3.446503E+05 -7.977045E-10 -2.481736E-10
       173  19 -1.127737E+06 -2.378016E+05 -5.596532E+04 -4.372664E+05  3.406319E+03 -1.273415E+04
       173  20 -1.082555E+06 -2.091439E+05 -4.228434E+04 -4.126214E+05  1.519908E+03 -9.805351E+03
       173  21 -1.020164E+06 -1.978398E+05 -2.912597E+04 -4.078090E+05 -3.687256E+02 -6.868325E+03
       173  22 -9.048348E+05 -1.549612E+05 -2.228979E+03 -3.762196E+05  6.121113E+03 -1.171558E+04
       173  23 -9.134316E+05 -1.462643E+05 -1.372586E+03 -3.663091E+05  4.241492E+03 -8.784583E+03
       173  24 -9.048228E+05 -1.549200E+05 -1.033557E+03 -3.762323E+05  2.359722E+03 -5.845349E+03
       173  25 -6.818821E+05 -7.211690E+04  5.150405E+04 -3.151525E+05  8.836983E+03 -1.069661E+04
       173  26 -7.442795E+05 -8.338261E+04  3.953720E+04 -3.199853E+05  6.963892E+03 -7.763509E+03
       173  27 -7.894681E+05 -1.119992E+05  2.705790E+04 -3.446503E+05  5.088723E+03 -4.822167E+03
       174   1 -9.742754E+05 -1.807390E+05 -1.762540E+04 -3.952958E+05  1.239882E+03  5.069451E+03
       174   2 -9.289329E+05 -1.520282E+05 -4.984005E+03 -3.705640E+05  3.053708E+03  2.096703E+03
       174   3 -8.663328E+05 -1.407176E+05  7.190152E+03 -3.657339E+05  4.867251E+03 -8.754723E+02
       174   4 -9.048101E+05 -1.549320E+05 -1.009656E+03 -3.762463E+05 -1.491506E+03  4.045501E+03
       174   5 -9.134384E+05 -1.462397E+05 -1.231409E+03 -3.662919E+05  3.227147E+02  1.072932E+03
       174   6 -9.048121E+05 -1.549479E+05 -1.920615E+03 -3.762402E+05  2.136597E+03 -1.899080E+03
       174   7 -8.353403E+05 -1.291249E+05  1.560567E+04 -3.571949E+05 -4.223214E+03  3.021431E+03
       174   8 -8.979436E+05 -1.404513E+05  2.521202E+03 -3.620196E+05 -2.408353E+03  4.913237E+01
       174   9 -9.432901E+05 -1.691782E+05 -1.103151E+04 -3.867460E+05 -5.938861E+02 -2.922625E+03
       174  10 -9.742755E+05 -1.807390E+05 -1.762545E+04 -3.952958E+05  3.538911E-10 -1.823447E-10
       174  11 -9.289329E+05 -1.520282E+05 -4.984031E+03 -3.705640E+05  4.103272E-10 -1.505923E-10
       174  12 -8.663328E+05 -1.407176E+05  7.190106E+03 -3.657339E+05 -1.109926E-09 -6.883862E-10
       174  13 -9.048101E+05 -1.549320E+05 -1.009691E+03 -3.762463E+05  5.974746E-10 -5.421628E-11
       174  14 -9.134384E+05 -1.462397E+05 -1.231411E+03 -3.662919E+05  3.648986E-10  4.441012E-11
       174  15 -9.048121E+05 -1.549480E+05 -1.920631E+03 -3.762402E+05 -2.635069E-09 -9.751432E-10
       174  16 -8.353403E+05 -1.291249E+05  1.560562E+04 -3.571949E+05  3.527631E-10  9.001488E-11
       174  17 -8.979436E+05 -1.404513E+05  2.521191E+03 -3.620196E+05 -7.520632E-10  1.232848E-11
       174  18 -9.432901E+05 -1.691782E+05 -1.103152E+04 -3.867460E+05 -3.310529E-09 -1.050571E-09
       174  19 -9.742754E+05 -1.807390E+05 -1.762540E+04 -3.952958E+05 -1.239882E+03 -5.069451E+03
       174  20 -9.289329E+05 -1.520282E+05 -4.984005E+03 -3.705640E+05 -3.053708E+03 -2.096703E+03
       174  21 -8.663328E+05 -1.407176E+05  7.190152E+03 -3.657339E+05 -4.867251E+03  8.754723E+02
       174  22 -9.048101E+05 -1.549320E+05 -1.009656E+03 -3.762463E+05  1.491506E+03 -4.045501E+03
       174  23 -9.134384E+05 -1.462397E+05 -1.231409E+03 -3.662919E+05 -3.227147E+02 -1.072932E+03
       174  24 -9.048121E+05 -1.549479E+05 -1.920615E+03 -3.762402E+05 -2.136597E+03  1.899080E+03
       174  25 -8.353403E+05 -1.291249E+05  1.560567E+04 -3.571949E+05  4.223214E+03 -3.021431E+03
       174  26 -8.979436E+05 -1.404513E+05  2.521202E+03 -3.620196E+05  2.408353E+03 -4.913237E+01
       174  27 -9.432901E+05 -1.691782E+05 -1.103151E+04 -3.867460E+05  5.938861E+02  2.922625E+03
       175   1 -8.204401E+05 -1.236079E+05  1.811855E+04 -3.532995E+05  5.936199E+03 -2.604007E+03
       175   2 -7.750917E+05 -9.486721E+04  2.907977E+04 -3.284953E+05  9.280277E+03 -4.991109E+03
       175   3 -7.129094E+05 -8.402808E+04  3.829421E+04 -3.234810E+05  1.261249E+04 -7.344180E+03
       175   4 -9.048864E+05 -1.549020E+05 -2.473083E+03 -3.762755E+05  3.198753E+03 -3.630246E+03
       175   5 -9.133373E+05 -1.461965E+05 -4.347791E+03 -3.662882E+05  6.571122E+03 -6.007042E+03
       175   6 -9.049625E+05 -1.553987E+05 -7.991874E+03 -3.760921E+05  9.931409E+03 -8.349864E+03
       175   7 -9.893257E+05 -1.861956E+05 -2.306522E+04 -3.992487E+05  4.617147E+02 -4.656334E+03
       175   8 -1.051564E+06 -1.975243E+05 -3.777664E+04 -4.040732E+05  3.862632E+03 -7.022726E+03
       175   9 -1.096978E+06 -2.267663E+05 -5.428037E+04 -4.286881E+05  7.251249E+03 -9.355204E+03
       175  10 -8.204401E+05 -1.236079E+05  1.811847E+04 -3.532995E+05 -3.826828E-09 -1.213465E-09
       175  11 -7.750918E+05 -9.486726E+04  2.907956E+04 -3.284953E+05 -8.618013E-10  1.590477E-10
       175  12 -7.129096E+05 -8.402818E+04  3.829381E+04 -3.234809E+05  4.588569E-10  3.357763E-10
       175  13 -9.048864E+05 -1.549020E+05 -2.473127E+03 -3.762755E+05 -2.908965E-09 -9.693458E-10
       175  14 -9.133374E+05 -1.461965E+05 -4.347940E+03 -3.662881E+05 -4.224740E-10 -2.422234E-10
       175  15 -9.049626E+05 -1.553988E+05 -7.992191E+03 -3.760920E+05  1.697206E-10  2.212662E-10
       175  16 -9.893257E+05 -1.861956E+05 -2.306526E+04 -3.992487E+05 -1.122004E-09 -8.352862E-10
       175  17 -1.051564E+06 -1.975243E+05 -3.777676E+04 -4.040732E+05  7.165304E-10 -3.451740E-10
       175  18 -1.096978E+06 -2.267664E+05 -5.428063E+04 -4.286880E+05  8.003757E-10  1.443376E-10
       175  19 -8.204401E+05 -1.236079E+05  1.811855E+04 -3.532995E+05 -5.936199E+03  2.604007E+03
       175  20 -7.750917E+05 -9.486721E+04  2.907977E+04 -3.284953E+05 -9.280277E+03  4.991109E+03
       175  21 -7.129094E+05 -8.402808E+04  3.829421E+04 -3.234810E+05 -1.261249E+04  7.344180E+03
       175  22 -9.048864E+05 -1.549020E+05 -2.473083E+03 -3.762755E+05 -3.198753E+03  3.630246E+03
       175  23 -9.133373E+05 -1.461965E+05 -4.347791E+03 -3.662882E+05 -6.571122E+03  6.007042E+03
       175  24 -9.049625E+05 -1.553987E+05 -7.991874E+03 -3.760921E+05 -9.931409E+03  8.349864E+03
       175  25 -9.893257E+05 -1.861956E+05 -2.306522E+04 -3.992487E+05 -4.617147E+02  4.656334E+03
       175  26 -1.051564E+06 -1.975243E+05 -3.777664E+04 -4.040732E+05 -3.862632E+03  7.022726E+03
       175  27 -1.096978E+06 -2.267663E+05 -5.428037E+04 -4.286881E+05 -7.251249E+03  9.355204E+03
       176   1 -6.666972E+05 -6.718630E+04  4.718721E+04 -3.127536E+05  1.499706E+04 -8.637201E+03
       176   2 -6.218966E+05 -3.696107E+04  5.162578E+04 -2.856947E+05  2.517095E+04 -8.281016E+03
       176   3 -5.643622E+05 -3.279562E+04  4.695238E+04 -2.763455E+05  3.510279E+04 -7.273291E+03
       176   4 -9.055219E+05 -1.545423E+05 -1.049187E+04 -3.766421E+05  1.212945E+04 -9.713100E+03
       176   5 -9.124570E+05 -1.458358E+05 -1.886655E+04 -3.661464E+05  2.285411E+04 -9.150982E+03
       176   6 -9.067734E+05 -1.633028E+05 -3.679388E+04 -3.733629E+05  3.333583E+04 -7.937547E+03
       176   7 -1.144291E+06 -2.418954E+05 -6.817546E+04 -4.405088E+05  9.263036E+03 -1.078857E+04
       176   8 -1.202935E+06 -2.547046E+05 -8.936535E+04 -4.465641E+05  2.053844E+04 -1.002050E+04
       176   9 -1.249069E+06 -2.938005E+05 -1.205490E+05 -4.703311E+05  3.156992E+04 -8.601384E+03
       176  10 -6.666974E+05 -6.718644E+04  4.718665E+04 -3.127535E+05  3.980436E-11  2.237612E-10
       176  11 -6.218973E+05 -3.696132E+04  5.162446E+04 -2.856945E+05 -3.686941E-10  1.777692E-10
       176  12 -5.643636E+05 -3.279601E+04  4.694996E+04 -2.763453E+05  2.478102E-10 -1.319702E-10
       176  13 -9.055221E+05 -1.545425E+05 -1.049232E+04 -3.766420E+05 -4.322683E-10  2.245582E-10
       176  14 -9.124576E+05 -1.458360E+05 -1.886769E+04 -3.661463E+05 -3.434482E-10  1.595383E-10
       176  15 -9.067746E+05 -1.633032E+05 -3.679609E+04 -3.733627E+05 -1.672341E-10 -9.170738E-11
       176  16 -1.144292E+06 -2.418956E+05 -6.817584E+04 -4.405087E+05  2.784003E-10  2.170245E-10
       176  17 -1.202935E+06 -2.547048E+05 -8.936633E+04 -4.465639E+05  6.306770E-10  9.613885E-11
       176  18 -1.249070E+06 -2.938008E+05 -1.205510E+05 -4.703309E+05 -3.493132E-10 -2.877362E-11
       176  19 -6.666972E+05 -6.718630E+04  4.718721E+04 -3.127536E+05 -1.499706E+04  8.637201E+03
       176  20 -6.218966E+05 -3.696107E+04  5.162578E+04 -2.856947E+05 -2.517095E+04  8.281016E+03
       176  21 -5.643622E+05 -3.279562E+04  4.695238E+04 -2.763455E+05 -3.510279E+04  7.273291E+03
       176  22 -9.055219E+05 -1.545423E+05 -1.049187E+04 -3.766421E+05 -1.212945E+04  9.713100E+03
       176  23 -9.124570E+05 -1.458358E+05 -1.886655E+04 -3.661464E+05 -2.285411E+04  9.150982E+03
       176  24 -9.067734E+05 -1.633028E+05 -3.679388E+04 -3.733629E+05 -3.333583E+04  7.937547E+03
       176  25 -1.144291E+06 -2.418954E+05 -6.817546E+04 -4.405088E+05 -9.263036E+03  1.078857E+04
       176  26 -1.202935E+06 -2.547046E+05 -8.936535E+04 -4.465641E+05 -2.053844E+04  1.002050E+04
       176  27 -1.249069E+06 -2.938005E+05 -1.205490E+05 -4.703311E+05 -3.156992E+04  8.601384E+03
       177   1 -5.076909E+05 -1.880747E+04  4.787011E+04 -2.921811E+05  4.653359E+04 -6.673047E+03
       177   2 -4.758599E+05  3.898047E+04  2.697142E+04 -2.241371E+05  7.821358E+04  5.287881E+03
       177   3 -4.841968E+05 -5.963753E+04 -5.585129E+04 -1.385738E+05  1.045403E+05  3.150586E+04
       177   4 -9.128564E+05 -1.489362E+05 -4.639016E+04 -3.820034E+05  4.048193E+04 -8.944501E+03
       177   5 -9.017968E+05 -1.418261E+05 -8.161004E+04 -3.636115E+05  8.429706E+04  7.568429E+03
       177   6 -9.333582E+05 -2.936001E+05 -1.884123E+05 -3.276929E+05  1.227549E+05  3.833715E+04
       177   7 -1.317858E+06 -2.790624E+05 -1.406607E+05 -4.717764E+05  3.443460E+04 -1.121484E+04
       177   8 -1.327552E+06 -3.226044E+05 -1.902059E+05 -5.029934E+05  9.037597E+04  9.846716E+03
       177   9 -1.382313E+06 -5.274892E+05 -3.209914E+05 -5.166705E+05  1.409551E+05  4.515825E+04
       177  10 -5.076932E+05 -1.880810E+04  4.786595E+04 -2.921808E+05 -3.184232E-10 -1.711934E-10
       177  11 -4.758665E+05  3.897879E+04  2.695986E+04 -2.241374E+05  5.330091E-11  6.534888E-10
       177  12 -4.842088E+05 -5.964154E+04 -5.587371E+04 -1.385765E+05  5.735579E-10  2.288495E-10
       177  13 -9.128582E+05 -1.489367E+05 -4.639339E+04 -3.820031E+05  4.946214E-10  5.872062E-11
       177  14 -9.018045E+05 -1.418280E+05 -8.162353E+04 -3.636120E+05  1.718519E-09  2.428981E-10
       177  15 -9.333748E+05 -2.936058E+05 -1.884434E+05 -3.276967E+05  5.143696E-10 -3.381691E-11
       177  16 -1.317859E+06 -2.790628E+05 -1.406632E+05 -4.717761E+05  3.355138E-10  2.100155E-10
       177  17 -1.327561E+06 -3.226067E+05 -1.902215E+05 -5.029941E+05 -3.029233E-10  2.912088E-10
       177  18 -1.382335E+06 -5.274967E+05 -3.210327E+05 -5.166756E+05 -3.230994E-10 -1.241633E-10
       177  19 -5.076909E+05 -1.880747E+04  4.787011E+04 -2.921811E+05 -4.653359E+04  6.673047E+03
       177  20 -4.758599E+05  3.898047E+04  2.697142E+04 -2.241371E+05 -7.821358E+04 -5.287881E+03
       177  21 -4.841968E+05 -5.963753E+04 -5.585129E+04 -1.385738E+05 -1.045403E+05 -3.150586E+04
       177  22 -9.128564E+05 -1.489362E+05 -4.639016E+04 -3.820034E+05 -4.048193E+04  8.944501E+03
       177  23 -9.017968E+05 -1.418261E+05 -8.161004E+04 -3.636115E+05 -8.429706E+04 -7.568429E+03
       177  24 -9.333582E+05 -2.936001E+05 -1.884123E+05 -3.276929E+05 -1.227549E+05 -3.833715E+04
       177  25 -1.317858E+06 -2.790624E+05 -1.406607E+05 -4.717764E+05 -3.443460E+04  1.121484E+04
       177  26 -1.327552E+06 -3.226044E+05 -1.902059E+05 -5.029934E+05 -9.037597E+04 -9.846716E+03
       177  27 -1.382313E+06 -5.274892E+05 -3.209914E+05 -5.166705E+05 -1.409551E+05 -4.515825E+04
       178   1 -9.579029E+05 -2.271554E+05 -1.890447E+05 -1.799054E+04  6.206194E+04  1.957233E+04
       178   2 -8.427337E+05 -3.319502E+05 -2.239779E+05 -3.506264E+04  5.624312E+04  6.123370E+04
       178   3 -6.932599E+05 -3.059354E+05 -2.222728E+05 -1.052634E+05  5.048612E+04  6.387075E+04
       178   4  5.308137E+05  1.425331E+05  1.716242E+05 -8.425135E+04  1.179903E+05  1.964960E+04
       178   5  5.106881E+05 -8.416659E+02  7.811979E+04 -5.760032E+04  7.654744E+04  6.124487E+04
       178   6  5.309522E+05 -7.382771E+03  4.591879E+04 -8.406615E+04  3.517084E+04  6.385316E+04
       178   7  2.021573E+06  5.120777E+05  5.321479E+05 -1.506724E+05  1.740523E+05  1.971484E+04
       178   8  1.865820E+06  3.301447E+05  3.801043E+05 -8.018812E+04  9.689544E+04  6.125456E+04
       178   9  1.756569E+06  2.910716E+05  3.140206E+05 -6.282671E+04  1.982565E+04  6.383455E+04
       178  10 -9.579071E+05 -2.271568E+05 -1.890527E+05 -1.799151E+04  2.299424E-11 -2.228208E-11
       178  11 -8.427381E+05 -3.319551E+05 -2.239909E+05 -3.506541E+04  7.560564E-10 -9.738806E-10
       178  12 -6.932637E+05 -3.059405E+05 -2.222853E+05 -1.052660E+05  2.910831E-10 -1.259391E-10
       178  13  5.307987E+05  1.425290E+05  1.715974E+05 -8.425321E+04 -4.433275E-11 -5.203747E-10
       178  14  5.106808E+05 -8.472664E+02  7.810173E+04 -5.760410E+04 -7.425590E-10 -4.597826E-10
       178  15  5.309498E+05 -7.387482E+03  4.590880E+04 -8.406796E+04  6.532489E-11 -1.453324E-10
       178  16  2.021540E+06  5.120692E+05  5.320904E+05 -1.506751E+05 -2.364945E-11  6.600111E-10
       178  17  1.865809E+06  3.301381E+05  3.800797E+05 -8.019289E+04  6.571581E-10 -4.078666E-10
       178  18  1.756567E+06  2.910671E+05  3.140122E+05 -6.282773E+04 -1.240014E-09 -3.071854E-10
       178  19 -9.579029E+05 -2.271554E+05 -1.890447E+05 -1.799054E+04 -6.206194E+04 -1.957233E+04
       178  20 -8.427337E+05 -3.319502E+05 -2.239779E+05 -3.506264E+04 -5.624312E+04 -6.123370E+04
       178  21 -6.932599E+05 -3.059354E+05 -2.222728E+05 -1.052634E+05 -5.048612E+04 -6.387075E+04
       178  22  5.308137E+05  1.425331E+05  1.716242E+05 -8.425135E+04 -1.179903E+05 -1.964960E+04
       178  23  5.106881E+05 -8.416659E+02  7.811979E+04 -5.760032E+04 -7.654744E+04 -6.124487E+04
       178  24  5.309522E+05 -7.382771E+03  4.591879E+04 -8.406615E+04 -3.517084E+04 -6.385316E+04
       178  25  2.021573E+06  5.120777E+05  5.321479E+05 -1.506724E+05 -1.740523E+05 -1.971484E+04
       178  26  1.865820E+06  3.301447E+05  3.801043E+05 -8.018812E+04 -9.689544E+04 -6.125456E+04
       178  27  1.756569E+06  2.910716E+05  3.140206E+05 -6.282671E+04 -1.982565E+04 -6.383455E+04
       179   1 -5.933207E+05 -2.648884E+05 -2.092671E+05 -8.205562E+04  3.261288E+04  5.610217E+04
       179   2 -4.640807E+05 -2.407122E+05 -1.963794E+05 -5.675252E+04  2.431285E+04  5.085204E+04
       179   3 -3.314558E+05 -2.089018E+05 -1.760879E+05 -8.571686E+04  1.600316E+04  4.387352E+04
       179   4  5.228349E+05  7.511508E+03  3.648854E+04 -8.436801E+04  2.865365E+04  5.609298E+04
       179   5  5.210566E+05 -4.633080E+02  1.971325E+04 -5.723649E+04  1.876198E+04  5.084544E+04
       179   6  5.229147E+05 -5.349615E+02  1.143624E+04 -8.436672E+04  8.862354E+03  4.387078E+04
       179   7  1.640155E+06  2.798279E+05  2.821679E+05 -8.668465E+04  2.468735E+04  5.608384E+04
       179   8  1.507102E+06  2.397207E+05  2.357470E+05 -5.772122E+04  1.320239E+04  5.083885E+04
       179   9  1.377968E+06  2.077831E+05  1.989161E+05 -8.301462E+04  1.711830E+03  4.386802E+04
       179  10 -5.933227E+05 -2.648921E+05 -2.092750E+05 -8.205710E+04  1.050879E-09 -1.739256E-10
       179  11 -4.640820E+05 -2.407151E+05 -1.963854E+05 -5.675352E+04  3.294973E-10 -2.334988E-10
       179  12 -3.314566E+05 -2.089039E+05 -1.760920E+05 -8.571743E+04  1.384089E-09  1.066809E-10
       179  13  5.228331E+05  7.507908E+03  3.648108E+04 -8.436930E+04 -1.174727E-09 -4.361120E-10
       179  14  5.210555E+05 -4.661793E+02  1.970773E+04 -5.723726E+04 -1.083502E-11 -9.459579E-11
       179  15  5.229141E+05 -5.370499E+02  1.143247E+04 -8.436703E+04 -2.440574E-10 -2.785983E-11
       179  16  1.640154E+06  2.798244E+05  2.821609E+05 -8.668576E+04 -5.617197E-10 -3.210933E-10
       179  17  1.507101E+06  2.397179E+05  2.357418E+05 -5.772176E+04 -4.261245E-10 -5.455692E-10
       179  18  1.377968E+06  2.077810E+05  1.989125E+05 -8.301468E+04 -1.424095E-09 -2.975532E-10
       179  19 -5.933207E+05 -2.648884E+05 -2.092671E+05 -8.205562E+04 -3.261288E+04 -5.610217E+04
       179  20 -4.640807E+05 -2.407122E+05 -1.963794E+05 -5.675252E+04 -2.431285E+04 -5.085204E+04
       179  21 -3.314558E+05 -2.089018E+05 -1.760879E+05 -8.571686E+04 -1.600316E+04 -4.387352E+04
       179  22  5.228349E+05  7.511508E+03  3.648854E+04 -8.436801E+04 -2.865365E+04 -5.609298E+04
       179  23  5.210566E+05 -4.633080E+02  1.971325E+04 -5.723649E+04 -1.876198E+04 -5.084544E+04
       179  24  5.229147E+05 -5.349615E+02  1.143624E+04 -8.436672E+04 -8.862354E+03 -4.387078E+04
       179  25  1.640155E+06  2.798279E+05  2.821679E+05 -8.668465E+04 -2.468735E+04 -5.608384E+04
       179  26  1.507102E+06  2.397207E+05  2.357470E+05 -5.772122E+04 -1.320239E+04 -5.083885E+04
       179  27  1.377968E+06  2.077831E+05  1.989161E+05 -8.301462E+04 -1.711830E+03 -4.386802E+04
       180   1 -2.254736E+05 -1.819366E+05 -1.547373E+05 -8.427397E+04  1.370482E+04  3.940520E+04
       180   2 -9.544209E+04 -1.506107E+05 -1.302638E+05 -5.720275E+04  1.128858E+04  3.210058E+04
       180   3  3.512312E+04 -1.187730E+05 -1.040722E+05 -8.419073E+04  8.866013E+03  2.472782E+04
       180   4  5.222624E+05  2.924855E+02  8.770771E+03 -8.432128E+04  7.080575E+03  3.940426E+04
       180   5  5.220223E+05 -8.996332E+01  5.005503E+03 -5.729344E+04  4.598840E+03  3.210205E+04
       180   6  5.223104E+05  5.115667E+01  3.002611E+03 -8.432154E+04  2.111268E+03  2.473179E+04
       180   7  1.270522E+06  1.824844E+05  1.722452E+05 -8.436857E+04  4.484427E+02  3.940334E+04
       180   8  1.139844E+06  1.504054E+05  1.402519E+05 -5.738416E+04 -2.097478E+03  3.210352E+04
       180   9  1.009720E+06  1.188595E+05  1.100631E+05 -8.445240E+04 -4.648715E+03  2.473575E+04
       180  10 -2.254743E+05 -1.819384E+05 -1.547406E+05 -8.427440E+04  8.852534E-09  3.366469E-10
       180  11 -9.544251E+04 -1.506118E+05 -1.302660E+05 -5.720304E+04 -1.054257E-09  5.644975E-10
       180  12  3.512287E+04 -1.187737E+05 -1.040735E+05 -8.419090E+04 -8.899004E-09 -5.387253E-10
       180  13  5.222619E+05  2.908042E+02  8.767758E+03 -8.432151E+04 -3.017672E-11  3.098027E-10
       180  14  5.220220E+05 -9.107590E+01  5.003527E+03 -5.729356E+04 -1.879188E-09  8.275850E-10
       180  15  5.223102E+05  5.049849E+01  3.001453E+03 -8.432158E+04 -1.215874E-09  5.243676E-10
       180  16  1.270522E+06  1.824827E+05  1.722423E+05 -8.436858E+04 -8.809014E-09  3.675450E-10
       180  17  1.139843E+06  1.504042E+05  1.402499E+05 -5.738411E+04 -2.651964E-10  5.332588E-10
       180  18  1.009719E+06  1.188588E+05  1.100619E+05 -8.445230E+04  8.660995E-09 -4.033595E-10
       180  19 -2.254736E+05 -1.819366E+05 -1.547373E+05 -8.427397E+04 -1.370482E+04 -3.940520E+04
       180  20 -9.544209E+04 -1.506107E+05 -1.302638E+05 -5.720275E+04 -1.128858E+04 -3.210058E+04
       180  21  3.512312E+04 -1.187730E+05 -1.040722E+05 -8.419073E+04 -8.866013E+03 -2.472782E+04
       180  22  5.222624E+05  2.924855E+02  8.770771E+03 -8.432128E+04 -7.080575E+03 -3.940426E+04
       180  23  5.220223E+05 -8.996332E+01  5.005503E+03 -5.729344E+04 -4.598840E+03 -3.210205E+04
       180  24  5.223104E+05  5.115667E+01  3.002611E+03 -8.432154E+04 -2.111268E+03 -2.473179E+04
       180  25  1.270522E+06  1.824844E+05  1.722452E+05 -8.436857E+04 -4.484427E+02 -3.940334E+04
       180  26  1.139844E+06  1.504054E+05  1.402519E+05 -5.738416E+04  2.097478E+03 -3.210352E+04
       180  27  1.009720E+06  1.188595E+05  1.100631E+05 -8.445240E+04  4.648715E+03 -2.473575E+04
       181   1  1.412572E+05 -9.268604E+04 -8.071170E+04 -8.412775E+04  8.349593E+03  2.042324E+04
       181   2  2.712028E+05 -6.110861E+04 -5.337236E+04 -5.720446E+04  7.554039E+03  1.304897E+04
       181   3  4.012074E+05 -2.941752E+04 -2.550923E+04 -8.419255E+04  6.755965E+03  5.675197E+03
       181   4  5.222239E+05  9.579145E+01  2.365297E+03 -8.428906E+04  1.622548E+03  2.042825E+04
       181   5  5.222110E+05  6.595683E+01  1.600340E+03 -5.733403E+04  8.264479E+02  1.305493E+04
       181   6  5.222431E+05  1.513001E+02  1.360316E+03 -8.428905E+04  2.799087E+01  5.682169E+03
       181   7  9.033265E+05  9.286800E+04  8.543373E+04 -8.445043E+04 -5.108571E+03  2.043325E+04
       181   8  7.732782E+05  6.123634E+04  5.656939E+04 -5.746364E+04 -5.903828E+03  1.306088E+04
       181   9  6.432926E+05  2.971916E+04  2.822912E+04 -8.438557E+04 -6.701280E+03  5.689143E+03
       181  10  1.412570E+05 -9.268651E+04 -8.071261E+04 -8.412789E+04 -1.113262E-09 -3.237969E-10
       181  11  2.712027E+05 -6.110881E+04 -5.337279E+04 -5.720454E+04  2.193832E-10  1.223798E-10
       181  12  4.012074E+05 -2.941757E+04 -2.550937E+04 -8.419258E+04 -1.066300E-09  3.481647E-10
       181  13  5.222237E+05  9.534251E+01  2.364508E+03 -8.428908E+04 -4.954289E-10 -1.077292E-09
       181  14  5.222109E+05  6.577359E+01  1.600018E+03 -5.733404E+04 -1.391173E-09  1.453095E-11
       181  15  5.222431E+05  1.512654E+02  1.360255E+03 -8.428905E+04 -4.421944E-10 -1.852052E-10
       181  16  9.033263E+05  9.286754E+04  8.543290E+04 -8.445034E+04  8.583395E-10 -5.548209E-10
       181  17  7.732781E+05  6.123615E+04  5.656900E+04 -5.746357E+04 -1.581813E-09 -4.586220E-10
       181  18  6.432925E+05  2.971911E+04  2.822897E+04 -8.438554E+04 -1.161259E-10 -8.391819E-10
       181  19  1.412572E+05 -9.268604E+04 -8.071170E+04 -8.412775E+04 -8.349593E+03 -2.042324E+04
       181  20  2.712028E+05 -6.110861E+04 -5.337236E+04 -5.720446E+04 -7.554039E+03 -1.304897E+04
       181  21  4.012074E+05 -2.941752E+04 -2.550923E+04 -8.419255E+04 -6.755965E+03 -5.675197E+03
       181  22  5.222239E+05  9.579145E+01  2.365297E+03 -8.428906E+04 -1.622548E+03 -2.042825E+04
       181  23  5.222110E+05  6.595683E+01  1.600340E+03 -5.733403E+04 -8.264479E+02 -1.305493E+04
       181  24  5.222431E+05  1.513001E+02  1.360316E+03 -8.428905E+04 -2.799087E+01 -5.682169E+03
       181  25  9.033265E+05  9.286800E+04  8.543373E+04 -8.445043E+04  5.108571E+03 -2.043325E+04
       181  26  7.732782E+05  6.123634E+04  5.656939E+04 -5.746364E+04  5.903828E+03 -1.306088E+04
       181  27  6.432926E+05  2.971916E+04  2.822912E+04 -8.438557E+04  6.701280E+03 -5.689143E+03
       182   1  5.072995E+05 -3.416473E+03 -1.512388E+03 -8.426639E+04  6.500106E+03  1.384426E+03
       182   2  6.372229E+05  2.810116E+04  2.697938E+04 -5.737007E+04  5.603099E+03 -5.985694E+03
       182   3  7.671993E+05  5.974279E+04  5.605698E+04 -8.436138E+04  4.706982E+03 -1.335456E+04
       182   4  5.222441E+05  1.523318E+02  1.395442E+03 -8.428421E+04 -2.274200E+02  1.391564E+03
       182   5  5.222222E+05  7.992839E+01  1.798636E+03 -5.734008E+04 -1.123845E+03 -5.979039E+03
       182   6  5.222352E+05  1.319576E+02  2.787384E+03 -8.428419E+04 -2.019197E+03 -1.334833E+04
       182   7  5.371891E+05  3.721148E+03  4.303431E+03 -8.430202E+04 -6.955104E+03  1.398702E+03
       182   8  4.072339E+05 -2.794216E+04 -2.338274E+04 -5.731009E+04 -7.849559E+03 -5.972385E+03
       182   9  2.773273E+05 -5.948282E+04 -5.048563E+04 -8.420700E+04 -8.742760E+03 -1.334210E+04
       182  10  5.072994E+05 -3.416487E+03 -1.512471E+03 -8.426640E+04 -6.285910E-10  1.195410E-09
       182  11  6.372229E+05  2.810111E+04  2.697925E+04 -5.737004E+04 -7.586576E-10  1.724317E-09
       182  12  7.671992E+05  5.974259E+04  5.605660E+04 -8.436133E+04  1.055233E-09 -1.250142E-09
       182  13  5.222441E+05  1.523298E+02  1.395438E+03 -8.428421E+04 -5.298964E-10  3.704535E-10
       182  14  5.222222E+05  7.988966E+01  1.798567E+03 -5.734008E+04  4.531477E-10 -4.413047E-10
       182  15  5.222351E+05  1.317651E+02  2.787042E+03 -8.428421E+04 -4.163677E-10 -2.309846E-10
       182  16  5.371890E+05  3.721133E+03  4.303337E+03 -8.430202E+04  8.977446E-10  3.841253E-11
       182  17  4.072338E+05 -2.794221E+04 -2.338292E+04 -5.731013E+04 -9.391480E-10 -5.396951E-10
       182  18  2.773272E+05 -5.948304E+04 -5.048611E+04 -8.420710E+04 -3.028527E-10 -2.280294E-10
       182  19  5.072995E+05 -3.416473E+03 -1.512388E+03 -8.426639E+04 -6.500106E+03 -1.384426E+03
       182  20  6.372229E+05  2.810116E+04  2.697938E+04 -5.737007E+04 -5.603099E+03  5.985694E+03
       182  21  7.671993E+05  5.974279E+04  5.605698E+04 -8.436138E+04 -4.706982E+03  1.335456E+04
       182  22  5.222441E+05  1.523318E+02  1.395442E+03 -8.428421E+04  2.274200E+02 -1.391564E+03
       182  23  5.222222E+05  7.992839E+01  1.798636E+03 -5.734008E+04  1.123845E+03  5.979039E+03
       182  24  5.222352E+05  1.319576E+02  2.787384E+03 -8.428419E+04  2.019197E+03  1.334833E+04
       182  25  5.371891E+05  3.721148E+03  4.303431E+03 -8.430202E+04  6.955104E+03 -1.398702E+03
       182  26  4.072339E+05 -2.794216E+04 -2.338274E+04 -5.731009E+04  7.849559E+03  5.972385E+03
       182  27  2.773273E+05 -5.948282E+04 -5.048563E+04 -8.420700E+04  8.742760E+03  1.334210E+04
       183   1  8.735014E+05  8.570732E+04  8.081912E+04 -8.435731E+04  4.152699E+03 -1.765296E+04
       183   2  1.003439E+06  1.172194E+05  1.114374E+05 -5.738308E+04  1.089183E+03 -2.501388E+04
       183   3  1.133948E+06  1.493727E+05  1.442034E+05 -8.439356E+04 -1.970406E+03 -3.231158E+04
       183   4  5.223346E+05  8.150123E+01  3.576624E+03 -8.430629E+04 -2.598451E+03 -1.764744E+04
       183   5  5.220424E+05 -5.402808E+01  6.045519E+03 -5.731246E+04 -5.602754E+03 -2.501032E+04
       183   6  5.222969E+05  4.429852E+02  1.062306E+04 -8.430588E+04 -8.602504E+03 -3.230990E+04
       183   7  1.712830E+05 -8.555255E+04 -7.367324E+04 -8.425528E+04 -9.345832E+03 -1.764191E+04
       183   8  4.086285E+04 -1.173428E+05 -9.936024E+04 -5.724184E+04 -1.228957E+04 -2.500676E+04
       183   9 -8.900425E+04 -1.485116E+05 -1.229797E+05 -8.421821E+04 -1.522816E+04 -3.230821E+04
       183  10  8.735013E+05  8.570698E+04  8.081850E+04 -8.435725E+04 -3.453108E-10 -1.639095E-09
       183  11  1.003438E+06  1.172187E+05  1.114362E+05 -5.738306E+04  8.180357E-10 -4.654984E-10
       183  12  1.133948E+06  1.493716E+05  1.442014E+05 -8.439361E+04 -5.336384E-10  6.298256E-11
       183  13  5.223345E+05  8.116491E+01  3.576026E+03 -8.430633E+04 -1.114140E-10 -4.196015E-10
       183  14  5.220422E+05 -5.470838E+01  6.044284E+03 -5.731257E+04  4.663964E-10 -5.500706E-10
       183  15  5.222965E+05  4.418441E+02  1.062095E+04 -8.430610E+04  2.814137E-10 -3.192035E-10
       183  16  1.712828E+05 -8.555291E+04 -7.367399E+04 -8.425541E+04  9.050463E-10  3.404425E-11
       183  17  4.086252E+04 -1.173436E+05 -9.936170E+04 -5.724209E+04 -1.965396E-10  8.011162E-10
       183  18 -8.900478E+04 -1.485128E+05 -1.229821E+05 -8.421860E+04  2.769694E-11  4.531059E-11
       183  19  8.735014E+05  8.570732E+04  8.081912E+04 -8.435731E+04 -4.152699E+03  1.765296E+04
       183  20  1.003439E+06  1.172194E+05  1.114374E+05 -5.738308E+04 -1.089183E+03  2.501388E+04
       183  21  1.133948E+06  1.493727E+05  1.442034E+05 -8.439356E+04  1.970406E+03  3.231158E+04
       183  22  5.223346E+05  8.150123E+01  3.576624E+03 -8.430629E+04  2.598451E+03  1.764744E+04
       183  23  5.220424E+05 -5.402808E+01  6.045519E+03 -5.731246E+04  5.602754E+03  2.501032E+04
       183  24  5.222969E+05  4.429852E+02  1.062306E+04 -8.430588E+04  8.602504E+03  3.230990E+04
       183  25  1.712830E+05 -8.555255E+04 -7.367324E+04 -8.425528E+04  9.345832E+03  1.764191E+04
       183  26  4.086285E+04 -1.173428E+05 -9.936024E+04 -5.724184E+04  1.228957E+04  2.500676E+04
       183  27 -8.900425E+04 -1.485116E+05 -1.229797E+05 -8.421821E+04  1.522816E+04  3.230821E+04
       184   1  1.241326E+06  1.744566E+05  1.714099E+05 -8.278707E+04 -3.659360E+03 -3.675502E+04
       184   2  1.369894E+06  2.063804E+05  2.099556E+05 -5.809088E+04 -1.712834E+04 -4.374883E+04
       184   3  1.502928E+06  2.481427E+05  2.597665E+05 -8.754195E+04 -3.059275E+04 -4.917124E+04
       184   4  5.230788E+05 -5.555657E+02  1.385706E+04 -8.434282E+04 -1.076210E+04 -3.675473E+04
       184   5  5.209397E+05 -4.306390E+02  2.392978E+04 -5.726644E+04 -2.278096E+04 -4.375224E+04
       184   6  5.230087E+05  9.291342E+03  4.427439E+04 -8.434140E+04 -3.479251E+04 -4.917742E+04
       184   7 -1.946862E+05 -1.756022E+05 -1.437270E+05 -8.589666E+04 -1.785674E+04 -3.675440E+04
       184   8 -3.273413E+05 -2.072898E+05 -1.621396E+05 -5.644307E+04 -2.842595E+04 -4.375568E+04
       184   9 -4.560147E+05 -2.296243E+05 -1.712764E+05 -8.114592E+04 -3.898569E+04 -4.918365E+04
       184  10  1.241325E+06  1.744551E+05  1.714074E+05 -8.278718E+04 -8.912466E-10  4.150579E-10
       184  11  1.369893E+06  2.063783E+05  2.099514E+05 -5.809148E+04  7.756282E-10 -7.159624E-12
       184  12  1.502927E+06  2.481399E+05  2.597602E+05 -8.754316E+04  6.433543E-10 -3.423984E-10
       184  13  5.230783E+05 -5.570478E+02  1.385430E+04 -8.434313E+04  1.269953E-11  2.678735E-10
       184  14  5.209386E+05 -4.328343E+02  2.392521E+04 -5.726724E+04  7.093455E-11  3.333467E-10
       184  15  5.230068E+05  9.288420E+03  4.426757E+04 -8.434278E+04  1.795028E-10 -5.481426E-11
       184  16 -1.946869E+05 -1.756037E+05 -1.437302E+05 -8.589719E+04 -2.768912E-10  1.162912E-10
       184  17 -3.273427E+05 -2.072920E+05 -1.621448E+05 -5.644407E+04 -5.778199E-11  3.160483E-10
       184  18 -4.560170E+05 -2.296273E+05 -1.712838E+05 -8.114746E+04 -9.974877E-10  5.844127E-11
       184  19  1.241326E+06  1.744566E+05  1.714099E+05 -8.278707E+04  3.659360E+03  3.675502E+04
       184  20  1.369894E+06  2.063804E+05  2.099556E+05 -5.809088E+04  1.712834E+04  4.374883E+04
       184  21  1.502928E+06  2.481427E+05  2.597665E+05 -8.754195E+04  3.059275E+04  4.917124E+04
       184  22  5.230788E+05 -5.555657E+02  1.385706E+04 -8.434282E+04  1.076210E+04  3.675473E+04
       184  23  5.209397E+05 -4.306390E+02  2.392978E+04 -5.726644E+04  2.278096E+04  4.375224E+04
       184  24  5.230087E+05  9.291342E+03  4.427439E+04 -8.434140E+04  3.479251E+04  4.917742E+04
       184  25 -1.946862E+05 -1.756022E+05 -1.437270E+05 -8.589666E+04  1.785674E+04  3.675440E+04
       184  26 -3.273413E+05 -2.072898E+05 -1.621396E+05 -5.644307E+04  2.842595E+04  4.375568E+04
       184  27 -4.560147E+05 -2.296243E+05 -1.712764E+05 -8.114592E+04  3.898569E+04  4.918365E+04
       185   1  1.620700E+06  2.561623E+05  2.937284E+05 -5.882150E+04 -2.815043E+04 -5.660745E+04
       185   2  1.725643E+06  2.965487E+05  3.661667E+05 -8.574157E+04 -1.108701E+05 -5.489027E+04
       185   3  1.884780E+06  5.083496E+05  5.353456E+05 -1.657692E+05 -1.936552E+05 -1.771278E+04
       185   4  5.328415E+05 -8.762653E+03  5.571361E+04 -8.407083E+04 -4.270232E+04 -5.661779E+04
       185   5  5.084524E+05 -7.927788E+02  9.483180E+04 -5.759607E+04 -9.293144E+04 -5.489026E+04
       185   6  5.327067E+05  1.731306E+05  2.082594E+05 -8.421949E+04 -1.432040E+05 -1.768547E+04
       185   7 -5.539098E+05 -2.737640E+05 -1.823717E+05 -1.092755E+05 -5.722903E+04 -5.662696E+04
       185   8 -7.073577E+05 -2.982315E+05 -1.765943E+05 -2.950639E+04 -7.502738E+04 -5.488863E+04
       185   9 -8.176803E+05 -1.621954E+05 -1.189450E+05 -2.847805E+03 -9.286175E+04 -1.764492E+04
       185  10  1.620698E+06  2.561587E+05  2.937209E+05 -5.882278E+04 -8.125475E-11 -3.603482E-11
       185  11  1.725629E+06  2.965422E+05  3.661380E+05 -8.574647E+04  5.977090E-11  1.156000E-10
       185  12  1.884740E+06  5.083392E+05  5.352748E+05 -1.657720E+05  2.684406E-10 -1.544497E-10
       185  13  5.328387E+05 -8.766585E+03  5.570416E+04 -8.407278E+04  2.018378E-10  3.798011E-10
       185  14  5.084424E+05 -7.983313E+02  9.480992E+04 -5.760017E+04  1.030887E-09  1.544227E-09
       185  15  5.326846E+05  1.731248E+05  2.082203E+05 -8.422153E+04  3.231619E-10 -5.080686E-11
       185  16 -5.539142E+05 -2.737683E+05 -1.823839E+05 -1.092781E+05  5.886825E-10  1.917379E-10
       185  17 -7.073646E+05 -2.982362E+05 -1.766105E+05 -2.950971E+04 -4.985757E-10  5.450006E-10
       185  18 -8.176897E+05 -1.621981E+05 -1.189618E+05 -2.849126E+03 -5.808135E-10 -2.606724E-10
       185  19  1.620700E+06  2.561623E+05  2.937284E+05 -5.882150E+04  2.815043E+04  5.660745E+04
       185  20  1.725643E+06  2.965487E+05  3.661667E+05 -8.574157E+04  1.108701E+05  5.489027E+04
       185  21  1.884780E+06  5.083496E+05  5.353456E+05 -1.657692E+05  1.936552E+05  1.771278E+04
       185  22  5.328415E+05 -8.762653E+03  5.571361E+04 -8.407083E+04  4.270232E+04  5.661779E+04
       185  23  5.084524E+05 -7.927788E+02  9.483180E+04 -5.759607E+04  9.293144E+04  5.489026E+04
       185  24  5.327067E+05  1.731306E+05  2.082594E+05 -8.421949E+04  1.432040E+05  1.768547E+04
       185  25 -5.539098E+05 -2.737640E+05 -1.823717E+05 -1.092755E+05  5.722903E+04  5.662696E+04
       185  26 -7.073577E+05 -2.982315E+05 -1.765943E+05 -2.950639E+04  7.502738E+04  5.488863E+04
       185  27 -8.176803E+05 -1.621954E+05 -1.189450E+05 -2.847805E+03  9.286175E+04  1.764492E+04
       186   1  3.314798E+05  1.179941E+06  3.428796E+05 -2.754627E+05  9.727373E+03  9.568858E+04
       186   2  1.534159E+05  8.037644E+05  1.884475E+05 -1.743922E+05  2.555323E+04  4.428358E+04
       186   3  6.156298E+04  4.552778E+05  8.885339E+04 -2.220985E+05  1.273116E+04 -7.153444E+03
       186   4  8.543755E+04  1.911432E+05  1.017538E+05 -2.334501E+05  9.798224E+03  6.820989E+04
       186   5  4.423079E+02  1.796741E+05  4.773987E+04 -1.591662E+05  2.555921E+04  4.300443E+04
       186   6 -2.823687E+03  1.912816E+05  3.044195E+04 -2.336527E+05  1.266370E+04  1.773670E+04
       186   7 -1.606700E+05 -7.967592E+05 -1.394394E+05 -1.915038E+05  9.865428E+03  4.077473E+04
       186   8 -1.525572E+05 -4.440539E+05 -9.299254E+04 -1.439553E+05  2.556513E+04  4.172654E+04
       186   9 -6.721419E+04 -7.264800E+04 -2.797138E+04 -2.452019E+05  1.259529E+04  4.261639E+04
       186  10  3.314772E+05  1.179931E+06  3.428622E+05 -2.754635E+05  6.912209E-10  9.809002E-10
       186  11  1.534147E+05  8.037621E+05  1.884426E+05 -1.743932E+05 -8.794174E-10  8.620505E-10
       186  12  6.156279E+04  4.552777E+05  8.885298E+04 -2.220984E+05 -1.021571E-09 -4.362591E-10
       186  13  8.543620E+04  1.911382E+05  1.017449E+05 -2.334507E+05  7.771173E-10 -5.263112E-10
       186  14  4.411097E+02  1.796720E+05  4.773517E+04 -1.591671E+05 -1.170009E-09  9.213946E-11
       186  15 -2.823944E+03  1.912812E+05  3.044106E+04 -2.336529E+05  3.804675E-10 -1.198780E-09
       186  16 -1.606705E+05 -7.967611E+05 -1.394427E+05 -1.915041E+05 -1.164834E-10 -6.183617E-10
       186  17 -1.525584E+05 -4.440559E+05 -9.299704E+04 -1.439562E+05  1.690046E-09 -1.346096E-09
       186  18 -6.721485E+04 -7.264999E+04 -2.797509E+04 -2.452023E+05 -6.941191E-10  8.125867E-10
       186  19  3.314798E+05  1.179941E+06  3.428796E+05 -2.754627E+05 -9.727373E+03 -9.568858E+04
       186  20  1.534159E+05  8.037644E+05  1.884475E+05 -1.743922E+05 -2.555323E+04 -4.428358E+04
       186  21  6.156298E+04  4.552778E+05  8.885339E+04 -2.220985E+05 -1.273116E+04  7.153444E+03
       186  22  8.543755E+04  1.911432E+05  1.017538E+05 -2.334501E+05 -9.798224E+03 -6.820989E+04
       186  23  4.423079E+02  1.796741E+05  4.773987E+04 -1.591662E+05 -2.555921E+04 -4.300443E+04
       186  24 -2.823687E+03  1.912816E+05  3.044195E+04 -2.336527E+05 -1.266370E+04 -1.773670E+04
       186  25 -1.606700E+05 -7.967592E+05 -1.394394E+05 -1.915038E+05 -9.865428E+03 -4.077473E+04
       186  26 -1.525572E+05 -4.440539E+05 -9.299254E+04 -1.439553E+05 -2.556513E+04 -4.172654E+04
       186  27 -6.721419E+04 -7.264800E+04 -2.797138E+04 -2.452019E+05 -1.259529E+04 -4.261639E+04
       187   1 -2.230743E+03  1.542764E+05  1.906620E+04 -2.360080E+05 -1.939635E+03 -3.997433E+03
       187   2 -9.568831E+04 -2.089865E+05 -6.695381E+04 -1.582667E+05 -2.027634E+04 -1.306100E+04
       187   3 -1.807286E+05 -5.696100E+05 -1.451695E+05 -2.305352E+05 -3.772278E+04 -2.210798E+04
       187   4  5.641941E+03  1.867581E+05  2.602446E+04 -2.338710E+05 -1.986894E+03  1.315599E+04
       187   5  4.978566E+02  1.853875E+05  1.958281E+04 -1.588719E+05 -2.031726E+04  3.274048E+03
       187   6  3.919064E+03  1.866747E+05  2.151813E+04 -2.338752E+05 -3.775800E+04 -6.596415E+03
       187   7  1.351473E+04  2.192415E+05  3.298376E+04 -2.317339E+05 -2.034033E+03  3.031029E+04
       187   8  9.667376E+04  5.799077E+05  1.061110E+05 -1.594773E+05 -2.035820E+04  1.961934E+04
       187   9  1.885284E+05  9.434949E+05  1.881715E+05 -2.372190E+05 -3.779337E+04  8.933844E+03
       187  10 -2.230751E+03  1.542764E+05  1.906617E+04 -2.360080E+05 -1.723365E-09  1.179371E-09
       187  11 -9.568879E+04 -2.089868E+05 -6.695490E+04 -1.582669E+05 -3.694895E-10 -2.219622E-09
       187  12 -1.807302E+05 -5.696109E+05 -1.451731E+05 -2.305359E+05  1.086547E-09 -5.142410E-09
       187  13  5.641890E+03  1.867579E+05  2.602412E+04 -2.338710E+05 -7.163675E-10 -6.347128E-10
       187  14  4.974105E+02  1.853874E+05  1.958202E+04 -1.588718E+05  5.410105E-10  7.553873E-12
       187  15  3.917521E+03  1.866743E+05  2.151537E+04 -2.338754E+05  7.484706E-10 -1.241226E-09
       187  16  1.351448E+04  2.192405E+05  3.298202E+04 -2.317338E+05 -2.357805E-10 -8.678100E-10
       187  17  9.667321E+04  5.799072E+05  1.061095E+05 -1.594770E+05 -1.391391E-09  1.579222E-09
       187  18  1.885269E+05  9.434944E+05  1.881687E+05 -2.372187E+05  1.200065E-09  5.541436E-09
       187  19 -2.230743E+03  1.542764E+05  1.906620E+04 -2.360080E+05  1.939635E+03  3.997433E+03
       187  20 -9.568831E+04 -2.089865E+05 -6.695381E+04 -1.582667E+05  2.027634E+04  1.306100E+04
       187  21 -1.807286E+05 -5.696100E+05 -1.451695E+05 -2.305352E+05  3.772278E+04  2.210798E+04
       187  22  5.641941E+03  1.867581E+05  2.602446E+04 -2.338710E+05  1.986894E+03 -1.315599E+04
       187  23  4.978566E+02  1.853875E+05  1.958281E+04 -1.588719E+05  2.031726E+04 -3.274048E+03
       187  24  3.919064E+03  1.866747E+05  2.151813E+04 -2.338752E+05  3.775800E+04  6.596415E+03
       187  25  1.351473E+04  2.192415E+05  3.298376E+04 -2.317339E+05  2.034033E+03 -3.031029E+04
       187  26  9.667376E+04  5.799077E+05  1.061110E+05 -1.594773E+05  2.035820E+04 -1.961934E+04
       187  27  1.885284E+05  9.434949E+05  1.881715E+05 -2.372190E+05  3.779337E+04 -8.933844E+03
       188   1 -2.587486E+05 -8.632405E+05 -2.074078E+05 -2.401682E+05 -5.402654E+04 -3.964202E+04
       188   2 -3.458270E+05 -1.230345E+06 -2.817736E+05 -1.476370E+05 -6.191719E+04 -1.345960E+04
       188   3 -3.826256E+05 -1.587977E+06 -3.606103E+05 -2.031771E+05 -2.106778E+04  1.276952E+04
       188   4 -1.859002E+03  1.897477E+05  2.380474E+04 -2.334660E+05 -5.408823E+04 -1.032973E+04
       188   5 -4.866173E+01  1.810836E+05  3.453917E+04 -1.593965E+05 -6.187994E+04 -2.855598E+04
       188   6  5.969761E+04  1.894452E+05  7.163563E+04 -2.333685E+05 -2.098273E+04 -4.672031E+04
       188   7  2.549570E+05  1.243776E+06  2.549530E+05 -2.267515E+05 -5.414922E+04  1.903173E+04
       188   8  3.455943E+05  1.594370E+06  3.507268E+05 -1.711821E+05 -6.184218E+04 -4.368631E+04
       188   9  5.017934E+05  1.969764E+06  5.036665E+05 -2.636452E+05 -2.089205E+04 -1.063802E+05
       188  10 -2.587521E+05 -8.632430E+05 -2.074163E+05 -2.401700E+05  5.105011E-10  7.057303E-09
       188  11 -3.458312E+05 -1.230347E+06 -2.817811E+05 -1.476376E+05  8.445586E-10  4.359944E-09
       188  12 -3.826262E+05 -1.587977E+06 -3.606114E+05 -2.031769E+05  2.948862E-10 -6.554124E-10
       188  13 -1.862173E+03  1.897468E+05  2.379904E+04 -2.334665E+05  1.734847E-09 -5.683943E-10
       188  14 -5.299329E+01  1.810817E+05  3.453044E+04 -1.593979E+05 -3.098616E-10  1.827053E-11
       188  15  5.969655E+04  1.894427E+05  7.163070E+04 -2.333692E+05  5.058230E-10 -5.399622E-10
       188  16  2.549538E+05  1.243775E+06  2.549468E+05 -2.267507E+05  8.131057E-11 -6.687320E-09
       188  17  3.455897E+05  1.594367E+06  3.507161E+05 -1.711842E+05  2.774455E-10 -4.896053E-09
       188  18  5.017899E+05  1.969752E+06  5.036445E+05 -2.636470E+05  3.254653E-10  7.536608E-10
       188  19 -2.587486E+05 -8.632405E+05 -2.074078E+05 -2.401682E+05  5.402654E+04  3.964202E+04
       188  20 -3.458270E+05 -1.230345E+06 -2.817736E+05 -1.476370E+05  6.191719E+04  1.345960E+04
       188  21 -3.826256E+05 -1.587977E+06 -3.606103E+05 -2.031771E+05  2.106778E+04 -1.276952E+04
       188  22 -1.859002E+03  1.897477E+05  2.380474E+04 -2.334660E+05  5.408823E+04  1.032973E+04
       188  23 -4.866173E+01  1.810836E+05  3.453917E+04 -1.593965E+05  6.187994E+04  2.855598E+04
       188  24  5.969761E+04  1.894452E+05  7.163563E+04 -2.333685E+05  2.098273E+04  4.672031E+04
       188  25  2.549570E+05  1.243776E+06  2.549530E+05 -2.267515E+05  5.414922E+04 -1.903173E+04
       188  26  3.455943E+05  1.594370E+06  3.507268E+05 -1.711821E+05  6.184218E+04  4.368631E+04
       188  27  5.017934E+05  1.969764E+06  5.036665E+05 -2.636452E+05  2.089205E+04  1.063802E+05
       189   1 -2.696937E+06 -1.022679E+06 -6.288808E+05 -9.860520E+05 -2.623158E+05 -8.139191E+04
       189   2 -2.602907E+06 -6.563729E+05 -3.908044E+05 -9.646334E+05 -1.695477E+05 -9.359783E+03
       189   3 -2.592771E+06 -5.790246E+05 -3.024257E+05 -9.090006E+05 -6.510006E+04  3.175078E+04
       189   4 -1.698063E+06 -5.287666E+05 -3.389050E+05 -5.936184E+05 -2.217505E+05 -6.616798E+04
       189   5 -1.640216E+06 -2.569510E+05 -1.468013E+05 -6.596086E+05 -1.551852E+05 -3.972640E+03
       189   6 -1.660895E+06 -2.686592E+05 -8.340823E+04 -6.914340E+05 -7.696085E+04  2.728856E+04
       189   7 -6.981757E+05 -3.455934E+04 -4.901662E+04 -2.005385E+05 -1.811132E+05 -5.089757E+04
       189   8 -6.766026E+05  1.425959E+05  9.712790E+04 -3.541304E+05 -1.407983E+05  1.426057E+03
       189   9 -7.281634E+05  4.172397E+04  1.355488E+05 -4.735890E+05 -8.884103E+04  2.282086E+04
       189  10 -2.697013E+06 -1.022705E+06 -6.290232E+05 -9.860693E+05 -2.232378E-10  1.268134E-10
       189  11 -2.602938E+06 -6.563807E+05 -3.908588E+05 -9.646347E+05 -6.193344E-10 -7.007296E-10
       189  12 -2.592776E+06 -5.790268E+05 -3.024356E+05 -9.089989E+05 -8.605964E-11 -8.549262E-10
       189  13 -1.698117E+06 -5.287846E+05 -3.390060E+05 -5.936303E+05  5.407712E-10 -8.271374E-11
       189  14 -1.640242E+06 -2.569576E+05 -1.468467E+05 -6.596091E+05  7.317164E-10 -1.213620E-09
       189  15 -1.660902E+06 -2.686616E+05 -8.342077E+04 -6.914323E+05  9.467482E-10 -9.769126E-10
       189  16 -6.982117E+05 -3.457094E+04 -4.908321E+04 -2.005460E+05 -7.987409E-10  1.485922E-10
       189  17 -6.766239E+05  1.425905E+05  9.709060E+04 -3.541303E+05  1.226821E-09 -7.737450E-10
       189  18 -7.281720E+05  4.172130E+04  1.355330E+05 -4.735874E+05  6.883912E-10 -1.113327E-09
       189  19 -2.696937E+06 -1.022679E+06 -6.288808E+05 -9.860520E+05  2.623158E+05  8.139191E+04
       189  20 -2.602907E+06 -6.563729E+05 -3.908044E+05 -9.646334E+05  1.695477E+05  9.359783E+03
       189  21 -2.592771E+06 -5.790246E+05 -3.024257E+05 -9.090006E+05  6.510006E+04 -3.175078E+04
       189  22 -1.698063E+06 -5.287666E+05 -3.389050E+05 -5.936184E+05  2.217505E+05  6.616798E+04
       189  23 -1.640216E+06 -2.569510E+05 -1.468013E+05 -6.596086E+05  1.551852E+05  3.972640E+03
       189  24 -1.660895E+06 -2.686592E+05 -8.340823E+04 -6.914340E+05  7.696085E+04 -2.728856E+04
       189  25 -6.981757E+05 -3.455934E+04 -4.901662E+04 -2.005385E+05  1.811132E+05  5.089757E+04
       189  26 -6.766026E+05  1.425959E+05  9.712790E+04 -3.541304E+05  1.407983E+05 -1.426057E+03
       189  27 -7.281634E+05  4.172397E+04  1.355488E+05 -4.735890E+05  8.884103E+04 -2.282086E+04
       190   1 -2.473124E+06 -6.071745E+05 -2.675806E+05 -9.075480E+05 -6.138193E+04  2.612122E+04
       190   2 -2.393890E+06 -5.389084E+05 -2.122932E+05 -8.667047E+05 -4.153925E+04  2.931041E+04
       190   3 -2.293350E+06 -5.166001E+05 -1.751205E+05 -8.561015E+05 -2.115730E+04  3.105834E+04
       190   4 -1.649840E+06 -2.946537E+05 -6.615942E+04 -6.760784E+05 -6.399455E+04  2.513380E+04
       190   5 -1.659461E+06 -2.638770E+05 -3.392946E+04 -6.639175E+05 -4.535572E+04  2.787326E+04
       190   6 -1.647536E+06 -2.788036E+05 -1.883880E+04 -6.819991E+05 -2.618088E+04  2.917095E+04
       190   7 -8.258798E+05  1.792217E+04  1.352117E+05 -4.443249E+05 -6.661093E+04  2.414490E+04
       190   8 -9.244944E+05  1.119404E+04  1.443947E+05 -4.609103E+05 -4.917713E+04  2.643424E+04
       190   9 -1.001308E+06 -4.098071E+04  1.374121E+05 -5.077324E+05 -3.121018E+04  2.728148E+04
       190  10 -2.473128E+06 -6.071762E+05 -2.675890E+05 -9.075467E+05 -3.264741E-10 -1.172925E-09
       190  11 -2.393892E+06 -5.389098E+05 -2.122981E+05 -8.667037E+05  1.319452E-09 -5.764268E-10
       190  12 -2.293351E+06 -5.166013E+05 -1.751231E+05 -8.561010E+05 -1.337040E-09 -8.883174E-10
       190  13 -1.649845E+06 -2.946555E+05 -6.616831E+04 -6.760771E+05  3.744379E-10 -7.868226E-10
       190  14 -1.659463E+06 -2.638784E+05 -3.393479E+04 -6.639165E+05 -1.561258E-09 -2.080112E-10
       190  15 -1.647537E+06 -2.788047E+05 -1.884168E+04 -6.819985E+05 -2.501214E-09 -9.651372E-10
       190  16 -8.258847E+05  1.792036E+04  1.352023E+05 -4.443236E+05  1.936283E-09 -3.265672E-10
       190  17 -9.244971E+05  1.119264E+04  1.443888E+05 -4.609092E+05 -3.804121E-10  6.757284E-11
       190  18 -1.001310E+06 -4.098177E+04  1.374089E+05 -5.077317E+05 -3.718507E-09 -7.288545E-10
       190  19 -2.473124E+06 -6.071745E+05 -2.675806E+05 -9.075480E+05  6.138193E+04 -2.612122E+04
       190  20 -2.393890E+06 -5.389084E+05 -2.122932E+05 -8.667047E+05  4.153925E+04 -2.931041E+04
       190  21 -2.293350E+06 -5.166001E+05 -1.751205E+05 -8.561015E+05  2.115730E+04 -3.105834E+04
       190  22 -1.649840E+06 -2.946537E+05 -6.615942E+04 -6.760784E+05  6.399455E+04 -2.513380E+04
       190  23 -1.659461E+06 -2.638770E+05 -3.392946E+04 -6.639175E+05  4.535572E+04 -2.787326E+04
       190  24 -1.647536E+06 -2.788036E+05 -1.883880E+04 -6.819991E+05  2.618088E+04 -2.917095E+04
       190  25 -8.258798E+05  1.792217E+04  1.352117E+05 -4.443249E+05  6.661093E+04 -2.414490E+04
       190  26 -9.244944E+05  1.119404E+04  1.443947E+05 -4.609103E+05  4.917713E+04 -2.643424E+04
       190  27 -1.001308E+06 -4.098071E+04  1.374121E+05 -5.077324E+05  3.121018E+04 -2.728148E+04
       191   1 -2.211169E+06 -4.905427E+05 -1.508631E+05 -8.357458E+05 -1.763171E+04  2.855400E+04
       191   2 -2.132019E+06 -4.394058E+05 -1.218279E+05 -7.927948E+05 -1.159661E+04  2.455480E+04
       191   3 -2.023442E+06 -4.195439E+05 -9.600498E+04 -7.843685E+05 -5.529281E+03  2.045952E+04
       191   4 -1.646444E+06 -2.804387E+05 -1.434746E+04 -6.811227E+05 -2.227106E+04  2.681210E+04
       191   5 -1.661078E+06 -2.643266E+05 -7.791692E+03 -6.640337E+05 -1.631407E+04  2.278535E+04
       191   6 -1.646278E+06 -2.794725E+05 -4.383504E+03 -6.814715E+05 -1.032550E+04  1.866234E+04
       191   7 -1.081405E+06 -7.031367E+04  1.221439E+05 -5.263720E+05 -2.691499E+04  2.506848E+04
       191   8 -1.189916E+06 -8.923217E+04  1.062282E+05 -5.351835E+05 -2.103543E+04  2.101444E+04
       191   9 -1.268971E+06 -1.393908E+05  8.722797E+04 -5.785170E+05 -1.512493E+04  1.686396E+04
       191  10 -2.211170E+06 -4.905437E+05 -1.508652E+05 -8.357454E+05 -2.581465E-09 -1.219058E-09
       191  11 -2.132019E+06 -4.394065E+05 -1.218293E+05 -7.927946E+05  5.232730E-10 -5.621019E-11
       191  12 -2.023442E+06 -4.195443E+05 -9.600583E+04 -7.843684E+05  6.738325E-11  9.792153E-11
       191  13 -1.646445E+06 -2.804396E+05 -1.434974E+04 -6.811222E+05 -1.441758E-09 -6.553467E-10
       191  14 -1.661078E+06 -2.643273E+05 -7.793167E+03 -6.640334E+05  8.693803E-10  4.106683E-11
       191  15 -1.646278E+06 -2.794729E+05 -4.384358E+03 -6.814713E+05  1.433675E-11  2.156348E-10
       191  16 -1.081406E+06 -7.031454E+04  1.221414E+05 -5.263715E+05 -1.632185E-09 -2.566320E-10
       191  17 -1.189917E+06 -8.923277E+04  1.062265E+05 -5.351832E+05 -5.699984E-10  2.360261E-11
       191  18 -1.268971E+06 -1.393911E+05  8.722700E+04 -5.785168E+05  1.065772E-09  7.022003E-10
       191  19 -2.211169E+06 -4.905427E+05 -1.508631E+05 -8.357458E+05  1.763171E+04 -2.855400E+04
       191  20 -2.132019E+06 -4.394058E+05 -1.218279E+05 -7.927948E+05  1.159661E+04 -2.455480E+04
       191  21 -2.023442E+06 -4.195439E+05 -9.600498E+04 -7.843685E+05  5.529281E+03 -2.045952E+04
       191  22 -1.646444E+06 -2.804387E+05 -1.434746E+04 -6.811227E+05  2.227106E+04 -2.681210E+04
       191  23 -1.661078E+06 -2.643266E+05 -7.791692E+03 -6.640337E+05  1.631407E+04 -2.278535E+04
       191  24 -1.646278E+06 -2.794725E+05 -4.383504E+03 -6.814715E+05  1.032550E+04 -1.866234E+04
       191  25 -1.081405E+06 -7.031367E+04  1.221439E+05 -5.263720E+05  2.691499E+04 -2.506848E+04
       191  26 -1.189916E+06 -8.923217E+04  1.062282E+05 -5.351835E+05  2.103543E+04 -2.101444E+04
       191  27 -1.268971E+06 -1.393908E+05  8.722797E+04 -5.785170E+05  1.512493E+04 -1.686396E+04
       192   1 -1.942570E+06 -3.897294E+05 -7.482166E+04 -7.625244E+05 -3.661616E+03  1.741793E+04
       192   2 -1.862675E+06 -3.390901E+05 -5.083141E+04 -7.189765E+05 -4.976994E+02  1.217210E+04
       192   3 -1.752358E+06 -3.190948E+05 -2.763990E+04 -7.105317E+05  2.670807E+03  6.909025E+03
       192   4 -1.646086E+06 -2.796210E+05 -3.378462E+03 -6.814870E+05 -8.458091E+03  1.562145E+04
       192   5 -1.661282E+06 -2.642628E+05 -2.082615E+03 -6.639456E+05 -5.308452E+03  1.037102E+04
       192   6 -1.646063E+06 -2.795454E+05 -1.573498E+03 -6.815099E+05 -2.154416E+03  5.103326E+03
       192   7 -1.349515E+06 -1.695065E+05  6.805836E+04 -6.004143E+05 -1.325707E+04  1.382404E+04
       192   8 -1.459850E+06 -1.894330E+05  4.666312E+04 -6.088986E+05 -1.012090E+04  8.569308E+03
       192   9 -1.539757E+06 -2.399954E+05  2.449200E+04 -6.524837E+05 -6.980518E+03  3.297298E+03
       192  10 -1.942570E+06 -3.897297E+05 -7.482226E+04 -7.625244E+05  3.319508E-10  9.985669E-11
       192  11 -1.862675E+06 -3.390903E+05 -5.083169E+04 -7.189765E+05 -1.270711E-10 -3.769509E-10
       192  12 -1.752358E+06 -3.190948E+05 -2.764001E+04 -7.105317E+05 -3.366189E-10 -2.761337E-10
       192  13 -1.646086E+06 -2.796213E+05 -3.379054E+03 -6.814869E+05  4.302574E-10  2.167142E-10
       192  14 -1.661282E+06 -2.642630E+05 -2.082870E+03 -6.639456E+05 -6.652047E-10  6.384882E-10
       192  15 -1.646063E+06 -2.795454E+05 -1.573556E+03 -6.815099E+05 -9.892584E-10  5.263921E-11
       192  16 -1.349515E+06 -1.695067E+05  6.805767E+04 -6.004142E+05 -1.155282E-10 -4.192864E-12
       192  17 -1.459850E+06 -1.894331E+05  4.666279E+04 -6.088985E+05 -8.459342E-10  1.175776E-10
       192  18 -1.539757E+06 -2.399955E+05  2.449189E+04 -6.524837E+05 -1.055520E-09 -3.016470E-10
       192  19 -1.942570E+06 -3.897294E+05 -7.482166E+04 -7.625244E+05  3.661616E+03 -1.741793E+04
       192  20 -1.862675E+06 -3.390901E+05 -5.083141E+04 -7.189765E+05  4.976994E+02 -1.217210E+04
       192  21 -1.752358E+06 -3.190948E+05 -2.763990E+04 -7.105317E+05 -2.670807E+03 -6.909025E+03
       192  22 -1.646086E+06 -2.796210E+05 -3.378462E+03 -6.814870E+05  8.458091E+03 -1.562145E+04
       192  23 -1.661282E+06 -2.642628E+05 -2.082615E+03 -6.639456E+05  5.308452E+03 -1.037102E+04
       192  24 -1.646063E+06 -2.795454E+05 -1.573498E+03 -6.815099E+05  2.154416E+03 -5.103326E+03
       192  25 -1.349515E+06 -1.695065E+05  6.805836E+04 -6.004143E+05  1.325707E+04 -1.382404E+04
       192  26 -1.459850E+06 -1.894330E+05  4.666312E+04 -6.088986E+05  1.012090E+04 -8.569308E+03
       192  27 -1.539757E+06 -2.399954E+05  2.449200E+04 -6.524837E+05  6.980518E+03 -3.297298E+03
       193   1 -1.671131E+06 -2.888367E+05 -7.277863E+03 -6.884200E+05  4.167251E+03  3.708121E+03
       193   2 -1.591029E+06 -2.381536E+05  1.511003E+04 -6.447491E+05  7.223264E+03 -1.606101E+03
       193   3 -1.480437E+06 -2.181714E+05  3.678360E+04 -6.362698E+05  1.027729E+04 -6.912805E+03
       193   4 -1.646047E+06 -2.795614E+05 -1.541056E+03 -6.815282E+05 -6.618878E+02  1.901113E+03
       193   5 -1.661291E+06 -2.642311E+05 -1.890247E+03 -6.639230E+05  2.399904E+03 -3.411246E+03
       193   6 -1.646058E+06 -2.796046E+05 -2.958614E+03 -6.815140E+05  5.459532E+03 -8.716101E+03
       193   7 -1.620962E+06 -2.702859E+05  4.195845E+03 -6.746362E+05 -5.491263E+03  9.401738E+01
       193   8 -1.731548E+06 -2.903082E+05 -1.889084E+04 -6.830950E+05 -2.422873E+03 -5.216173E+03
       193   9 -1.811651E+06 -3.410359E+05 -4.270274E+04 -7.267472E+05  6.431782E+02 -1.051887E+04
       193  10 -1.671131E+06 -2.888367E+05 -7.277922E+03 -6.884200E+05  2.777330E-10  1.570351E-10
       193  11 -1.591029E+06 -2.381537E+05  1.510993E+04 -6.447491E+05 -2.358531E-10 -6.030461E-10
       193  12 -1.480437E+06 -2.181715E+05  3.678331E+04 -6.362697E+05  2.298514E-10 -2.064141E-10
       193  13 -1.646047E+06 -2.795614E+05 -1.541064E+03 -6.815282E+05 -8.326001E-10 -2.690195E-10
       193  14 -1.661291E+06 -2.642311E+05 -1.890280E+03 -6.639230E+05 -2.523533E-09 -4.019154E-10
       193  15 -1.646058E+06 -2.796047E+05 -2.958812E+03 -6.815140E+05 -5.701626E-10 -1.166475E-10
       193  16 -1.620962E+06 -2.702859E+05  4.195788E+03 -6.746362E+05 -7.611299E-10  5.158676E-10
       193  17 -1.731548E+06 -2.903082E+05 -1.889091E+04 -6.830950E+05 -9.686074E-10  8.354557E-10
       193  18 -1.811651E+06 -3.410360E+05 -4.270295E+04 -7.267472E+05 -1.275246E-09 -6.148843E-10
       193  19 -1.671131E+06 -2.888367E+05 -7.277863E+03 -6.884200E+05 -4.167251E+03 -3.708121E+03
       193  20 -1.591029E+06 -2.381536E+05  1.511003E+04 -6.447491E+05 -7.223264E+03  1.606101E+03
       193  21 -1.480437E+06 -2.181714E+05  3.678360E+04 -6.362698E+05 -1.027729E+04  6.912805E+03
       193  22 -1.646047E+06 -2.795614E+05 -1.541056E+03 -6.815282E+05  6.618878E+02 -1.901113E+03
       193  23 -1.661291E+06 -2.642311E+05 -1.890247E+03 -6.639230E+05 -2.399904E+03  3.411246E+03
       193  24 -1.646058E+06 -2.796046E+05 -2.958614E+03 -6.815140E+05 -5.459532E+03  8.716101E+03
       193  25 -1.620962E+06 -2.702859E+05  4.195845E+03 -6.746362E+05  5.491263E+03 -9.401738E+01
       193  26 -1.731548E+06 -2.903082E+05 -1.889084E+04 -6.830950E+05  2.422873E+03  5.216173E+03
       193  27 -1.811651E+06 -3.410359E+05 -4.270274E+04 -7.267472E+05 -6.431782E+02  1.051887E+04
       194   1 -1.399485E+06 -1.879521E+05  5.620280E+04 -6.142950E+05  1.207380E+04 -9.996718E+03
       194   2 -1.319847E+06 -1.374833E+05  7.587004E+04 -5.707179E+05  1.747090E+04 -1.438272E+04
       194   3 -1.210492E+06 -1.183230E+05  9.286541E+04 -5.619492E+05  2.284179E+04 -1.868863E+04
       194   4 -1.646205E+06 -2.794970E+05 -3.809865E+03 -6.815245E+05  7.250323E+03 -1.180264E+04
       194   5 -1.661122E+06 -2.642437E+05 -6.713055E+03 -6.639700E+05  1.271284E+04 -1.616545E+04
       194   6 -1.646343E+06 -2.803143E+05 -1.234083E+04 -6.812285E+05  1.814860E+04 -2.044833E+04
       194   7 -1.892864E+06 -3.710373E+05 -6.382665E+04 -7.487294E+05  2.428964E+03 -1.360777E+04
       194   8 -2.002281E+06 -3.909962E+05 -8.930468E+04 -7.571753E+05  7.957631E+03 -1.794711E+04
       194   9 -2.082008E+06 -4.422931E+05 -1.175616E+05 -8.004321E+05  1.345898E+04 -2.220668E+04
       194  10 -1.399486E+06 -1.879523E+05  5.620233E+04 -6.142949E+05  9.423446E-10 -4.389826E-11
       194  11 -1.319848E+06 -1.374836E+05  7.586908E+04 -5.707177E+05  1.455628E-10 -5.901167E-10
       194  12 -1.210493E+06 -1.183236E+05  9.286377E+04 -5.619488E+05 -9.682715E-11 -3.486142E-10
       194  13 -1.646206E+06 -2.794972E+05 -3.810225E+03 -6.815245E+05  2.470152E-11  1.891515E-10
       194  14 -1.661122E+06 -2.642441E+05 -6.713849E+03 -6.639698E+05 -1.843394E-09 -1.776791E-10
       194  15 -1.646343E+06 -2.803148E+05 -1.234223E+04 -6.812282E+05 -3.548596E-10 -1.160929E-10
       194  16 -1.892864E+06 -3.710375E+05 -6.382700E+04 -7.487294E+05 -5.680644E-10 -4.587126E-10
       194  17 -2.002281E+06 -3.909966E+05 -8.930541E+04 -7.571752E+05 -6.067321E-10  6.801598E-12
       194  18 -2.082008E+06 -4.422937E+05 -1.175628E+05 -8.004318E+05  4.033647E-10  5.810122E-10
       194  19 -1.399485E+06 -1.879521E+05  5.620280E+04 -6.142950E+05 -1.207380E+04  9.996718E+03
       194  20 -1.319847E+06 -1.374833E+05  7.587004E+04 -5.707179E+05 -1.747090E+04  1.438272E+04
       194  21 -1.210492E+06 -1.183230E+05  9.286541E+04 -5.619492E+05 -2.284179E+04  1.868863E+04
       194  22 -1.646205E+06 -2.794970E+05 -3.809865E+03 -6.815245E+05 -7.250323E+03  1.180264E+04
       194  23 -1.661122E+06 -2.642437E+05 -6.713055E+03 -6.639700E+05 -1.271284E+04  1.616545E+04
       194  24 -1.646343E+06 -2.803143E+05 -1.234083E+04 -6.812285E+05 -1.814860E+04  2.044833E+04
       194  25 -1.892864E+06 -3.710373E+05 -6.382665E+04 -7.487294E+05 -2.428964E+03  1.360777E+04
       194  26 -2.002281E+06 -3.909962E+05 -8.930468E+04 -7.571753E+05 -7.957631E+03  1.794711E+04
       194  27 -2.082008E+06 -4.422931E+05 -1.175616E+05 -8.004321E+05 -1.345898E+04  2.220668E+04
       195   1 -1.129743E+06 -8.870283E+04  1.089649E+05 -5.427170E+05  2.673267E+04 -2.107284E+04
       195   2 -1.051889E+06 -3.643657E+04  1.183318E+05 -4.960772E+05  4.244101E+04 -2.118789E+04
       195   3 -9.508584E+05 -2.772972E+04  1.138191E+05 -4.806242E+05  5.767593E+04 -2.002169E+04
       195   4 -1.647274E+06 -2.789194E+05 -1.619808E+04 -6.819932E+05  2.169257E+04 -2.296358E+04
       195   5 -1.659735E+06 -2.638364E+05 -2.915301E+04 -6.638556E+05  3.847741E+04 -2.267740E+04
       195   6 -1.649249E+06 -2.925393E+05 -5.685281E+04 -6.769105E+05  5.478637E+04 -2.111033E+04
       195   7 -2.164540E+06 -4.691193E+05 -1.413807E+05 -8.211643E+05  1.665705E+04 -2.485266E+04
       195   8 -2.267215E+06 -4.912090E+05 -1.766648E+05 -8.314834E+05  3.451804E+04 -2.416531E+04
       195   9 -2.347154E+06 -5.573092E+05 -2.275606E+05 -8.729929E+05  5.190035E+04 -2.219759E+04
       195  10 -1.129744E+06 -8.870349E+04  1.089627E+05 -5.427166E+05  8.524519E-10  2.616996E-10
       195  11 -1.051891E+06 -3.643753E+04  1.183275E+05 -4.960765E+05  7.699703E-11 -2.273443E-10
       195  12 -9.508620E+05 -2.773104E+04  1.138121E+05 -4.806233E+05 -6.619567E-10  3.335816E-11
       195  13 -1.647275E+06 -2.789201E+05 -1.619995E+04 -6.819928E+05 -4.831744E-10 -1.320946E-10
       195  14 -1.659737E+06 -2.638373E+05 -2.915676E+04 -6.638549E+05 -2.353893E-10 -4.817627E-12
       195  15 -1.649253E+06 -2.925406E+05 -5.685929E+04 -6.769096E+05 -1.034886E-09 -2.702869E-10
       195  16 -2.164540E+06 -4.691200E+05 -1.413824E+05 -8.211640E+05 -5.345151E-10 -1.397370E-10
       195  17 -2.267216E+06 -4.912099E+05 -1.766681E+05 -8.314827E+05  1.958946E-10 -2.668807E-10
       195  18 -2.347157E+06 -5.573104E+05 -2.275666E+05 -8.729920E+05  5.336604E-10 -4.906062E-10
       195  19 -1.129743E+06 -8.870283E+04  1.089649E+05 -5.427170E+05 -2.673267E+04  2.107284E+04
       195  20 -1.051889E+06 -3.643657E+04  1.183318E+05 -4.960772E+05 -4.244101E+04  2.118789E+04
       195  21 -9.508584E+05 -2.772972E+04  1.138191E+05 -4.806242E+05 -5.767593E+04  2.002169E+04
       195  22 -1.647274E+06 -2.789194E+05 -1.619808E+04 -6.819932E+05 -2.169257E+04  2.296358E+04
       195  23 -1.659735E+06 -2.638364E+05 -2.915301E+04 -6.638556E+05 -3.847741E+04  2.267740E+04
       195  24 -1.649249E+06 -2.925393E+05 -5.685281E+04 -6.769105E+05 -5.478637E+04  2.111033E+04
       195  25 -2.164540E+06 -4.691193E+05 -1.413807E+05 -8.211643E+05 -1.665705E+04  2.485266E+04
       195  26 -2.267215E+06 -4.912090E+05 -1.766648E+05 -8.314834E+05 -3.451804E+04  2.416531E+04
       195  27 -2.347154E+06 -5.573092E+05 -2.275606E+05 -8.729929E+05 -5.190035E+04  2.219759E+04
       196   1 -8.549317E+05 -2.790444E+03  1.170479E+05 -5.025149E+05  7.729776E+04 -1.936323E+04
       196   2 -7.987402E+05  9.125488E+04  8.751764E+04 -3.934675E+05  1.213231E+05 -1.938387E+03
       196   3 -8.007808E+05 -5.801779E+04 -3.393254E+04 -2.603174E+05  1.549864E+05  4.305807E+04
       196   4 -1.658766E+06 -2.701875E+05 -7.167440E+04 -6.900868E+05  6.614851E+04 -2.355053E+04
       196   5 -1.643190E+06 -2.578952E+05 -1.261410E+05 -6.601654E+05  1.336022E+05  2.664662E+03
       196   6 -1.690632E+06 -4.937871E+05 -2.912270E+05 -6.061235E+05  1.906801E+05  5.645608E+04
       196   7 -2.461967E+06 -5.375723E+05 -2.604422E+05 -8.774527E+05  5.501492E+04 -2.773340E+04
       196   8 -2.486928E+06 -6.069494E+05 -3.398555E+05 -9.265157E+05  1.458631E+05  7.259104E+03
       196   9 -2.579674E+06 -9.293271E+05 -5.485881E+05 -9.514219E+05  2.263171E+05  6.981821E+04
       196  10 -8.549383E+05 -2.792451E+03  1.170360E+05 -5.025137E+05 -8.166307E-10 -6.302025E-11
       196  11 -7.987560E+05  9.125092E+04  8.748994E+04 -3.934673E+05 -1.347619E-09  9.266598E-10
       196  12 -8.008071E+05 -5.802624E+04 -3.398124E+04 -2.603228E+05  9.142760E-10  4.673242E-10
       196  13 -1.658771E+06 -2.701893E+05 -7.168368E+04 -6.900856E+05 -3.391128E-10  1.306706E-10
       196  14 -1.643209E+06 -2.579000E+05 -1.261746E+05 -6.601657E+05 -9.907447E-10  5.962309E-10
       196  15 -1.690672E+06 -4.938003E+05 -2.913016E+05 -6.061322E+05 -2.909225E-10  3.371705E-10
       196  16 -2.461970E+06 -5.375739E+05 -2.604493E+05 -8.774515E+05  8.748608E-10  3.076557E-10
       196  17 -2.486951E+06 -6.069552E+05 -3.398957E+05 -9.265165E+05  3.724330E-11  7.581593E-10
       196  18 -2.579731E+06 -9.293462E+05 -5.486940E+05 -9.514347E+05 -1.050243E-09  2.180114E-10
       196  19 -8.549317E+05 -2.790444E+03  1.170479E+05 -5.025149E+05 -7.729776E+04  1.936323E+04
       196  20 -7.987402E+05  9.125488E+04  8.751764E+04 -3.934675E+05 -1.213231E+05  1.938387E+03
       196  21 -8.007808E+05 -5.801779E+04 -3.393254E+04 -2.603174E+05 -1.549864E+05 -4.305807E+04
       196  22 -1.658766E+06 -2.701875E+05 -7.167440E+04 -6.900868E+05 -6.614851E+04  2.355053E+04
       196  23 -1.643190E+06 -2.578952E+05 -1.261410E+05 -6.601654E+05 -1.336022E+05 -2.664662E+03
       196  24 -1.690632E+06 -4.937871E+05 -2.912270E+05 -6.061235E+05 -1.906801E+05 -5.645608E+04
       196  25 -2.461967E+06 -5.375723E+05 -2.604422E+05 -8.774527E+05 -5.501492E+04  2.773340E+04
       196  26 -2.486928E+06 -6.069494E+05 -3.398555E+05 -9.265157E+05 -1.458631E+05 -7.259104E+03
       196  27 -2.579674E+06 -9.293271E+05 -5.485881E+05 -9.514219E+05 -2.263171E+05 -6.981821E+04
       197   1 -1.605274E+05 -2.248431E+04  2.945395E+04  5.019002E+04  1.502589E+05  1.337076E+04
       197   2 -9.973108E+04 -2.246667E+05 -7.968498E+04 -1.800903E+03  1.083551E+05  4.145777E+04
       197   3  2.038025E+04 -2.130865E+05 -1.080146E+05 -9.017089E+04  6.647465E+04  4.316408E+04
       197   4  8.478208E+05  2.275916E+05  2.735637E+05 -5.727910E+04  1.881665E+05  1.338774E+04
       197   5  8.161936E+05 -7.648511E+02  1.246327E+05 -3.897879E+04  1.221101E+05  4.145898E+04
       197   6  8.479591E+05 -1.135886E+04  7.317959E+04 -5.705008E+04  5.608634E+04  4.315749E+04
       197   7  1.857126E+06  4.776376E+05  5.176120E+05 -1.649235E+05  2.261352E+05  1.339161E+04
       197   8  1.732903E+06  2.230854E+05  3.288992E+05 -7.621227E+04  1.358850E+05  4.145855E+04
       197   9  1.676181E+06  1.903272E+05  2.543333E+05 -2.388464E+04  4.568433E+04  4.314980E+04
       197  10 -1.605517E+05 -2.249056E+04  2.941118E+04  5.018840E+04 -2.094503E-10  1.478865E-10
       197  11 -9.974415E+04 -2.246717E+05 -7.971028E+04 -1.804521E+03  1.276663E-09 -7.773702E-10
       197  12  2.037501E+04 -2.130897E+05 -1.080264E+05 -9.017320E+04 -1.108888E-09  4.132276E-10
       197  13  8.477828E+05  2.275819E+05  2.734969E+05 -5.728113E+04  2.103260E-11  2.900233E-11
       197  14  8.161772E+05 -7.706938E+02  1.246014E+05 -3.898287E+04 -1.247463E-09 -1.360764E-09
       197  15  8.479552E+05 -1.136171E+04  7.317018E+04 -5.705203E+04  1.324848E-09  3.116250E-10
       197  16  1.857071E+06  4.776237E+05  5.175159E+05 -1.649260E+05 -5.081118E-10 -1.156239E-10
       197  17  1.732883E+06  2.230787E+05  3.288613E+05 -7.621680E+04  2.755916E-10 -1.734677E-10
       197  18  1.676178E+06  1.903247E+05  2.543259E+05 -2.388623E+04 -3.878718E-12 -2.499583E-10
       197  19 -1.605274E+05 -2.248431E+04  2.945395E+04  5.019002E+04 -1.502589E+05 -1.337076E+04
       197  20 -9.973108E+04 -2.246667E+05 -7.968498E+04 -1.800903E+03 -1.083551E+05 -4.145777E+04
       197  21  2.038025E+04 -2.130865E+05 -1.080146E+05 -9.017089E+04 -6.647465E+04 -4.316408E+04
       197  22  8.478208E+05  2.275916E+05  2.735637E+05 -5.727910E+04 -1.881665E+05 -1.338774E+04
       197  23  8.161936E+05 -7.648511E+02  1.246327E+05 -3.897879E+04 -1.221101E+05 -4.145898E+04
       197  24  8.479591E+05 -1.135886E+04  7.317959E+04 -5.705008E+04 -5.608634E+04 -4.315749E+04
       197  25  1.857126E+06  4.776376E+05  5.176120E+05 -1.649235E+05 -2.261352E+05 -1.339161E+04
       197  26  1.732903E+06  2.230854E+05  3.288992E+05 -7.621227E+04 -1.358850E+05 -4.145855E+04
       197  27  1.676181E+06  1.903272E+05  2.543333E+05 -2.388464E+04 -4.568433E+04 -4.314980E+04
       198   1  8.108559E+04 -1.715876E+05 -1.077530E+05 -5.314091E+04  4.839228E+04  3.788770E+04
       198   2  1.675464E+05 -1.625545E+05 -1.143092E+05 -3.791711E+04  3.367900E+04  3.430537E+04
       198   3  2.592042E+05 -1.411578E+05 -1.081529E+05 -5.957748E+04  1.896067E+04  2.956101E+04
       198   4  8.350742E+05  1.231733E+04  5.816351E+04 -5.722302E+04  4.569750E+04  3.788290E+04
       198   5  8.324119E+05 -4.995425E+02  3.145132E+04 -3.878086E+04  2.990661E+04  3.430185E+04
       198   6  8.351199E+05 -7.737975E+02  1.818781E+04 -5.722002E+04  1.411277E+04  2.955922E+04
       198   7  1.589594E+06  1.961842E+05  2.240453E+05 -6.131017E+04  4.299945E+04  3.787814E+04
       198   8  1.497691E+06  1.615259E+05  1.771850E+05 -3.964557E+04  2.613022E+04  3.429835E+04
       198   9  1.411346E+06  1.395881E+05  1.445084E+05 -5.486033E+04  9.260418E+03  2.955740E+04
       198  10  8.108269E+04 -1.715897E+05 -1.077601E+05 -5.314239E+04  4.052291E-10  2.084038E-10
       198  11  1.675448E+05 -1.625561E+05 -1.143135E+05 -3.791804E+04  9.906699E-10  1.155508E-10
       198  12  2.592036E+05 -1.411589E+05 -1.081552E+05 -5.957793E+04  1.033134E-09 -8.071254E-11
       198  13  8.350716E+05  1.231523E+04  5.815690E+04 -5.722441E+04 -4.881567E-10  2.118054E-12
       198  14  8.324107E+05 -5.010463E+02  3.144743E+04 -3.878169E+04 -1.900708E-10 -2.967142E-10
       198  15  8.351194E+05 -7.747896E+02  1.818579E+04 -5.722036E+04  1.099058E-09 -2.594165E-11
       198  16  1.589592E+06  1.961822E+05  2.240391E+05 -6.131148E+04 -5.065873E-10 -1.397749E-10
       198  17  1.497690E+06  1.615245E+05  1.771815E+05 -3.964629E+04  5.970784E-10 -9.793390E-10
       198  18  1.411345E+06  1.395871E+05  1.445066E+05 -5.486055E+04  6.072996E-10  7.962122E-11
       198  19  8.108559E+04 -1.715876E+05 -1.077530E+05 -5.314091E+04 -4.839228E+04 -3.788770E+04
       198  20  1.675464E+05 -1.625545E+05 -1.143092E+05 -3.791711E+04 -3.367900E+04 -3.430537E+04
       198  21  2.592042E+05 -1.411578E+05 -1.081529E+05 -5.957748E+04 -1.896067E+04 -2.956101E+04
       198  22  8.350742E+05  1.231733E+04  5.816351E+04 -5.722302E+04 -4.569750E+04 -3.788290E+04
       198  23  8.324119E+05 -4.995425E+02  3.145132E+04 -3.878086E+04 -2.990661E+04 -3.430185E+04
       198  24  8.351199E+05 -7.737975E+02  1.818781E+04 -5.722002E+04 -1.411277E+04 -2.955922E+04
       198  25  1.589594E+06  1.961842E+05  2.240453E+05 -6.131017E+04 -4.299945E+04 -3.787814E+04
       198  26  1.497691E+06  1.615259E+05  1.771850E+05 -3.964557E+04 -2.613022E+04 -3.429835E+04
       198  27  1.411346E+06  1.395881E+05  1.445084E+05 -5.486033E+04 -9.260418E+03 -2.955740E+04
       199   1  3.305869E+05 -1.221222E+05 -9.610230E+04 -5.734808E+04  1.577450E+04  2.652881E+04
       199   2  4.185704E+05 -1.012921E+05 -8.298493E+04 -3.901092E+04  1.188643E+04  2.157590E+04
       199   3  5.073010E+05 -7.971402E+04 -6.713956E+04 -5.732180E+04  7.995123E+03  1.658082E+04
       199   4  8.341091E+05  5.285810E+02  1.394521E+04 -5.716866E+04  1.128027E+04  2.652785E+04
       199   5  8.337487E+05 -1.309540E+02  7.925729E+03 -3.884551E+04  7.350496E+03  2.157602E+04
       199   6  8.341328E+05 -3.574355E+01  4.661141E+03 -5.716892E+04  3.418028E+03  1.658207E+04
       199   7  1.337869E+06  1.231625E+05  1.239775E+05 -5.698907E+04  6.782445E+03  2.652688E+04
       199   8  1.249088E+06  1.010187E+05  9.882601E+04 -3.867997E+04  2.811570E+03  2.157613E+04
       199   9  1.161064E+06  7.963540E+04  7.645541E+04 -5.701593E+04 -1.161446E+03  1.658332E+04
       199  10  3.305864E+05 -1.221230E+05 -9.610409E+04 -5.734842E+04  1.186181E-09 -1.398960E-10
       199  11  4.185701E+05 -1.012926E+05 -8.298607E+04 -3.901113E+04  3.000209E-10 -1.146345E-10
       199  12  5.073009E+05 -7.971434E+04 -6.714020E+04 -5.732191E+04 -1.348675E-09  8.006502E-10
       199  13  8.341088E+05  5.277909E+02  1.394365E+04 -5.716890E+04  1.641278E-09  1.835679E-10
       199  14  8.337485E+05 -1.314685E+02  7.924752E+03 -3.884564E+04 -1.651410E-10 -7.796232E-11
       199  15  8.341327E+05 -3.604207E+01  4.660603E+03 -5.716896E+04 -7.505248E-10  3.565378E-10
       199  16  1.337868E+06  1.231617E+05  1.239761E+05 -5.698922E+04 -3.087523E-10  3.602984E-10
       199  17  1.249088E+06  1.010182E+05  9.882512E+04 -3.868002E+04 -9.566809E-10  8.180470E-11
       199  18  1.161064E+06  7.963511E+04  7.645489E+04 -5.701592E+04 -4.700356E-10  3.768457E-10
       199  19  3.305869E+05 -1.221222E+05 -9.610230E+04 -5.734808E+04 -1.577450E+04 -2.652881E+04
       199  20  4.185704E+05 -1.012921E+05 -8.298493E+04 -3.901092E+04 -1.188643E+04 -2.157590E+04
       199  21  5.073010E+05 -7.971402E+04 -6.713956E+04 -5.732180E+04 -7.995123E+03 -1.658082E+04
       199  22  8.341091E+05  5.285810E+02  1.394521E+04 -5.716866E+04 -1.128027E+04 -2.652785E+04
       199  23  8.337487E+05 -1.309540E+02  7.925729E+03 -3.884551E+04 -7.350496E+03 -2.157602E+04
       199  24  8.341328E+05 -3.574355E+01  4.661141E+03 -5.716892E+04 -3.418028E+03 -1.658207E+04
       199  25  1.337869E+06  1.231625E+05  1.239775E+05 -5.698907E+04 -6.782445E+03 -2.652688E+04
       199  26  1.249088E+06  1.010187E+05  9.882601E+04 -3.867997E+04 -2.811570E+03 -2.157613E+04
       199  27  1.161064E+06  7.963540E+04  7.645541E+04 -5.701593E+04  1.161446E+03 -1.658332E+04
       200   1  5.791204E+05 -6.202133E+04 -5.193724E+04 -5.717360E+04  7.224959E+03  1.366631E+04
       200   2  6.670410E+05 -4.066261E+04 -3.424822E+04 -3.890147E+04  6.090154E+03  8.675089E+03
       200   3  7.551076E+05 -1.922639E+04 -1.580891E+04 -5.711881E+04  4.954127E+03  3.685739E+03
       200   4  8.340076E+05  2.742881E+01  3.618301E+03 -5.713383E+04  2.669000E+03  1.366803E+04
       200   5  8.339429E+05 -2.439124E+00  2.289744E+03 -3.888940E+04  1.535195E+03  8.677236E+03
       200   6  8.340166E+05  4.538633E+01  1.710730E+03 -5.713386E+04  4.003255E+02  3.688342E+03
       200   7  1.088956E+06  6.207189E+04  5.917001E+04 -5.709404E+04 -1.888803E+03  1.366975E+04
       200   8  1.000871E+06  4.065588E+04  3.882610E+04 -3.887733E+04 -3.020972E+03  8.679382E+03
       200   9  9.129315E+05  1.931675E+04  1.923006E+04 -5.714890E+04 -4.154048E+03  3.690944E+03
       200  10  5.791203E+05 -6.202155E+04 -5.193769E+04 -5.717368E+04  3.106389E-10  5.526190E-10
       200  11  6.670410E+05 -4.066270E+04 -3.424843E+04 -3.890151E+04 -4.907475E-10  1.524900E-10
       200  12  7.551076E+05 -1.922641E+04 -1.580898E+04 -5.711883E+04 -1.588091E-10  3.460867E-10
       200  13  8.340075E+05  2.722621E+01  3.617936E+03 -5.713386E+04 -8.144064E-10  6.939575E-10
       200  14  8.339429E+05 -2.520642E+00  2.289598E+03 -3.888941E+04  8.447132E-10 -6.031810E-10
       200  15  8.340166E+05  4.537167E+01  1.710704E+03 -5.713386E+04 -1.556808E-09 -3.979268E-10
       200  16  1.088956E+06  6.207168E+04  5.916965E+04 -5.709402E+04 -7.878640E-10 -4.267136E-10
       200  17  1.000871E+06  4.065580E+04  3.882594E+04 -3.887731E+04  5.007887E-10 -2.671276E-10
       200  18  9.129314E+05  1.931674E+04  1.923000E+04 -5.714889E+04  7.895085E-10 -8.083194E-10
       200  19  5.791204E+05 -6.202133E+04 -5.193724E+04 -5.717360E+04 -7.224959E+03 -1.366631E+04
       200  20  6.670410E+05 -4.066261E+04 -3.424822E+04 -3.890147E+04 -6.090154E+03 -8.675089E+03
       200  21  7.551076E+05 -1.922639E+04 -1.580891E+04 -5.711881E+04 -4.954127E+03 -3.685739E+03
       200  22  8.340076E+05  2.742881E+01  3.618301E+03 -5.713383E+04 -2.669000E+03 -1.366803E+04
       200  23  8.339429E+05 -2.439124E+00  2.289744E+03 -3.888940E+04 -1.535195E+03 -8.677236E+03
       200  24  8.340166E+05  4.538633E+01  1.710730E+03 -5.713386E+04 -4.003255E+02 -3.688342E+03
       200  25  1.088956E+06  6.207189E+04  5.917001E+04 -5.709404E+04  1.888803E+03 -1.366975E+04
       200  26  1.000871E+06  4.065588E+04  3.882610E+04 -3.887733E+04  3.020972E+03 -8.679382E+03
       200  27  9.129315E+05  1.931675E+04  1.923006E+04 -5.714890E+04  4.154048E+03 -3.690944E+03
       201   1  8.268819E+05 -1.640907E+03  3.119912E+02 -5.713330E+04  4.648590E+03  7.829750E+02
       201   2  9.147822E+05  1.969859E+04  1.952418E+04 -3.888995E+04  3.739931E+03 -4.203667E+03
       201   3  1.002784E+06  4.110311E+04  3.933282E+04 -5.711237E+04  2.831676E+03 -9.190296E+03
       201   4  8.340084E+05  4.574263E+01  1.625402E+03 -5.712879E+04  9.548109E+01  7.856476E+02
       201   5  8.339586E+05  1.149464E+01  1.832822E+03 -3.889574E+04 -8.133472E+02 -4.201223E+03
       201   6  8.340041E+05  4.309815E+01  2.637478E+03 -5.712877E+04 -1.721647E+03 -9.188052E+03
       201   7  8.411351E+05  1.732401E+03  2.938889E+03 -5.712427E+04 -4.457679E+03  7.883201E+02
       201   8  7.531411E+05 -1.967603E+04 -1.585885E+04 -3.890154E+04 -5.366041E+03 -4.198779E+03
       201   9  6.652511E+05 -4.101879E+04 -3.405949E+04 -5.714516E+04 -6.273749E+03 -9.185808E+03
       201  10  8.268819E+05 -1.640914E+03  3.119495E+02 -5.713330E+04 -5.341013E-10  5.758949E-10
       201  11  9.147822E+05  1.969857E+04  1.952412E+04 -3.888994E+04  8.527203E-10  5.198595E-10
       201  12  1.002784E+06  4.110302E+04  3.933265E+04 -5.711235E+04  5.990285E-10 -4.692496E-10
       201  13  8.340084E+05  4.574197E+01  1.625401E+03 -5.712879E+04 -2.757042E-10  9.141603E-10
       201  14  8.339586E+05  1.147550E+01  1.832787E+03 -3.889575E+04 -9.631984E-10  1.075944E-09
       201  15  8.340040E+05  4.300666E+01  2.637314E+03 -5.712878E+04 -1.294696E-09 -1.053494E-09
       201  16  8.411351E+05  1.732395E+03  2.938851E+03 -5.712427E+04 -1.329848E-10  9.283353E-11
       201  17  7.531411E+05 -1.967606E+04 -1.585894E+04 -3.890155E+04 -8.418358E-10  8.406489E-10
       201  18  6.652510E+05 -4.101889E+04 -3.405973E+04 -5.714520E+04 -1.468494E-10 -3.772611E-10
       201  19  8.268819E+05 -1.640907E+03  3.119912E+02 -5.713330E+04 -4.648590E+03 -7.829750E+02
       201  20  9.147822E+05  1.969859E+04  1.952418E+04 -3.888995E+04 -3.739931E+03  4.203667E+03
       201  21  1.002784E+06  4.110311E+04  3.933282E+04 -5.711237E+04 -2.831676E+03  9.190296E+03
       201  22  8.340084E+05  4.574263E+01  1.625402E+03 -5.712879E+04 -9.548109E+01 -7.856476E+02
       201  23  8.339586E+05  1.149464E+01  1.832822E+03 -3.889574E+04  8.133472E+02  4.201223E+03
       201  24  8.340041E+05  4.309815E+01  2.637478E+03 -5.712877E+04  1.721647E+03  9.188052E+03
       201  25  8.411351E+05  1.732401E+03  2.938889E+03 -5.712427E+04  4.457679E+03 -7.883201E+02
       201  26  7.531411E+05 -1.967603E+04 -1.585885E+04 -3.890154E+04  5.366041E+03  4.198779E+03
       201  27  6.652511E+05 -4.101879E+04 -3.405949E+04 -5.714516E+04  6.273749E+03  9.185808E+03
       202   1  1.074754E+06  5.866410E+04  5.623740E+04 -5.707180E+04  2.310507E+03 -1.209994E+04
       202   2  1.162728E+06  8.002817E+04  7.750476E+04 -3.879042E+04 -4.656009E+02 -1.708566E+04
       202   3  1.251217E+06  1.019281E+05  1.007121E+05 -5.707865E+04 -3.240039E+03 -2.203134E+04
       202   4  8.340874E+05 -8.984171E-01  3.319299E+03 -5.715209E+04 -2.261454E+03 -1.209803E+04
       202   5  8.338279E+05 -7.480293E+01  5.517736E+03 -3.886658E+04 -5.000005E+03 -1.708465E+04
       202   6  8.340689E+05  3.811277E+02  9.630874E+03 -5.715187E+04 -7.736501E+03 -2.203119E+04
       202   7  5.934747E+05 -5.866976E+04 -4.960226E+04 -5.723234E+04 -6.831667E+03 -1.209611E+04
       202   8  5.050290E+05 -8.018497E+04 -6.647577E+04 -3.894269E+04 -9.532040E+03 -1.708363E+04
       202   9  4.170839E+05 -1.011774E+05 -8.146076E+04 -5.722501E+04 -1.222998E+04 -2.203104E+04
       202  10  1.074754E+06  5.866394E+04  5.623711E+04 -5.707178E+04 -1.438701E-09 -5.120407E-10
       202  11  1.162728E+06  8.002785E+04  7.750421E+04 -3.879043E+04 -8.586795E-10 -7.943259E-10
       202  12  1.251217E+06  1.019276E+05  1.007112E+05 -5.707871E+04 -3.835661E-10 -7.221880E-11
       202  13  8.340874E+05 -1.057020E+00  3.319014E+03 -5.715211E+04 -1.959253E-10 -1.129536E-09
       202  14  8.338278E+05 -7.512319E+01  5.517140E+03 -3.886665E+04 -9.716351E-10 -9.190043E-10
       202  15  8.340688E+05  3.805902E+02  9.629849E+03 -5.715200E+04 -2.065454E-09  4.142143E-10
       202  16  5.934746E+05 -5.866993E+04 -4.960262E+04 -5.723241E+04  7.806042E-10 -1.582450E-10
       202  17  5.050288E+05 -8.018531E+04 -6.647649E+04 -3.894282E+04 -7.377782E-10 -4.321487E-10
       202  18  4.170836E+05 -1.011780E+05 -8.146195E+04 -5.722523E+04 -6.423644E-10  3.794924E-10
       202  19  1.074754E+06  5.866410E+04  5.623740E+04 -5.707180E+04 -2.310507E+03  1.209994E+04
       202  20  1.162728E+06  8.002817E+04  7.750476E+04 -3.879042E+04  4.656009E+02  1.708566E+04
       202  21  1.251217E+06  1.019281E+05  1.007121E+05 -5.707865E+04  3.240039E+03  2.203134E+04
       202  22  8.340874E+05 -8.984171E-01  3.319299E+03 -5.715209E+04  2.261454E+03  1.209803E+04
       202  23  8.338279E+05 -7.480293E+01  5.517736E+03 -3.886658E+04  5.000005E+03  1.708465E+04
       202  24  8.340689E+05  3.811277E+02  9.630874E+03 -5.715187E+04  7.736501E+03  2.203119E+04
       202  25  5.934747E+05 -5.866976E+04 -4.960226E+04 -5.723234E+04  6.831667E+03  1.209611E+04
       202  26  5.050290E+05 -8.018497E+04 -6.647577E+04 -3.894269E+04  9.532040E+03  1.708363E+04
       202  27  4.170839E+05 -1.011774E+05 -8.146076E+04 -5.722501E+04  1.222998E+04  2.203104E+04
       203   1  1.324187E+06  1.187143E+05  1.198746E+05 -5.563340E+04 -4.871067E+03 -2.504532E+04
       203   2  1.411090E+06  1.404839E+05  1.483234E+05 -3.946459E+04 -1.672710E+04 -2.979390E+04
       203   3  1.501865E+06  1.710557E+05  1.867057E+05 -6.006695E+04 -2.858171E+04 -3.347733E+04
       203   4  8.347654E+05 -5.159614E+02  1.254154E+04 -5.719672E+04 -9.691667E+03 -2.504584E+04
       203   5  8.328968E+05 -3.413555E+02  2.165191E+04 -3.881041E+04 -2.056563E+04 -2.979602E+04
       203   6  8.347276E+05  8.470904E+03  4.002173E+04 -5.719708E+04 -3.143650E+04 -3.348065E+04
       203   7  3.455673E+05 -1.197622E+05 -9.480595E+04 -5.875877E+04 -1.450852E+04 -2.504635E+04
       203   8  2.550159E+05 -1.411889E+05 -1.050399E+05 -3.815684E+04 -2.440063E+04 -2.979815E+04
       203   9  1.680056E+05 -1.541437E+05 -1.066894E+05 -5.433032E+04 -3.428826E+04 -3.348399E+04
       203  10  1.324187E+06  1.187136E+05  1.198733E+05 -5.563350E+04  9.669750E-10  4.803871E-11
       203  11  1.411089E+06  1.404829E+05  1.483213E+05 -3.946499E+04 -9.775324E-10 -5.724092E-11
       203  12  1.501864E+06  1.710543E+05  1.867021E+05 -6.006772E+04 -5.690136E-10 -7.226718E-10
       203  13  8.347651E+05 -5.166605E+02  1.254018E+04 -5.719691E+04 -1.557075E-09  2.426746E-10
       203  14  8.328961E+05 -3.424226E+02  2.164945E+04 -3.881090E+04  4.396965E-10 -2.895203E-10
       203  15  8.347262E+05  8.469435E+03  4.001777E+04 -5.719792E+04 -5.636654E-11 -3.923921E-10
       203  16  3.455669E+05 -1.197629E+05 -9.480753E+04 -5.875906E+04 -1.719959E-09  2.247510E-10
       203  17  2.550150E+05 -1.411900E+05 -1.050426E+05 -3.815743E+04 -6.393562E-10 -5.265713E-10
       203  18  1.680040E+05 -1.541452E+05 -1.066937E+05 -5.433124E+04  1.134877E-09  1.997870E-10
       203  19  1.324187E+06  1.187143E+05  1.198746E+05 -5.563340E+04  4.871067E+03  2.504532E+04
       203  20  1.411090E+06  1.404839E+05  1.483234E+05 -3.946459E+04  1.672710E+04  2.979390E+04
       203  21  1.501865E+06  1.710557E+05  1.867057E+05 -6.006695E+04  2.858171E+04  3.347733E+04
       203  22  8.347654E+05 -5.159614E+02  1.254154E+04 -5.719672E+04  9.691667E+03  2.504584E+04
       203  23  8.328968E+05 -3.413555E+02  2.165191E+04 -3.881041E+04  2.056563E+04  2.979602E+04
       203  24  8.347276E+05  8.470904E+03  4.002173E+04 -5.719708E+04  3.143650E+04  3.348065E+04
       203  25  3.455673E+05 -1.197622E+05 -9.480595E+04 -5.875877E+04  1.450852E+04  2.504635E+04
       203  26  2.550159E+05 -1.411889E+05 -1.050399E+05 -3.815684E+04  2.440063E+04  2.979815E+04
       203  27  1.680056E+05 -1.541437E+05 -1.066894E+05 -5.433032E+04  3.428826E+04  3.348399E+04
       204   1  1.584141E+06  1.725035E+05  2.123525E+05 -3.428143E+04 -2.867532E+04 -3.853864E+04
       204   2  1.650430E+06  2.018642E+05  2.704478E+05 -6.463511E+04 -9.621118E+04 -3.737146E+04
       204   3  1.764156E+06  3.847886E+05  4.108874E+05 -1.312142E+05 -1.637812E+05 -1.205563E+04
       204   4  8.435957E+05 -7.821765E+03  5.035051E+04 -5.704505E+04 -3.858523E+04 -3.854428E+04
       204   5  8.217134E+05 -5.502320E+02  8.573220E+04 -3.899234E+04 -8.400547E+04 -3.737143E+04
       204   6  8.434887E+05  1.565546E+05  1.881843E+05 -5.715909E+04 -1.294480E+05 -1.204599E+04
       204   7  1.035639E+05 -1.881816E+05 -1.116840E+05 -7.978125E+04 -4.848348E+04 -3.854919E+04
       204   8 -6.362560E+03 -2.030086E+05 -9.902544E+04 -1.338418E+04 -7.181578E+04 -3.737038E+04
       204   9 -7.639147E+04 -7.171991E+04 -3.457218E+04  1.678596E+04 -9.516530E+04 -1.202818E+04
       204  10  1.584140E+06  1.725017E+05  2.123482E+05 -3.428232E+04 -3.234180E-10 -6.218438E-10
       204  11  1.650419E+06  2.018602E+05  2.704278E+05 -6.463800E+04  2.085481E-10  9.568302E-11
       204  12  1.764127E+06  3.847812E+05  4.108368E+05 -1.312158E+05  1.094108E-09  5.087591E-10
       204  13  8.435937E+05 -7.823761E+03  5.034493E+04 -5.704624E+04 -2.205474E-09 -8.424530E-10
       204  14  8.217054E+05 -5.536237E+02  8.571633E+04 -3.899487E+04 -1.432529E-09  1.256240E-10
       204  15  8.434707E+05  1.565500E+05  1.881526E+05 -5.716035E+04  8.542666E-10 -3.260861E-10
       204  16  1.035609E+05 -1.881838E+05 -1.116912E+05 -7.978275E+04 -1.093506E-09  2.994841E-10
       204  17 -6.368474E+03 -2.030115E+05 -9.903776E+04 -1.338634E+04 -1.863490E-09 -3.280656E-10
       204  18 -7.640123E+04 -7.172250E+04 -3.458948E+04  1.678503E+04 -6.874568E-10  7.927710E-10
       204  19  1.584141E+06  1.725035E+05  2.123525E+05 -3.428143E+04  2.867532E+04  3.853864E+04
       204  20  1.650430E+06  2.018642E+05  2.704478E+05 -6.463511E+04  9.621118E+04  3.737146E+04
       204  21  1.764156E+06  3.847886E+05  4.108874E+05 -1.312142E+05  1.637812E+05  1.205563E+04
       204  22  8.435957E+05 -7.821765E+03  5.035051E+04 -5.704505E+04  3.858523E+04  3.854428E+04
       204  23  8.217134E+05 -5.502320E+02  8.573220E+04 -3.899234E+04  8.400547E+04  3.737143E+04
       204  24  8.434887E+05  1.565546E+05  1.881843E+05 -5.715909E+04  1.294480E+05  1.204599E+04
       204  25  1.035639E+05 -1.881816E+05 -1.116840E+05 -7.978125E+04  4.848348E+04  3.854919E+04
       204  26 -6.362560E+03 -2.030086E+05 -9.902544E+04 -1.338418E+04  7.181578E+04  3.737038E+04
       204  27 -7.639147E+04 -7.171991E+04 -3.457218E+04  1.678596E+04  9.516530E+04  1.202818E+04
       205   1  5.426060E+05  1.804171E+06  5.338904E+05 -5.233132E+05  2.050368E+04  1.485029E+05
       205   2  3.441832E+05  1.264234E+06  3.233674E+05 -4.331186E+05  6.009619E+04  5.367762E+04
       205   3  2.054583E+05  7.514977E+05  1.893289E+05 -4.745339E+05  4.975228E+04 -4.113939E+04
       205   4  7.105969E+04 -9.927794E+04  7.867085E+04 -4.783842E+05  2.073448E+04  5.248928E+04
       205   5  1.340135E+04 -1.060969E+05  3.936208E+04 -4.126586E+05  6.016136E+04  3.220274E+04
       205   6  2.614579E+03 -9.882005E+04  2.492596E+04 -4.785399E+05  4.960890E+04  1.184213E+04
       205   7 -4.007370E+05 -1.999389E+06 -3.767690E+05 -4.335903E+05  2.095186E+04 -4.323211E+04
       205   8 -3.174980E+05 -1.474649E+06 -2.447437E+05 -3.922428E+05  6.022522E+04  1.077431E+04
       205   9 -2.002706E+05 -9.484373E+05 -1.395002E+05 -4.825397E+05  4.946470E+04  6.475279E+04
       205  10  5.425996E+05  1.804148E+06  5.338483E+05 -5.233156E+05 -1.515841E-10  1.756057E-09
       205  11  3.441786E+05  1.264230E+06  3.233552E+05 -4.331212E+05 -4.173762E-10 -3.804022E-09
       205  12  2.054552E+05  7.514952E+05  1.893210E+05 -4.745322E+05  4.151303E-10 -2.477305E-09
       205  13  7.105849E+04 -9.928102E+04  7.866486E+04 -4.783851E+05  1.484921E-09  6.761959E-12
       205  14  1.339718E+04 -1.060990E+05  3.935332E+04 -4.126601E+05  1.137898E-09 -9.876594E-10
       205  15  2.611898E+03 -9.882086E+04  2.492107E+04 -4.785404E+05  2.584632E-10 -2.485089E-11
       205  16 -4.007379E+05 -1.999391E+06 -3.767733E+05 -4.335896E+05  6.389545E-10 -1.216946E-09
       205  17 -3.175019E+05 -1.474650E+06 -2.447507E+05 -3.922433E+05  3.286649E-09 -1.741844E-11
       205  18 -2.002744E+05 -9.484424E+05 -1.395127E+05 -4.825423E+05 -2.262846E-09  2.937427E-09
       205  19  5.426060E+05  1.804171E+06  5.338904E+05 -5.233132E+05 -2.050368E+04 -1.485029E+05
       205  20  3.441832E+05  1.264234E+06  3.233674E+05 -4.331186E+05 -6.009619E+04 -5.367762E+04
       205  21  2.054583E+05  7.514977E+05  1.893289E+05 -4.745339E+05 -4.975228E+04  4.113939E+04
       205  22  7.105969E+04 -9.927794E+04  7.867085E+04 -4.783842E+05 -2.073448E+04 -5.248928E+04
       205  23  1.340135E+04 -1.060969E+05  3.936208E+04 -4.126586E+05 -6.016136E+04 -3.220274E+04
       205  24  2.614579E+03 -9.882005E+04  2.492596E+04 -4.785399E+05 -4.960890E+04 -1.184213E+04
       205  25 -4.007370E+05 -1.999389E+06 -3.767690E+05 -4.335903E+05 -2.095186E+04  4.323211E+04
       205  26 -3.174980E+05 -1.474649E+06 -2.447437E+05 -3.922428E+05 -6.022522E+04 -1.077431E+04
       205  27 -2.002706E+05 -9.484373E+05 -1.395002E+05 -4.825397E+05 -4.946470E+04 -6.475279E+04
       206   1  1.232044E+05  3.935023E+05  1.178396E+05 -4.816774E+05  2.840937E+04 -3.713981E+04
       206   2 -4.689264E+03 -1.332079E+05  1.307117E+04 -4.118345E+05 -1.959098E+03 -4.638579E+04
       206   3 -1.275510E+05 -6.578408E+05 -8.461729E+04 -4.764563E+05 -3.221492E+04 -5.562335E+04
       206   4  4.959338E+03 -1.014497E+05  2.153876E+04 -4.791518E+05  2.827966E+04  8.178662E+03
       206   5  2.615227E+03 -1.023751E+05  1.875140E+04 -4.119201E+05 -2.087300E+03 -1.249763E+03
       206   6  5.348235E+03 -1.014601E+05  2.317252E+04 -4.791506E+05 -3.234223E+04 -1.067716E+04
       206   7 -1.132993E+05 -5.961621E+05 -7.476596E+04 -4.766280E+05  2.815026E+04  5.346182E+04
       206   8  9.920759E+03 -7.153694E+04  2.443926E+04 -4.120057E+05 -2.215510E+03  4.388845E+04
       206   9  1.382301E+05  4.552225E+05  1.309554E+05 -4.818471E+05 -3.246985E+04  3.430843E+04
       206  10  1.232032E+05  3.935006E+05  1.178355E+05 -4.816765E+05 -1.515649E-09  3.392577E-09
       206  11 -4.689846E+03 -1.332102E+05  1.306712E+04 -4.118346E+05  3.806269E-11 -3.822527E-09
       206  12 -1.275530E+05 -6.578444E+05 -8.462506E+04 -4.764577E+05 -2.032472E-10 -2.053050E-09
       206  13  4.958461E+03 -1.014499E+05  2.153713E+04 -4.791520E+05 -1.169669E-09  1.084858E-10
       206  14  2.615222E+03 -1.023751E+05  1.875139E+04 -4.119201E+05 -2.162928E-09 -1.174521E-09
       206  15  5.347081E+03 -1.014605E+05  2.317034E+04 -4.791509E+05 -1.049140E-09 -4.894993E-11
       206  16 -1.133009E+05 -5.961654E+05 -7.477283E+04 -4.766292E+05 -1.499384E-09 -2.770202E-09
       206  17  9.920237E+03 -7.153901E+04  2.443563E+04 -4.120056E+05 -5.130094E-10 -1.365752E-09
       206  18  1.382287E+05  4.552210E+05  1.309512E+05 -4.818462E+05 -3.761473E-10  2.583601E-09
       206  19  1.232044E+05  3.935023E+05  1.178396E+05 -4.816774E+05 -2.840937E+04  3.713981E+04
       206  20 -4.689264E+03 -1.332079E+05  1.307117E+04 -4.118345E+05  1.959098E+03  4.638579E+04
       206  21 -1.275510E+05 -6.578408E+05 -8.461729E+04 -4.764563E+05  3.221492E+04  5.562335E+04
       206  22  4.959338E+03 -1.014497E+05  2.153876E+04 -4.791518E+05 -2.827966E+04 -8.178662E+03
       206  23  2.615227E+03 -1.023751E+05  1.875140E+04 -4.119201E+05  2.087300E+03  1.249763E+03
       206  24  5.348235E+03 -1.014601E+05  2.317252E+04 -4.791506E+05  3.234223E+04  1.067716E+04
       206  25 -1.132993E+05 -5.961621E+05 -7.476596E+04 -4.766280E+05 -2.815026E+04 -5.346182E+04
       206  26  9.920759E+03 -7.153694E+04  2.443926E+04 -4.120057E+05  2.215510E+03 -4.388845E+04
       206  27  1.382301E+05  4.552225E+05  1.309554E+05 -4.818471E+05  3.246985E+04 -3.430843E+04
       207   1 -2.149114E+05 -1.009704E+06 -1.484865E+05 -4.833117E+05 -5.350403E+04 -6.747016E+04
       207   2 -3.305726E+05 -1.536736E+06 -2.517322E+05 -3.896012E+05 -6.346692E+04 -1.399256E+04
       207   3 -4.058777E+05 -2.060601E+06 -3.798332E+05 -4.274365E+05 -2.189256E+04  3.951349E+04
       207   4  2.629825E+03 -9.837774E+04  2.746362E+04 -4.785194E+05 -5.364617E+04 -1.463434E+04
       207   5  1.510889E+04 -1.067027E+05  4.462569E+04 -4.126785E+05 -6.339690E+04 -3.772698E+04
       207   6  8.120390E+04 -9.885564E+04  9.013401E+04 -4.783428E+05 -2.166931E+04 -6.074573E+04
       207   7  2.201232E+05  8.137536E+05  2.033857E+05 -4.737190E+05 -5.378735E+04  3.827737E+04
       207   8  3.606626E+05  1.325274E+06  3.408746E+05 -4.358082E+05 -6.332522E+04 -6.151516E+04
       207   9  5.680206E+05  1.866450E+06  5.598680E+05 -5.294079E+05 -2.143002E+04 -1.613210E+05
       207  10 -2.149157E+05 -1.009709E+06 -1.485005E+05 -4.833147E+05  3.997956E-10  2.538848E-09
       207  11 -3.305770E+05 -1.536737E+06 -2.517401E+05 -3.896019E+05  9.078888E-10 -2.436179E-09
       207  12 -4.058787E+05 -2.060603E+06 -3.798371E+05 -4.274358E+05  3.967802E-10 -6.225915E-10
       207  13  2.626677E+03 -9.837874E+04  2.745781E+04 -4.785200E+05  1.219951E-10  7.751333E-11
       207  14  1.510419E+04 -1.067053E+05  4.461545E+04 -4.126804E+05 -2.193763E-09 -1.019041E-09
       207  15  8.120240E+04 -9.885973E+04  9.012619E+04 -4.783439E+05  2.329791E-10 -5.932015E-11
       207  16  2.201197E+05  8.137512E+05  2.033775E+05 -4.737174E+05 -1.181579E-09 -1.594737E-09
       207  17  3.606572E+05  1.325269E+06  3.408600E+05 -4.358114E+05  1.200135E-09 -1.964004E-09
       207  18  5.680131E+05  1.866422E+06  5.598184E+05 -5.294107E+05  6.431070E-10  7.168763E-10
       207  19 -2.149114E+05 -1.009704E+06 -1.484865E+05 -4.833117E+05  5.350403E+04  6.747016E+04
       207  20 -3.305726E+05 -1.536736E+06 -2.517322E+05 -3.896012E+05  6.346692E+04  1.399256E+04
       207  21 -4.058777E+05 -2.060601E+06 -3.798332E+05 -4.274365E+05  2.189256E+04 -3.951349E+04
       207  22  2.629825E+03 -9.837774E+04  2.746362E+04 -4.785194E+05  5.364617E+04  1.463434E+04
       207  23  1.510889E+04 -1.067027E+05  4.462569E+04 -4.126785E+05  6.339690E+04  3.772698E+04
       207  24  8.120390E+04 -9.885564E+04  9.013401E+04 -4.783428E+05  2.166931E+04  6.074573E+04
       207  25  2.201232E+05  8.137536E+05  2.033857E+05 -4.737190E+05  5.378735E+04 -3.827737E+04
       207  26  3.606626E+05  1.325274E+06  3.408746E+05 -4.358082E+05  6.332522E+04  6.151516E+04
       207  27  5.680206E+05  1.866450E+06  5.598680E+05 -5.294079E+05  2.143002E+04  1.613210E+05
       208   1 -2.258341E+06 -8.898939E+05 -4.935908E+05 -8.645200E+05 -1.978688E+05 -5.308945E+04
       208   2 -2.148535E+06 -6.774996E+05 -3.241458E+05 -8.198593E+05 -1.256141E+05  2.209953E+04
       208   3 -2.067180E+06 -5.923898E+05 -2.488309E+05 -7.763778E+05 -4.038477E+04  6.290896E+04
       208   4 -1.069600E+06 -3.643017E+05 -1.686858E+05 -4.588364E+05 -1.156936E+05 -2.220396E+04
       208   5 -1.050771E+06 -2.396488E+05 -7.682132E+04 -4.829346E+05 -9.112427E+04  3.504823E+04
       208   6 -1.050845E+06 -2.327053E+05 -4.112213E+04 -5.082405E+05 -5.361039E+04  5.792950E+04
       208   7  1.205256E+05  1.615345E+05  1.561129E+05 -5.239843E+04 -3.334746E+04  8.772157E+03
       208   8  4.821695E+04  1.983527E+05  1.704299E+05 -1.454415E+05 -5.656846E+04  4.802635E+04
       208   9 -3.343800E+04  1.270529E+05  1.665378E+05 -2.397013E+05 -6.685952E+04  5.294192E+04
       208  10 -2.258384E+06 -8.899075E+05 -4.936700E+05 -8.645285E+05 -1.176726E-09  7.758635E-12
       208  11 -2.148552E+06 -6.775044E+05 -3.241765E+05 -8.198571E+05 -6.787167E-10  9.760436E-10
       208  12 -2.067182E+06 -5.923945E+05 -2.488414E+05 -7.763757E+05  2.714627E-10  1.358075E-09
       208  13 -1.069615E+06 -3.643058E+05 -1.687119E+05 -4.588385E+05  4.672606E-10  2.365658E-10
       208  14 -1.050781E+06 -2.396523E+05 -7.683924E+04 -4.829320E+05  1.256949E-09 -5.651889E-10
       208  15 -1.050849E+06 -2.327096E+05 -4.113383E+04 -5.082380E+05 -1.391747E-09  4.656257E-10
       208  16  1.205243E+05  1.615341E+05  1.561107E+05 -5.239819E+04 -1.168483E-10  4.834628E-10
       208  17  4.821290E+04  1.983493E+05  1.704195E+05 -1.454393E+05 -2.484953E-10 -2.135153E-10
       208  18 -3.344355E+04  1.270487E+05  1.665241E+05 -2.396985E+05 -3.127277E-10 -9.233222E-10
       208  19 -2.258341E+06 -8.898939E+05 -4.935908E+05 -8.645200E+05  1.978688E+05  5.308945E+04
       208  20 -2.148535E+06 -6.774996E+05 -3.241458E+05 -8.198593E+05  1.256141E+05 -2.209953E+04
       208  21 -2.067180E+06 -5.923898E+05 -2.488309E+05 -7.763778E+05  4.038477E+04 -6.290896E+04
       208  22 -1.069600E+06 -3.643017E+05 -1.686858E+05 -4.588364E+05  1.156936E+05  2.220396E+04
       208  23 -1.050771E+06 -2.396488E+05 -7.682132E+04 -4.829346E+05  9.112427E+04 -3.504823E+04
       208  24 -1.050845E+06 -2.327053E+05 -4.112213E+04 -5.082405E+05  5.361039E+04 -5.792950E+04
       208  25  1.205256E+05  1.615345E+05  1.561129E+05 -5.239843E+04  3.334746E+04 -8.772157E+03
       208  26  4.821695E+04  1.983527E+05  1.704299E+05 -1.454415E+05  5.656846E+04 -4.802635E+04
       208  27 -3.343800E+04  1.270529E+05  1.665378E+05 -2.397013E+05  6.685952E+04 -5.294192E+04
       209   1 -1.968388E+06 -5.779614E+05 -2.219064E+05 -7.617533E+05 -4.047878E+04  5.666071E+04
       209   2 -1.859984E+06 -5.159658E+05 -1.798574E+05 -7.153741E+05 -2.681542E+04  5.530651E+04
       209   3 -1.731013E+06 -4.825477E+05 -1.476479E+05 -6.953599E+05 -1.229917E+04  5.167012E+04
       209   4 -1.045478E+06 -2.379930E+05 -3.146800E+04 -5.043298E+05 -4.681145E+04  5.427283E+04
       209   5 -1.055658E+06 -2.213621E+05 -1.663335E+04 -4.921271E+05 -3.630586E+04  5.173701E+04
       209   6 -1.044655E+06 -2.326754E+05 -9.121296E+03 -5.062923E+05 -2.495037E+04  4.691970E+04
       209   7 -1.216925E+05  1.020498E+05  1.589259E+05 -2.465512E+05 -5.315426E+04  5.188111E+04
       209   8 -2.506686E+05  7.329628E+04  1.465577E+05 -2.686129E+05 -4.580950E+04  4.816255E+04
       209   9 -3.578166E+05  1.723435E+04  1.293811E+05 -3.170329E+05 -3.761653E+04  4.216372E+04
       209  10 -1.968390E+06 -5.779652E+05 -2.219155E+05 -7.617514E+05 -4.057727E-09 -4.844970E-10
       209  11 -1.859986E+06 -5.159693E+05 -1.798645E+05 -7.153729E+05  1.543139E-08  6.359681E-09
       209  12 -1.731014E+06 -4.825506E+05 -1.476532E+05 -6.953594E+05  2.472746E-08  9.942684E-09
       209  13 -1.045481E+06 -2.379967E+05 -3.147765E+04 -5.043277E+05  2.546043E-09  1.222362E-09
       209  14 -1.055661E+06 -2.213653E+05 -1.664085E+04 -4.921256E+05  6.863281E-09  2.837681E-09
       209  15 -1.044657E+06 -2.326779E+05 -9.126600E+03 -5.062913E+05  7.972271E-10  1.977094E-09
       209  16 -1.216962E+05  1.020462E+05  1.589156E+05 -2.465490E+05  1.033916E-08  2.891789E-09
       209  17 -2.506715E+05  7.329323E+04  1.465494E+05 -2.686111E+05 -3.170324E-09 -6.580844E-10
       209  18 -3.578186E+05  1.723207E+04  1.293751E+05 -3.170316E+05 -2.284240E-08 -5.980455E-09
       209  19 -1.968388E+06 -5.779614E+05 -2.219064E+05 -7.617533E+05  4.047878E+04 -5.666071E+04
       209  20 -1.859984E+06 -5.159658E+05 -1.798574E+05 -7.153741E+05  2.681542E+04 -5.530651E+04
       209  21 -1.731013E+06 -4.825477E+05 -1.476479E+05 -6.953599E+05  1.229917E+04 -5.167012E+04
       209  22 -1.045478E+06 -2.379930E+05 -3.146800E+04 -5.043298E+05  4.681145E+04 -5.427283E+04
       209  23 -1.055658E+06 -2.213621E+05 -1.663335E+04 -4.921271E+05  3.630586E+04 -5.173701E+04
       209  24 -1.044655E+06 -2.326754E+05 -9.121296E+03 -5.062923E+05  2.495037E+04 -4.691970E+04
       209  25 -1.216925E+05  1.020498E+05  1.589259E+05 -2.465512E+05  5.315426E+04 -5.188111E+04
       209  26 -2.506686E+05  7.329628E+04  1.465577E+05 -2.686129E+05  4.580950E+04 -4.816255E+04
       209  27 -3.578166E+05  1.723435E+04  1.293811E+05 -3.170329E+05  3.761653E+04 -4.216372E+04
       210   1 -1.648154E+06 -4.531886E+05 -1.282090E+05 -6.730780E+05 -9.468120E+03  4.669193E+04
       210   2 -1.539965E+06 -3.972693E+05 -1.011257E+05 -6.262112E+05 -4.029934E+03  3.861748E+04
       210   3 -1.408168E+06 -3.654979E+05 -7.566029E+04 -6.067563E+05  1.464521E+03  3.038158E+04
       210   4 -1.044244E+06 -2.329035E+05 -6.872911E+03 -5.061110E+05 -2.168341E+04  4.210752E+04
       210   5 -1.056025E+06 -2.207478E+05 -3.788742E+03 -4.924320E+05 -1.646818E+04  3.395261E+04
       210   6 -1.044172E+06 -2.326968E+05 -2.145890E+03 -5.061698E+05 -1.119717E+04  2.563620E+04
       210   7 -4.399514E+05 -1.258524E+04  1.144474E+05 -3.389922E+05 -3.391160E+04  3.751830E+04
       210   8 -5.718407E+05 -4.420542E+04  9.353805E+04 -3.585555E+05 -2.891692E+04  2.928381E+04
       210   9 -6.800390E+05 -9.988421E+04  7.136268E+04 -4.055286E+05 -2.386686E+04  2.088782E+04
       210  10 -1.648154E+06 -4.531910E+05 -1.282132E+05 -6.730776E+05 -2.082351E-08 -6.776708E-09
       210  11 -1.539966E+06 -3.972709E+05 -1.011286E+05 -6.262111E+05 -8.989911E-09 -3.103345E-09
       210  12 -1.408168E+06 -3.654989E+05 -7.566203E+04 -6.067563E+05  3.538396E-09  1.369648E-09
       210  13 -1.044245E+06 -2.329056E+05 -6.877123E+03 -5.061103E+05 -9.631398E-10  1.012704E-09
       210  14 -1.056026E+06 -2.207491E+05 -3.791416E+03 -4.924315E+05 -1.147751E-09 -2.003024E-10
       210  15 -1.044172E+06 -2.326975E+05 -2.147360E+03 -5.061696E+05  4.334043E-10 -4.708133E-10
       210  16 -4.399530E+05 -1.258705E+04  1.144426E+05 -3.389911E+05  1.641072E-08  8.500344E-09
       210  17 -5.718418E+05 -4.420657E+04  9.353487E+04 -3.585549E+05  8.005765E-09  3.350077E-09
       210  18 -6.800397E+05 -9.988484E+04  7.136079E+04 -4.055282E+05 -2.664413E-09 -1.808886E-09
       210  19 -1.648154E+06 -4.531886E+05 -1.282090E+05 -6.730780E+05  9.468120E+03 -4.669193E+04
       210  20 -1.539965E+06 -3.972693E+05 -1.011257E+05 -6.262112E+05  4.029934E+03 -3.861748E+04
       210  21 -1.408168E+06 -3.654979E+05 -7.566029E+04 -6.067563E+05 -1.464521E+03 -3.038158E+04
       210  22 -1.044244E+06 -2.329035E+05 -6.872911E+03 -5.061110E+05  2.168341E+04 -4.210752E+04
       210  23 -1.056025E+06 -2.207478E+05 -3.788742E+03 -4.924320E+05  1.646818E+04 -3.395261E+04
       210  24 -1.044172E+06 -2.326968E+05 -2.145890E+03 -5.061698E+05  1.119717E+04 -2.563620E+04
       210  25 -4.399514E+05 -1.258524E+04  1.144474E+05 -3.389922E+05  3.391160E+04 -3.751830E+04
       210  26 -5.718407E+05 -4.420542E+04  9.353805E+04 -3.585555E+05  2.891692E+04 -2.928381E+04
       210  27 -6.800390E+05 -9.988421E+04  7.136268E+04 -4.055286E+05  2.386686E+04 -2.088782E+04
       211   1 -1.325871E+06 -3.354054E+05 -5.794250E+04 -5.840864E+05  3.747564E+03  2.519079E+04
       211   2 -1.217510E+06 -2.795940E+05 -3.351787E+04 -5.370652E+05  7.710633E+03  1.630093E+04
       211   3 -1.085247E+06 -2.477575E+05 -9.507088E+03 -5.175289E+05  1.167713E+04  7.397617E+03
       211   4 -1.044109E+06 -2.327048E+05 -1.664201E+03 -5.061671E+05 -8.894987E+03  2.045388E+04
       211   5 -1.056046E+06 -2.207082E+05 -1.074016E+03 -4.924230E+05 -4.951332E+03  1.155783E+04
       211   6 -1.044093E+06 -2.326837E+05 -8.826209E+02 -5.061694E+05 -1.004353E+03  2.648286E+03
       211   7 -7.622668E+05 -1.299982E+05  5.461035E+04 -4.282155E+05 -2.154361E+04  1.571471E+04
       211   8 -8.945556E+05 -1.618200E+05  3.136925E+04 -4.477700E+05 -1.761684E+04  6.813412E+03
       211   9 -1.002938E+06 -2.176095E+05  7.742536E+03 -4.948090E+05 -1.368685E+04 -2.101422E+03
       211  10 -1.325872E+06 -3.354061E+05 -5.794372E+04 -5.840865E+05 -5.108804E-10  1.053533E-10
       211  11 -1.217510E+06 -2.795943E+05 -3.351848E+04 -5.370653E+05 -1.272076E-09  1.690211E-10
       211  12 -1.085247E+06 -2.477576E+05 -9.507447E+03 -5.175290E+05 -1.732991E-10  1.127163E-10
       211  13 -1.044109E+06 -2.327053E+05 -1.665135E+03 -5.061669E+05  5.399691E-10 -2.162183E-10
       211  14 -1.056046E+06 -2.207083E+05 -1.074313E+03 -4.924230E+05  2.252083E-10  2.413499E-10
       211  15 -1.044093E+06 -2.326837E+05 -8.826359E+02 -5.061694E+05  7.182508E-10  6.549227E-11
       211  16 -7.622674E+05 -1.299986E+05  5.460901E+04 -4.282152E+05  8.457967E-10 -2.679177E-10
       211  17 -8.945560E+05 -1.618201E+05  3.136858E+04 -4.477699E+05  3.051140E-10 -2.580025E-10
       211  18 -1.002938E+06 -2.176095E+05  7.742175E+03 -4.948091E+05 -1.118842E-10  5.548514E-10
       211  19 -1.325871E+06 -3.354054E+05 -5.794250E+04 -5.840864E+05 -3.747564E+03 -2.519079E+04
       211  20 -1.217510E+06 -2.795940E+05 -3.351787E+04 -5.370652E+05 -7.710633E+03 -1.630093E+04
       211  21 -1.085247E+06 -2.477575E+05 -9.507088E+03 -5.175289E+05 -1.167713E+04 -7.397617E+03
       211  22 -1.044109E+06 -2.327048E+05 -1.664201E+03 -5.061671E+05  8.894987E+03 -2.045388E+04
       211  23 -1.056046E+06 -2.207082E+05 -1.074016E+03 -4.924230E+05  4.951332E+03 -1.155783E+04
       211  24 -1.044093E+06 -2.326837E+05 -8.826209E+02 -5.061694E+05  1.004353E+03 -2.648286E+03
       211  25 -7.622668E+05 -1.299982E+05  5.461035E+04 -4.282155E+05  2.154361E+04 -1.571471E+04
       211  26 -8.945556E+05 -1.618200E+05  3.136925E+04 -4.477700E+05  1.761684E+04 -6.813412E+03
       211  27 -1.002938E+06 -2.176095E+05  7.742536E+03 -4.948090E+05  1.368685E+04  2.101422E+03
       212   1 -1.002905E+06 -2.176077E+05  7.723172E+03 -4.948113E+05  1.381458E+04  2.147081E+03
       212   2 -8.945145E+05 -1.618181E+05  3.123647E+04 -4.477779E+05  1.781346E+04 -6.741841E+03
       212   3 -7.622295E+05 -1.299991E+05  5.431189E+04 -4.282319E+05  2.180891E+04 -1.561746E+04
       212   4 -1.044096E+06 -2.326839E+05 -9.074912E+02 -5.061702E+05  1.132226E+03 -2.602589E+03
       212   5 -1.056042E+06 -2.207031E+05 -1.211825E+03 -4.924238E+05  5.147907E+03 -1.148630E+04
       212   6 -1.044112E+06 -2.326980E+05 -1.967424E+03 -5.061712E+05  9.160011E+03 -2.035671E+04
       212   7 -1.085285E+06 -2.477599E+05 -9.537552E+03 -5.175283E+05 -1.154921E+04 -7.351917E+03
       212   8 -1.217542E+06 -2.795856E+05 -3.366051E+04 -5.370587E+05 -7.514049E+03 -1.622942E+04
       212   9 -1.325910E+06 -3.353891E+05 -5.824921E+04 -5.840771E+05 -3.482609E+03 -2.509361E+04
       212  10 -1.002905E+06 -2.176077E+05  7.722804E+03 -4.948113E+05  1.212143E-09  7.438967E-10
       212  11 -8.945148E+05 -1.618182E+05  3.123579E+04 -4.477778E+05 -7.114202E-11 -3.312471E-10
       212  12 -7.622301E+05 -1.299995E+05  5.431054E+04 -4.282317E+05  1.940407E-10 -7.934016E-10
       212  13 -1.044096E+06 -2.326839E+05 -9.075064E+02 -5.061702E+05  5.542205E-10  3.160882E-10
       212  14 -1.056042E+06 -2.207033E+05 -1.212122E+03 -4.924238E+05  1.214994E-09  3.676323E-10
       212  15 -1.044113E+06 -2.326985E+05 -1.968360E+03 -5.061711E+05  6.370331E-10  6.037895E-11
       212  16 -1.085285E+06 -2.477600E+05 -9.537905E+03 -5.175283E+05 -2.792763E-10  8.661954E-10
       212  17 -1.217542E+06 -2.795859E+05 -3.366111E+04 -5.370588E+05  1.002284E-09 -1.645471E-10
       212  18 -1.325911E+06 -3.353898E+05 -5.825042E+04 -5.840771E+05  6.843787E-10 -7.440860E-10
       212  19 -1.002905E+06 -2.176077E+05  7.723172E+03 -4.948113E+05 -1.381458E+04 -2.147081E+03
       212  20 -8.945145E+05 -1.618181E+05  3.123647E+04 -4.477779E+05 -1.781346E+04  6.741841E+03
       212  21 -7.622295E+05 -1.299991E+05  5.431189E+04 -4.282319E+05 -2.180891E+04  1.561746E+04
       212  22 -1.044096E+06 -2.326839E+05 -9.074912E+02 -5.061702E+05 -1.132226E+03  2.602589E+03
       212  23 -1.056042E+06 -2.207031E+05 -1.211825E+03 -4.924238E+05 -5.147907E+03  1.148630E+04
       212  24 -1.044112E+06 -2.326980E+05 -1.967424E+03 -5.061712E+05 -9.160011E+03  2.035671E+04
       212  25 -1.085285E+06 -2.477599E+05 -9.537552E+03 -5.175283E+05  1.154921E+04  7.351917E+03
       212  26 -1.217542E+06 -2.795856E+05 -3.366051E+04 -5.370587E+05  7.514049E+03  1.622942E+04
       212  27 -1.325910E+06 -3.353891E+05 -5.824921E+04 -5.840771E+05  3.482609E+03  2.509361E+04
       213   1 -6.800033E+05 -9.988795E+04  7.095060E+04 -4.055547E+05  2.419210E+04 -2.076823E+04
       213   2 -5.717581E+05 -4.421151E+04  9.276475E+04 -3.585895E+05  2.963066E+04 -2.901877E+04
       213   3 -4.398927E+05 -1.263218E+04  1.130139E+05 -3.390377E+05  3.501373E+04 -3.710757E+04
       213   4 -1.044186E+06 -2.326878E+05 -2.563418E+03 -5.061775E+05  1.152219E+04 -2.551665E+04
       213   5 -1.056002E+06 -2.207284E+05 -4.566847E+03 -4.924333E+05  1.718147E+04 -3.368772E+04
       213   6 -1.044259E+06 -2.329141E+05 -8.311962E+03 -5.061110E+05  2.278482E+04 -4.169711E+04
       213   7 -1.408234E+06 -3.654774E+05 -7.608414E+04 -6.067464E+05 -1.139840E+03 -3.026212E+04
       213   8 -1.540006E+06 -3.972260E+05 -1.019098E+05 -6.261810E+05  4.742677E+03 -3.835280E+04
       213   9 -1.648249E+06 -4.531649E+05 -1.296550E+05 -6.730339E+05  1.056869E+04 -4.628187E+04
       213  10 -6.800041E+05 -9.988857E+04  7.094869E+04 -4.055543E+05 -1.131818E-09 -5.945886E-10
       213  11 -5.717593E+05 -4.421265E+04  9.276152E+04 -3.585888E+05  6.527302E-11  4.250775E-10
       213  12 -4.398943E+05 -1.263398E+04  1.130090E+05 -3.390366E+05 -2.885016E-11 -2.654511E-12
       213  13 -1.044186E+06 -2.326885E+05 -2.564890E+03 -5.061773E+05  1.047285E-10 -3.199294E-10
       213  14 -1.056003E+06 -2.207297E+05 -4.569533E+03 -4.924328E+05  8.456697E-10  7.480246E-10
       213  15 -1.044260E+06 -2.329162E+05 -8.316202E+03 -5.061102E+05 -6.222068E-10 -2.776028E-10
       213  16 -1.408235E+06 -3.654784E+05 -7.608586E+04 -6.067464E+05  1.215155E-09  1.495360E-10
       213  17 -1.540007E+06 -3.972276E+05 -1.019126E+05 -6.261809E+05  9.977347E-10  5.490846E-11
       213  18 -1.648249E+06 -4.531672E+05 -1.296593E+05 -6.730335E+05  4.403565E-10 -4.086735E-10
       213  19 -6.800033E+05 -9.988795E+04  7.095060E+04 -4.055547E+05 -2.419210E+04  2.076823E+04
       213  20 -5.717581E+05 -4.421151E+04  9.276475E+04 -3.585895E+05 -2.963066E+04  2.901877E+04
       213  21 -4.398927E+05 -1.263218E+04  1.130139E+05 -3.390377E+05 -3.501373E+04  3.710757E+04
       213  22 -1.044186E+06 -2.326878E+05 -2.563418E+03 -5.061775E+05 -1.152219E+04  2.551665E+04
       213  23 -1.056002E+06 -2.207284E+05 -4.566847E+03 -4.924333E+05 -1.718147E+04  3.368772E+04
       213  24 -1.044259E+06 -2.329141E+05 -8.311962E+03 -5.061110E+05 -2.278482E+04  4.169711E+04
       213  25 -1.408234E+06 -3.654774E+05 -7.608414E+04 -6.067464E+05  1.139840E+03  3.026212E+04
       213  26 -1.540006E+06 -3.972260E+05 -1.019098E+05 -6.261810E+05 -4.742677E+03  3.835280E+04
       213  27 -1.648249E+06 -4.531649E+05 -1.296550E+05 -6.730339E+05 -1.056869E+04  4.628187E+04
       214   1 -3.577338E+05  1.712019E+04  1.274675E+05 -3.172579E+05  3.898811E+04 -4.165191E+04
       214   2 -2.505835E+05  7.330571E+04  1.430632E+05 -2.684654E+05  4.894407E+04 -4.698929E+04
       214   3 -1.221819E+05  1.012681E+05  1.522943E+05 -2.458881E+05  5.805168E+04 -5.004592E+04
       214   4 -1.044754E+06 -2.326459E+05 -1.104051E+04 -5.063489E+05  2.632067E+04 -4.640838E+04
       214   5 -1.055544E+06 -2.214188E+05 -2.013312E+04 -4.920517E+05  3.943746E+04 -5.056486E+04
       214   6 -1.045727E+06 -2.390495E+05 -3.810436E+04 -5.039777E+05  5.170392E+04 -5.243953E+04
       214   7 -1.731282E+06 -4.823705E+05 -1.495696E+05 -6.952453E+05  1.366841E+04 -5.115924E+04
       214   8 -1.859836E+06 -5.160873E+05 -1.833615E+05 -7.153698E+05  2.994410E+04 -5.413544E+04
       214   9 -1.968403E+06 -5.792949E+05 -2.285494E+05 -7.617137E+05  4.536626E+04 -5.482931E+04
       214  10 -3.577359E+05  1.711792E+04  1.274614E+05 -3.172566E+05  2.984680E-10 -5.265357E-10
       214  11 -2.505867E+05  7.330269E+04  1.430546E+05 -2.684635E+05 -4.397830E-10 -4.639487E-12
       214  12 -1.221862E+05  1.012645E+05  1.522833E+05 -2.458858E+05  2.729101E-10  1.183830E-10
       214  13 -1.044755E+06 -2.326484E+05 -1.104586E+04 -5.063479E+05 -1.509025E-10 -2.806367E-10
       214  14 -1.055546E+06 -2.214220E+05 -2.014085E+04 -4.920501E+05 -1.103450E-09  1.337527E-10
       214  15 -1.045730E+06 -2.390531E+05 -3.811455E+04 -5.039756E+05  1.327165E-09  4.411435E-11
       214  16 -1.731283E+06 -4.823733E+05 -1.495749E+05 -6.952447E+05  1.353932E-09  3.078858E-11
       214  17 -1.859838E+06 -5.160906E+05 -1.833687E+05 -7.153685E+05  3.044175E-10  1.501059E-10
       214  18 -1.968406E+06 -5.792987E+05 -2.285589E+05 -7.617117E+05 -1.828278E-09  7.668056E-10
       214  19 -3.577338E+05  1.712019E+04  1.274675E+05 -3.172579E+05 -3.898811E+04  4.165191E+04
       214  20 -2.505835E+05  7.330571E+04  1.430632E+05 -2.684654E+05 -4.894407E+04  4.698929E+04
       214  21 -1.221819E+05  1.012681E+05  1.522943E+05 -2.458881E+05 -5.805168E+04  5.004592E+04
       214  22 -1.044754E+06 -2.326459E+05 -1.104051E+04 -5.063489E+05 -2.632067E+04  4.640838E+04
       214  23 -1.055544E+06 -2.214188E+05 -2.013312E+04 -4.920517E+05 -3.943746E+04  5.056486E+04
       214  24 -1.045727E+06 -2.390495E+05 -3.810436E+04 -5.039777E+05 -5.170392E+04  5.243953E+04
       214  25 -1.731282E+06 -4.823705E+05 -1.495696E+05 -6.952453E+05 -1.366841E+04  5.115924E+04
       214  26 -1.859836E+06 -5.160873E+05 -1.833615E+05 -7.153698E+05 -2.994410E+04  5.413544E+04
       214  27 -1.968403E+06 -5.792949E+05 -2.285494E+05 -7.617137E+05 -4.536626E+04  5.482931E+04
       215   1 -3.270959E+04  1.250502E+05  1.578679E+05 -2.425494E+05  7.276479E+04 -5.072911E+04
       215   2  4.431393E+04  1.996220E+05  1.542432E+05 -1.375720E+05  7.098969E+04 -4.260798E+04
       215   3  1.032758E+05  1.458679E+05  1.205500E+05 -2.876182E+04  5.628459E+04 -1.380291E+02
       215   4 -1.052147E+06 -2.327139E+05 -4.979673E+04 -5.088054E+05  5.950693E+04 -5.571957E+04
       215   5 -1.049684E+06 -2.434188E+05 -9.301364E+04 -4.808134E+05  1.055341E+05 -2.963572E+04
       215   6 -1.074855E+06 -3.920707E+05 -2.042669E+05 -4.489808E+05  1.386146E+05  3.082612E+04
       215   7 -2.070519E+06 -5.904119E+05 -2.575134E+05 -7.746668E+05  4.627249E+04 -6.070210E+04
       215   8 -2.142453E+06 -6.862916E+05 -3.403401E+05 -8.234715E+05  1.400125E+05 -1.669386E+04
       215   9 -2.251580E+06 -9.297084E+05 -5.291769E+05 -8.684031E+05  2.207728E+05  6.169377E+04
       215  10 -3.271596E+04  1.250460E+05  1.578531E+05 -2.425464E+05 -7.650285E-11  4.285401E-10
       215  11  4.430804E+04  1.996187E+05  1.542303E+05 -1.375695E+05 -2.133189E-10  1.435021E-09
       215  12  1.032724E+05  1.458671E+05  1.205441E+05 -2.876182E+04  5.717765E-10  6.292962E-10
       215  13 -1.052151E+06 -2.327182E+05 -4.980922E+04 -5.088028E+05  3.317914E-10 -1.191036E-10
       215  14 -1.049696E+06 -2.434227E+05 -9.303624E+04 -4.808109E+05  4.271618E-10  5.688057E-10
       215  15 -1.074876E+06 -3.920769E+05 -2.043049E+05 -4.489842E+05  1.110398E-10  9.373448E-11
       215  16 -2.070522E+06 -5.904164E+05 -2.575243E+05 -7.746646E+05 -2.621029E-10  2.537013E-10
       215  17 -2.142475E+06 -6.862972E+05 -3.403776E+05 -8.234696E+05 -7.714672E-10  6.665088E-11
       215  18 -2.251634E+06 -9.297257E+05 -5.292760E+05 -8.684141E+05 -7.980793E-10  3.242611E-10
       215  19 -3.270959E+04  1.250502E+05  1.578679E+05 -2.425494E+05 -7.276479E+04  5.072911E+04
       215  20  4.431393E+04  1.996220E+05  1.542432E+05 -1.375720E+05 -7.098969E+04  4.260798E+04
       215  21  1.032758E+05  1.458679E+05  1.205500E+05 -2.876182E+04 -5.628459E+04  1.380291E+02
       215  22 -1.052147E+06 -2.327139E+05 -4.979673E+04 -5.088054E+05 -5.950693E+04  5.571957E+04
       215  23 -1.049684E+06 -2.434188E+05 -9.301364E+04 -4.808134E+05 -1.055341E+05  2.963572E+04
       215  24 -1.074855E+06 -3.920707E+05 -2.042669E+05 -4.489808E+05 -1.386146E+05 -3.082612E+04
       215  25 -2.070519E+06 -5.904119E+05 -2.575134E+05 -7.746668E+05 -4.627249E+04  6.070210E+04
       215  26 -2.142453E+06 -6.862916E+05 -3.403401E+05 -8.234715E+05 -1.400125E+05  1.669386E+04
       215  27 -2.251580E+06 -9.297084E+05 -5.291769E+05 -8.684031E+05 -2.207728E+05 -6.169377E+04
       216   1 -3.023145E+05 -1.135736E+05 -8.060771E+04 -1.576943E+04  5.649845E+04  1.530311E+04
       216   2 -1.900273E+05 -2.105044E+05 -1.115774E+05 -5.633663E+04  5.237247E+04  4.953600E+04
       216   3 -5.168248E+04 -2.062642E+05 -1.145385E+05 -1.272548E+05  4.827310E+04  5.566911E+04
       216   4  8.192522E+05  1.635562E+05  1.848993E+05 -1.131727E+05  1.284815E+05  1.535128E+04
       216   5  8.027003E+05  2.793782E+04  8.855563E+04 -9.795216E+04  8.249939E+04  4.954506E+04
       216   6  8.193947E+05  6.514015E+02  4.922835E+04 -1.130727E+05  3.654740E+04  5.565881E+04
       216   7  1.942006E+06  4.406345E+05  4.503437E+05 -2.107531E+05  2.005938E+05  1.537684E+04
       216   8  1.796372E+06  2.663262E+05  2.886424E+05 -1.396356E+05  1.126735E+05  4.955009E+04
       216   9  1.691205E+06  2.075238E+05  2.129627E+05 -9.887022E+04  2.480562E+04  5.564798E+04
       216  10 -3.023180E+05 -1.135747E+05 -8.061415E+04 -1.577013E+04  1.026276E-09 -8.020408E-10
       216  11 -1.900309E+05 -2.105078E+05 -1.115872E+05 -5.633872E+04 -2.335724E-11  3.676733E-10
       216  12 -5.168581E+04 -2.062681E+05 -1.145487E+05 -1.272570E+05 -1.654437E-09 -9.304526E-10
       216  13  8.192345E+05  1.635515E+05  1.848679E+05 -1.131743E+05 -5.186662E-10  7.973545E-10
       216  14  8.026923E+05  2.793335E+04  8.853824E+04 -9.795545E+04  2.440561E-09  3.034601E-10
       216  15  8.193924E+05  6.477152E+02  4.922002E+04 -1.130743E+05  1.444361E-10 -5.065803E-10
       216  16  1.941963E+06  4.406235E+05  4.502678E+05 -2.107555E+05 -3.011480E-10  7.591923E-10
       216  17  1.796358E+06  2.663202E+05  2.886140E+05 -1.396401E+05  1.067693E-10  7.121389E-10
       216  18  1.691204E+06  2.075203E+05  2.129557E+05 -9.887133E+04  2.737337E-09  1.556874E-09
       216  19 -3.023145E+05 -1.135736E+05 -8.060771E+04 -1.576943E+04 -5.649845E+04 -1.530311E+04
       216  20 -1.900273E+05 -2.105044E+05 -1.115774E+05 -5.633663E+04 -5.237247E+04 -4.953600E+04
       216  21 -5.168248E+04 -2.062642E+05 -1.145385E+05 -1.272548E+05 -4.827310E+04 -5.566911E+04
       216  22  8.192522E+05  1.635562E+05  1.848993E+05 -1.131727E+05 -1.284815E+05 -1.535128E+04
       216  23  8.027003E+05  2.793782E+04  8.855563E+04 -9.795216E+04 -8.249939E+04 -4.954506E+04
       216  24  8.193947E+05  6.514015E+02  4.922835E+04 -1.130727E+05 -3.654740E+04 -5.565881E+04
       216  25  1.942006E+06  4.406345E+05  4.503437E+05 -2.107531E+05 -2.005938E+05 -1.537684E+04
       216  26  1.796372E+06  2.663262E+05  2.886424E+05 -1.396356E+05 -1.126735E+05 -4.955009E+04
       216  27  1.691205E+06  2.075238E+05  2.129627E+05 -9.887022E+04 -2.480562E+04 -5.564798E+04
       217   1  2.643106E+04 -1.803860E+05 -1.093725E+05 -1.114507E+05  3.715844E+04  5.087273E+04
       217   2  1.499773E+05 -1.560396E+05 -1.007614E+05 -9.717865E+04  2.989316E+04  4.503720E+04
       217   3  2.756755E+05 -1.273025E+05 -8.629813E+04 -1.147598E+05  2.262334E+04  3.710358E+04
       217   4  8.126219E+05  6.218147E+03  3.781068E+04 -1.134289E+05  3.006508E+04  5.086496E+04
       217   5  8.113138E+05  4.837826E+02  2.085945E+04 -9.750316E+04  1.966504E+04  4.503116E+04
       217   6  8.126821E+05 -3.191456E+02  1.192855E+04 -1.134282E+05  9.261899E+03  3.710036E+04
       217   7  1.599410E+06  1.927866E+05  1.849674E+05 -1.154097E+05  2.296293E+04  5.085724E+04
       217   8  1.473075E+06  1.569824E+05  1.424627E+05 -9.782803E+04  9.426306E+03  4.502513E+04
       217   9  1.349969E+06  1.266480E+05  1.101442E+05 -1.120954E+05 -4.110782E+03  3.709708E+04
       217  10  2.642888E+04 -1.803892E+05 -1.093800E+05 -1.114522E+05  1.435776E-10 -6.852195E-10
       217  11  1.499757E+05 -1.560420E+05 -1.007669E+05 -9.717973E+04 -1.278168E-09  1.230724E-10
       217  12  2.756746E+05 -1.273041E+05 -8.630168E+04 -1.147605E+05 -5.550500E-10 -2.249741E-10
       217  13  8.126203E+05  6.215125E+03  3.780412E+04 -1.134301E+05 -6.167686E-10  5.716768E-10
       217  14  8.113129E+05  4.815004E+02  2.085491E+04 -9.750388E+04 -1.097324E-10  3.707184E-10
       217  15  8.126817E+05 -3.206472E+02  1.192580E+04 -1.134285E+05 -2.265432E-09 -1.655961E-10
       217  16  1.599409E+06  1.927837E+05  1.849616E+05 -1.154107E+05  2.531647E-11  7.878789E-10
       217  17  1.473074E+06  1.569802E+05  1.424587E+05 -9.782837E+04  6.351250E-10 -6.788023E-11
       217  18  1.349969E+06  1.266465E+05  1.101416E+05 -1.120952E+05  1.106035E-09 -3.923558E-11
       217  19  2.643106E+04 -1.803860E+05 -1.093725E+05 -1.114507E+05 -3.715844E+04 -5.087273E+04
       217  20  1.499773E+05 -1.560396E+05 -1.007614E+05 -9.717865E+04 -2.989316E+04 -4.503720E+04
       217  21  2.756755E+05 -1.273025E+05 -8.629813E+04 -1.147598E+05 -2.262334E+04 -3.710358E+04
       217  22  8.126219E+05  6.218147E+03  3.781068E+04 -1.134289E+05 -3.006508E+04 -5.086496E+04
       217  23  8.113138E+05  4.837826E+02  2.085945E+04 -9.750316E+04 -1.966504E+04 -4.503116E+04
       217  24  8.126821E+05 -3.191456E+02  1.192855E+04 -1.134282E+05 -9.261899E+03 -3.710036E+04
       217  25  1.599410E+06  1.927866E+05  1.849674E+05 -1.154097E+05 -2.296293E+04 -5.085724E+04
       217  26  1.473075E+06  1.569824E+05  1.424627E+05 -9.782803E+04 -9.426306E+03 -4.502513E+04
       217  27  1.349969E+06  1.266480E+05  1.101442E+05 -1.120954E+05  4.110782E+03 -3.709708E+04
       218   1  3.587700E+05 -1.071317E+05 -7.334932E+04 -1.139238E+05  2.042382E+04  3.186397E+04
       218   2  4.829562E+05 -7.789771E+04 -5.471306E+04 -9.783015E+04  1.810327E+04  2.304634E+04
       218   3  6.075303E+05 -4.847937E+04 -3.451422E+04 -1.136484E+05  1.577995E+04  1.407488E+04
       218   4  8.121958E+05 -2.219729E+01  9.063943E+03 -1.134420E+05  7.415052E+03  3.186225E+04
       218   5  8.120027E+05 -1.609244E+02  5.160969E+03 -9.748659E+04  4.862618E+03  2.304630E+04
       218   6  8.122238E+05 -7.430520E+01  2.980446E+03 -1.134421E+05  2.307868E+03  1.407660E+04
       218   7  1.265822E+06  1.070759E+05  9.146964E+04 -1.129597E+05 -5.602954E+03  3.186051E+04
       218   8  1.141155E+06  7.756987E+04  6.503132E+04 -9.714283E+04 -8.384854E+03  2.304625E+04
       218   9  1.016958E+06  4.832849E+04  4.047409E+04 -1.132358E+05 -1.116854E+04  1.407831E+04
       218  10  3.587693E+05 -1.071329E+05 -7.335201E+04 -1.139243E+05 -1.579118E-09 -1.039026E-10
       218  11  4.829557E+05 -7.789837E+04 -5.471467E+04 -9.783048E+04 -2.628272E-09  4.632381E-10
       218  12  6.075300E+05 -4.847965E+04 -3.451506E+04 -1.136486E+05  2.017666E-10  7.637433E-12
       218  13  8.121955E+05 -2.330265E+01  9.061931E+03 -1.134422E+05  2.578261E-10  1.111202E-10
       218  14  8.120025E+05 -1.615013E+02  5.159926E+03 -9.748668E+04  2.163003E-09  5.207273E-10
       218  15  8.122237E+05 -7.451949E+01  2.980064E+03 -1.134422E+05  7.068977E-10  6.196879E-10
       218  16  1.265821E+06  1.070748E+05  9.146767E+04 -1.129596E+05  5.071897E-10  3.408861E-10
       218  17  1.141155E+06  7.756928E+04  6.503019E+04 -9.714267E+04 -8.665044E-10  6.010186E-10
       218  18  1.016958E+06  4.832824E+04  4.047348E+04 -1.132357E+05 -4.572404E-10  8.180464E-10
       218  19  3.587700E+05 -1.071317E+05 -7.334932E+04 -1.139238E+05 -2.042382E+04 -3.186397E+04
       218  20  4.829562E+05 -7.789771E+04 -5.471306E+04 -9.783015E+04 -1.810327E+04 -2.304634E+04
       218  21  6.075303E+05 -4.847937E+04 -3.451422E+04 -1.136484E+05 -1.577995E+04 -1.407488E+04
       218  22  8.121958E+05 -2.219729E+01  9.063943E+03 -1.134420E+05 -7.415052E+03 -3.186225E+04
       218  23  8.120027E+05 -1.609244E+02  5.160969E+03 -9.748659E+04 -4.862618E+03 -2.304630E+04
       218  24  8.122238E+05 -7.430520E+01  2.980446E+03 -1.134421E+05 -2.307868E+03 -1.407660E+04
       218  25  1.265822E+06  1.070759E+05  9.146964E+04 -1.129597E+05  5.602954E+03 -3.186051E+04
       218  26  1.141155E+06  7.756987E+04  6.503132E+04 -9.714283E+04  8.384854E+03 -2.304625E+04
       218  27  1.016958E+06  4.832849E+04  4.047409E+04 -1.132358E+05  1.116854E+04 -1.407831E+04
       219   1  6.908788E+05 -2.863560E+04 -1.948762E+04 -1.135926E+05  1.527599E+04  8.808839E+03
       219   2  8.151485E+05  6.809207E+02  1.869517E+03 -9.759234E+04  1.463795E+04 -2.239445E+02
       219   3  9.395244E+05  3.000430E+04  2.364390E+04 -1.134932E+05  1.399981E+04 -9.267540E+03
       219   4  8.121577E+05 -4.888452E+01  2.269790E+03 -1.134400E+05  1.831316E+03  8.811061E+03
       219   5  8.121117E+05 -3.468174E+01  1.325317E+03 -9.748941E+04  1.175681E+03 -2.217532E+02
       219   6  8.121577E+05 -1.047733E+01  8.092733E+02 -1.134400E+05  5.200615E+02 -9.265348E+03
       219   7  9.334512E+05  2.853711E+04  2.402731E+04 -1.132873E+05 -1.161591E+04  8.813275E+03
       219   8  8.090753E+05 -7.501876E+02  7.817963E+02 -9.738649E+04 -1.228652E+04 -2.195663E+02
       219   9  6.848072E+05 -3.002606E+04 -2.202530E+04 -1.133868E+05 -1.295700E+04 -9.263158E+03
       219  10  6.908785E+05 -2.863575E+04 -1.948821E+04 -1.135927E+05 -3.632543E-09  8.041848E-10
       219  11  8.151483E+05  6.808633E+02  1.869115E+03 -9.759234E+04 -2.384969E-09  2.201340E-09
       219  12  9.395242E+05  3.000416E+04  2.364337E+04 -1.134931E+05 -1.860053E-09  5.476650E-10
       219  13  8.121576E+05 -4.896882E+01  2.269637E+03 -1.134400E+05 -1.073396E-09  1.106472E-09
       219  14  8.121117E+05 -3.468217E+01  1.325314E+03 -9.748941E+04  2.007821E-09  2.186151E-09
       219  15  8.121577E+05 -1.056962E+01  8.091114E+02 -1.134400E+05 -4.760576E-10  5.651439E-10
       219  16  9.334511E+05  2.853699E+04  2.402692E+04 -1.132872E+05  2.918571E-09  1.406435E-09
       219  17  8.090751E+05 -7.502281E+02  7.815128E+02 -9.738649E+04  1.016626E-09  2.150946E-09
       219  18  6.848070E+05 -3.002620E+04 -2.202577E+04 -1.133869E+05  1.511548E-09  8.550724E-10
       219  19  6.908788E+05 -2.863560E+04 -1.948762E+04 -1.135926E+05 -1.527599E+04 -8.808839E+03
       219  20  8.151485E+05  6.809207E+02  1.869517E+03 -9.759234E+04 -1.463795E+04  2.239445E+02
       219  21  9.395244E+05  3.000430E+04  2.364390E+04 -1.134932E+05 -1.399981E+04  9.267540E+03
       219  22  8.121577E+05 -4.888452E+01  2.269790E+03 -1.134400E+05 -1.831316E+03 -8.811061E+03
       219  23  8.121117E+05 -3.468174E+01  1.325317E+03 -9.748941E+04 -1.175681E+03  2.217532E+02
       219  24  8.121577E+05 -1.047733E+01  8.092733E+02 -1.134400E+05 -5.200615E+02  9.265348E+03
       219  25  9.334512E+05  2.853711E+04  2.402731E+04 -1.132873E+05  1.161591E+04 -8.813275E+03
       219  26  8.090753E+05 -7.501876E+02  7.817963E+02 -9.738649E+04  1.228652E+04  2.195663E+02
       219  27  6.848072E+05 -3.002606E+04 -2.202530E+04 -1.133868E+05  1.295700E+04  9.263158E+03
       220   1  1.022945E+06  4.981443E+04  3.921949E+04 -1.134966E+05  1.386992E+04 -1.453500E+04
       220   2  1.147344E+06  7.910412E+04  6.134925E+04 -9.749438E+04  1.362125E+04 -2.357952E+04
       220   3  1.271816E+06  1.083934E+05  8.364580E+04 -1.134144E+05  1.337499E+04 -3.261402E+04
       220   4  8.121443E+05 -1.487185E+01  6.528497E+02 -1.134449E+05  3.859869E+02 -1.453333E+04
       220   5  8.121025E+05 -4.370953E+01  4.744383E+02 -9.748330E+04  1.510535E+02 -2.357964E+04
       220   6  8.121172E+05 -7.469171E+01  4.529922E+02 -1.134449E+05 -8.141694E+01 -3.261589E+04
       220   7  6.013868E+05 -4.984659E+04 -3.791492E+04 -1.133932E+05 -1.309350E+04 -1.453167E+04
       220   8  4.769707E+05 -7.919776E+04 -6.040417E+04 -9.747223E+04 -1.331208E+04 -2.357976E+04
       220   9  3.526235E+05 -1.085545E+05 -8.274747E+04 -1.134755E+05 -1.352815E+04 -3.261776E+04
       220  10  1.022945E+06  4.981415E+04  3.921873E+04 -1.134965E+05 -4.803324E-08 -1.558720E-09
       220  11  1.147343E+06  7.910348E+04  6.134786E+04 -9.749412E+04 -8.538557E-09 -3.448846E-09
       220  12  1.271816E+06  1.083922E+05  8.364346E+04 -1.134140E+05  2.990563E-08 -3.107622E-09
       220  13  8.121442E+05 -1.509879E+01  6.524523E+02 -1.134449E+05 -1.002599E-09 -1.618283E-09
       220  14  8.121023E+05 -4.430681E+01  4.733930E+02 -9.748330E+04 -4.923450E-10 -3.894316E-09
       220  15  8.121169E+05 -7.583448E+01  4.509924E+02 -1.134449E+05 -1.068581E-09 -3.129031E-09
       220  16  6.013866E+05 -4.984686E+04 -3.791563E+04 -1.133934E+05  4.626670E-08 -1.564286E-09
       220  17  4.769704E+05 -7.919840E+04 -6.040555E+04 -9.747248E+04  6.785269E-09 -4.347076E-09
       220  18  3.526231E+05 -1.085557E+05 -8.274982E+04 -1.134758E+05 -3.018616E-08 -3.288821E-09
       220  19  1.022945E+06  4.981443E+04  3.921949E+04 -1.134966E+05 -1.386992E+04  1.453500E+04
       220  20  1.147344E+06  7.910412E+04  6.134925E+04 -9.749438E+04 -1.362125E+04  2.357952E+04
       220  21  1.271816E+06  1.083934E+05  8.364580E+04 -1.134144E+05 -1.337499E+04  3.261402E+04
       220  22  8.121443E+05 -1.487185E+01  6.528497E+02 -1.134449E+05 -3.859869E+02  1.453333E+04
       220  23  8.121025E+05 -4.370953E+01  4.744383E+02 -9.748330E+04 -1.510535E+02  2.357964E+04
       220  24  8.121172E+05 -7.469171E+01  4.529922E+02 -1.134449E+05  8.141694E+01  3.261589E+04
       220  25  6.013868E+05 -4.984659E+04 -3.791492E+04 -1.133932E+05  1.309350E+04  1.453167E+04
       220  26  4.769707E+05 -7.919776E+04 -6.040417E+04 -9.747223E+04  1.331208E+04  2.357976E+04
       220  27  3.526235E+05 -1.085545E+05 -8.274747E+04 -1.134755E+05  1.352815E+04  3.261776E+04
       221   1  1.355402E+06  1.282147E+05  9.944595E+04 -1.133959E+05  1.333231E+04 -3.788451E+04
       221   2  1.480016E+06  1.575384E+05  1.220811E+05 -9.729047E+04  1.270564E+04 -4.684247E+04
       221   3  1.604835E+06  1.869267E+05  1.451615E+05 -1.131624E+05  1.208363E+04 -5.560504E+04
       221   4  8.121193E+05 -9.603724E+01  4.957051E+02 -1.134574E+05 -1.666993E+02 -3.788795E+04
       221   5  8.120219E+05 -1.629548E+02  6.842766E+02 -9.746770E+04 -5.028713E+02 -4.684938E+04
       221   6  8.120649E+05 -2.143257E+02  1.117044E+03 -1.134574E+05 -8.342685E+02 -5.561528E+04
       221   7  2.691234E+05 -1.284233E+05 -9.846571E+04 -1.135189E+05 -1.365423E+04 -3.789139E+04
       221   8  1.444609E+05 -1.578892E+05 -1.207298E+05 -9.764472E+04 -1.369759E+04 -4.685629E+04
       221   9  1.990518E+04 -1.873906E+05 -1.429519E+05 -1.137520E+05 -1.373616E+04 -5.562552E+04
       221  10  1.355401E+06  1.282132E+05  9.944292E+04 -1.133954E+05  2.259188E-08 -1.468773E-09
       221  11  1.480015E+06  1.575360E+05  1.220767E+05 -9.728999E+04  9.175203E-09 -1.116221E-10
       221  12  1.604834E+06  1.869233E+05  1.451554E+05 -1.131619E+05 -3.873022E-09  8.294711E-10
       221  13  8.121189E+05 -9.757931E+01  4.930065E+02 -1.134574E+05  9.527192E-11 -1.618549E-09
       221  14  8.120213E+05 -1.653127E+02  6.801500E+02 -9.746772E+04 -2.986702E-09  4.557005E-11
       221  15  8.120641E+05 -2.176486E+02  1.111228E+03 -1.134574E+05 -7.622240E-10  5.771199E-10
       221  16  2.691229E+05 -1.284249E+05 -9.846876E+04 -1.135193E+05 -2.483974E-08 -1.901225E-09
       221  17  1.444601E+05 -1.578917E+05 -1.207342E+05 -9.764524E+04 -1.144746E-08 -1.945098E-10
       221  18  1.990415E+04 -1.873939E+05 -1.429580E+05 -1.137526E+05  1.888026E-09  9.829275E-10
       221  19  1.355402E+06  1.282147E+05  9.944595E+04 -1.133959E+05 -1.333231E+04  3.788451E+04
       221  20  1.480016E+06  1.575384E+05  1.220811E+05 -9.729047E+04 -1.270564E+04  4.684247E+04
       221  21  1.604835E+06  1.869267E+05  1.451615E+05 -1.131624E+05 -1.208363E+04  5.560504E+04
       221  22  8.121193E+05 -9.603724E+01  4.957051E+02 -1.134574E+05  1.666993E+02  3.788795E+04
       221  23  8.120219E+05 -1.629548E+02  6.842766E+02 -9.746770E+04  5.028713E+02  4.684938E+04
       221  24  8.120649E+05 -2.143257E+02  1.117044E+03 -1.134574E+05  8.342685E+02  5.561528E+04
       221  25  2.691234E+05 -1.284233E+05 -9.846571E+04 -1.135189E+05  1.365423E+04  3.789139E+04
       221  26  1.444609E+05 -1.578892E+05 -1.207298E+05 -9.764472E+04  1.369759E+04  4.685629E+04
       221  27  1.990518E+04 -1.873906E+05 -1.429519E+05 -1.137520E+05  1.373616E+04  5.562552E+04
       222   1  1.688837E+06  2.067925E+05  1.613636E+05 -1.129658E+05  1.232568E+04 -6.084421E+04
       222   2  1.813413E+06  2.364847E+05  1.861555E+05 -9.699132E+04  7.057317E+03 -6.846481E+04
       222   3  1.939210E+06  2.674449E+05  2.147370E+05 -1.129269E+05  1.791514E+03 -7.337427E+04
       222   4  8.121181E+05 -2.801751E+02  1.448982E+03 -1.134425E+05 -1.056306E+03 -6.085720E+04
       222   5  8.118251E+05 -2.650809E+02  2.469581E+03 -9.748614E+04 -2.279707E+03 -6.848021E+04
       222   6  8.120362E+05  3.183549E+02  4.476950E+03 -1.134429E+05 -3.499464E+03 -7.338991E+04
       222   7 -6.385524E+04 -2.073961E+05 -1.584960E+05 -1.139186E+05 -1.441994E+04 -6.087018E+04
       222   8 -1.887915E+05 -2.370716E+05 -1.812571E+05 -9.798021E+04 -1.160210E+04 -6.849562E+04
       222   9 -3.139117E+05 -2.668813E+05 -2.058373E+05 -1.139581E+05 -8.781099E+03 -7.340556E+04
       222  10  1.688836E+06  2.067885E+05  1.613564E+05 -1.129652E+05  2.683809E-09  4.280279E-10
       222  11  1.813412E+06  2.364796E+05  1.861466E+05 -9.699093E+04  2.292625E-09 -2.691694E-10
       222  12  1.939209E+06  2.674391E+05  2.147269E+05 -1.129268E+05  9.148732E-10 -1.961217E-10
       222  13  8.121171E+05 -2.841539E+02  1.442018E+03 -1.134426E+05 -8.709751E-10  7.115821E-10
       222  14  8.118238E+05 -2.701200E+02  2.460755E+03 -9.748626E+04 -2.163224E-09  2.608321E-10
       222  15  8.120347E+05  3.125656E+02  4.466801E+03 -1.134431E+05  9.197106E-10  2.756715E-10
       222  16 -6.385646E+04 -2.074002E+05 -1.585033E+05 -1.139193E+05 -2.170664E-09  9.090868E-10
       222  17 -1.887929E+05 -2.370767E+05 -1.812662E+05 -9.798085E+04 -2.483356E-09  2.365400E-09
       222  18 -3.139132E+05 -2.668871E+05 -2.058476E+05 -1.139586E+05 -6.447201E-10  1.156591E-09
       222  19  1.688837E+06  2.067925E+05  1.613636E+05 -1.129658E+05 -1.232568E+04  6.084421E+04
       222  20  1.813413E+06  2.364847E+05  1.861555E+05 -9.699132E+04 -7.057317E+03  6.846481E+04
       222  21  1.939210E+06  2.674449E+05  2.147370E+05 -1.129269E+05 -1.791514E+03  7.337427E+04
       222  22  8.121181E+05 -2.801751E+02  1.448982E+03 -1.134425E+05  1.056306E+03  6.085720E+04
       222  23  8.118251E+05 -2.650809E+02  2.469581E+03 -9.748614E+04  2.279707E+03  6.848021E+04
       222  24  8.120362E+05  3.183549E+02  4.476950E+03 -1.134429E+05  3.499464E+03  7.338991E+04
       222  25 -6.385524E+04 -2.073961E+05 -1.584960E+05 -1.139186E+05  1.441994E+04  6.087018E+04
       222  26 -1.887915E+05 -2.370716E+05 -1.812571E+05 -9.798021E+04  1.160210E+04  6.849562E+04
       222  27 -3.139117E+05 -2.668813E+05 -2.058373E+05 -1.139581E+05  8.781099E+03  7.340556E+04
       223   1  2.025790E+06  2.872314E+05  2.329649E+05 -1.103641E+05  7.049982E+03 -7.803481E+04
       223   2  2.145036E+06  3.227250E+05  2.781180E+05 -1.017752E+05 -5.258249E+04 -6.751583E+04
       223   3  2.277957E+06  3.805505E+05  3.676616E+05 -1.230642E+05 -1.122974E+05 -2.066358E+04
       223   4  8.128382E+05 -3.906928E+02  5.829634E+03 -1.129859E+05 -4.264092E+03 -7.805866E+04
       223   5  8.106396E+05  2.781594E+03  1.043398E+04 -9.805902E+04 -9.663350E+03 -6.747374E+04
       223   6  8.127255E+05  1.891217E+04  2.185452E+04 -1.130094E+05 -1.513050E+04 -2.052121E+04
       223   7 -3.986950E+05 -2.880976E+05 -2.213687E+05 -1.156026E+05 -1.555666E+04 -7.808244E+04
       223   8 -5.220590E+05 -3.172703E+05 -2.573337E+05 -9.435136E+04  3.316563E+04 -6.743110E+04
       223   9 -6.505179E+05 -3.428740E+05 -3.240654E+05 -1.029790E+05  8.180901E+04 -2.037554E+04
       223  10  2.025789E+06  2.872248E+05  2.329533E+05 -1.103637E+05  5.896455E-10 -1.358777E-09
       223  11  2.145032E+06  3.227194E+05  2.781043E+05 -1.017781E+05 -1.338585E-09 -4.080712E-09
       223  12  2.277944E+06  3.805466E+05  3.676372E+05 -1.230661E+05 -2.572523E-09 -1.122601E-09
       223  13  8.128365E+05 -3.972432E+02  5.818145E+03 -1.129861E+05 -1.652008E-09 -4.156019E-09
       223  14  8.106383E+05  2.776678E+03  1.042525E+04 -9.805954E+04  1.951469E-09  2.701203E-09
       223  15  8.127252E+05  1.891166E+04  2.185330E+04 -1.130097E+05  8.684154E-10  4.131043E-11
       223  16 -3.986969E+05 -2.881042E+05 -2.213806E+05 -1.156036E+05 -1.864020E-09  1.772670E-10
       223  17 -5.220614E+05 -3.172754E+05 -2.573443E+05 -9.434956E+04 -1.347702E-09  2.788467E-09
       223  18 -6.505252E+05 -3.428762E+05 -3.240788E+05 -1.029777E+05  1.920746E-09 -1.301438E-09
       223  19  2.025790E+06  2.872314E+05  2.329649E+05 -1.103641E+05 -7.049982E+03  7.803481E+04
       223  20  2.145036E+06  3.227250E+05  2.781180E+05 -1.017752E+05  5.258249E+04  6.751583E+04
       223  21  2.277957E+06  3.805505E+05  3.676616E+05 -1.230642E+05  1.122974E+05  2.066358E+04
       223  22  8.128382E+05 -3.906928E+02  5.829634E+03 -1.129859E+05  4.264092E+03  7.805866E+04
       223  23  8.106396E+05  2.781594E+03  1.043398E+04 -9.805902E+04  9.663350E+03  6.747374E+04
       223  24  8.127255E+05  1.891217E+04  2.185452E+04 -1.130094E+05  1.513050E+04  2.052121E+04
       223  25 -3.986950E+05 -2.880976E+05 -2.213687E+05 -1.156026E+05  1.555666E+04  7.808244E+04
       223  26 -5.220590E+05 -3.172703E+05 -2.573337E+05 -9.435136E+04 -3.316563E+04  6.743110E+04
       223  27 -6.505179E+05 -3.428740E+05 -3.240654E+05 -1.029790E+05 -8.180901E+04  2.037554E+04
       224   1  5.258705E+05  2.092757E+06  5.108263E+05 -4.695560E+05  2.265516E+04  1.267273E+05
       224   2  3.681782E+05  1.588738E+06  3.266876E+05 -3.976606E+05  6.783846E+04  4.014345E+04
       224   3  2.437805E+05  1.104387E+06  2.070987E+05 -4.489546E+05  6.090071E+04 -4.643150E+04
       224   4  2.989020E+04  8.877904E+04  3.264238E+04 -4.493693E+05  2.286669E+04  2.068345E+04
       224   5  5.991671E+03  8.601353E+04  1.718102E+04 -3.877982E+05  6.791311E+04  1.190631E+04
       224   6  1.964471E+03  8.925460E+04  1.238016E+04 -4.494255E+05  6.078376E+04  3.067803E+03
       224   7 -4.663728E+05 -1.911500E+06 -4.457816E+05 -4.292449E+05  2.307178E+04 -8.502057E+04
       224   8 -3.563366E+05 -1.414570E+06 -2.924440E+05 -3.779582E+05  6.798698E+04 -1.626385E+04
       224   9 -2.399111E+05 -9.248820E+05 -1.823764E+05 -4.498947E+05  6.066662E+04  5.248815E+04
       224  10  5.258657E+05  2.092740E+06  5.107952E+05 -4.695583E+05  1.223901E-10  1.056789E-09
       224  11  3.681728E+05  1.588735E+06  3.266760E+05 -3.976628E+05  2.947601E-10 -6.648308E-10
       224  12  2.437760E+05  1.104384E+06  2.070877E+05 -4.489523E+05 -1.715509E-09 -2.342843E-09
       224  13  2.988953E+04  8.877844E+04  3.264060E+04 -4.493697E+05  2.516085E-09  1.219978E-09
       224  14  5.986679E+03  8.601214E+04  1.717208E+04 -3.877988E+05  1.874576E-09 -8.117951E-10
       224  15  1.960501E+03  8.925359E+04  1.237320E+04 -4.494256E+05  8.507801E-10  1.222955E-09
       224  16 -4.663754E+05 -1.911508E+06 -4.457962E+05 -4.292433E+05  4.016845E-10 -1.091384E-09
       224  17 -3.563416E+05 -1.414572E+06 -2.924532E+05 -3.779573E+05  1.609554E-09  1.242263E-09
       224  18 -2.399158E+05 -9.248859E+05 -1.823886E+05 -4.498972E+05  1.138936E-10  4.621634E-09
       224  19  5.258705E+05  2.092757E+06  5.108263E+05 -4.695560E+05 -2.265516E+04 -1.267273E+05
       224  20  3.681782E+05  1.588738E+06  3.266876E+05 -3.976606E+05 -6.783846E+04 -4.014345E+04
       224  21  2.437805E+05  1.104387E+06  2.070987E+05 -4.489546E+05 -6.090071E+04  4.643150E+04
       224  22  2.989020E+04  8.877904E+04  3.264238E+04 -4.493693E+05 -2.286669E+04 -2.068345E+04
       224  23  5.991671E+03  8.601353E+04  1.718102E+04 -3.877982E+05 -6.791311E+04 -1.190631E+04
       224  24  1.964471E+03  8.925460E+04  1.238016E+04 -4.494255E+05 -6.078376E+04 -3.067803E+03
       224  25 -4.663728E+05 -1.911500E+06 -4.457816E+05 -4.292449E+05 -2.307178E+04  8.502057E+04
       224  26 -3.563366E+05 -1.414570E+06 -2.924440E+05 -3.779582E+05 -6.798698E+04  1.626385E+04
       224  27 -2.399111E+05 -9.248820E+05 -1.823764E+05 -4.498947E+05 -6.066662E+04 -5.248815E+04
       225   1  1.653176E+05  7.696768E+05  1.424086E+05 -4.522514E+05  4.095634E+04 -4.028297E+04
       225   2  4.661236E+04  2.754840E+05  4.742607E+04 -3.872016E+05  1.285304E+04 -4.773935E+04
       225   3 -6.835701E+04 -2.171233E+05 -4.193548E+04 -4.483240E+05 -1.592854E+04 -5.519602E+04
       225   4  2.964148E+03  8.829147E+04  1.171996E+04 -4.500790E+05  4.085098E+04  1.087901E+03
       225   5  2.150810E+03  8.773415E+04  1.282539E+04 -3.869900E+05  1.274224E+04 -5.371266E+03
       225   6  4.912129E+03  8.835151E+04  1.885993E+04 -4.500742E+05 -1.604544E+04 -1.183633E+04
       225   7 -1.594158E+05 -5.926436E+05 -1.189835E+05 -4.479087E+05  4.074583E+04  4.241446E+04
       225   8 -4.231179E+04 -9.997768E+04 -2.177002E+04 -3.867785E+05  1.263145E+04  3.698435E+04
       225   9  7.817658E+04  3.939195E+05  7.965775E+04 -4.518252E+05 -1.616254E+04  3.154427E+04
       225  10  1.653154E+05  7.696746E+05  1.424024E+05 -4.522501E+05 -1.972724E-09  3.793915E-09
       225  11  4.661158E+04  2.754815E+05  4.742148E+04 -3.872011E+05 -1.333567E-09  1.337351E-09
       225  12 -6.835810E+04 -2.171266E+05 -4.194169E+04 -4.483247E+05 -1.008048E-09 -9.538203E-10
       225  13  2.962356E+03  8.829102E+04  1.171682E+04 -4.500791E+05 -3.000227E-09  2.113963E-09
       225  14  2.150628E+03  8.773407E+04  1.282503E+04 -3.869900E+05 -1.277189E-10 -1.013851E-09
       225  15  4.911815E+03  8.835129E+04  1.885918E+04 -4.500743E+05 -1.763437E-09  1.471145E-09
       225  16 -1.594181E+05 -5.926460E+05 -1.189900E+05 -4.479101E+05 -8.669345E-10 -3.681236E-09
       225  17 -4.231233E+04 -9.997919E+04 -2.177289E+04 -3.867789E+05  2.945382E-09 -1.216252E-09
       225  18  7.817603E+04  3.939184E+05  7.965539E+04 -4.518247E+05 -1.274225E-09  3.654081E-09
       225  19  1.653176E+05  7.696768E+05  1.424086E+05 -4.522514E+05 -4.095634E+04  4.028297E+04
       225  20  4.661236E+04  2.754840E+05  4.742607E+04 -3.872016E+05 -1.285304E+04  4.773935E+04
       225  21 -6.835701E+04 -2.171233E+05 -4.193548E+04 -4.483240E+05  1.592854E+04  5.519602E+04
       225  22  2.964148E+03  8.829147E+04  1.171996E+04 -4.500790E+05 -4.085098E+04 -1.087901E+03
       225  23  2.150810E+03  8.773415E+04  1.282539E+04 -3.869900E+05 -1.274224E+04  5.371266E+03
       225  24  4.912129E+03  8.835151E+04  1.885993E+04 -4.500742E+05  1.604544E+04  1.183633E+04
       225  25 -1.594158E+05 -5.926436E+05 -1.189835E+05 -4.479087E+05 -4.074583E+04 -4.241446E+04
       225  26 -4.231179E+04 -9.997768E+04 -2.177002E+04 -3.867785E+05 -1.263145E+04 -3.698435E+04
       225  27  7.817658E+04  3.939195E+05  7.965775E+04 -4.518252E+05  1.616254E+04 -3.154427E+04
       226   1 -1.502139E+05 -5.471451E+05 -1.011569E+05 -4.545056E+05 -3.599120E+04 -6.493732E+04
       226   2 -2.584699E+05 -1.042299E+06 -1.948464E+05 -3.668741E+05 -4.811236E+04 -2.174449E+04
       226   3 -3.287016E+05 -1.533625E+06 -3.072679E+05 -4.030302E+05 -1.716577E+04  2.147716E+04
       226   4  2.398636E+03  9.129239E+04  2.344944E+04 -4.495602E+05 -3.612116E+04 -1.509918E+04
       226   5  1.399045E+04  8.377084E+04  4.019117E+04 -3.876053E+05 -4.807128E+04 -3.593436E+04
       226   6  7.469457E+04  9.093316E+04  8.266850E+04 -4.494040E+05 -1.699287E+04 -5.670641E+04
       226   7  1.549881E+05  7.301265E+05  1.480457E+05 -4.446093E+05 -3.625024E+04  3.478912E+04
       226   8  2.863714E+05  1.211043E+06  2.751597E+05 -4.083737E+05 -4.802931E+04 -5.014953E+04
       226   9  4.779098E+05  1.717929E+06  4.724417E+05 -4.958978E+05 -1.680855E+04 -1.350940E+05
       226  10 -1.502164E+05 -5.471499E+05 -1.011673E+05 -4.545075E+05 -4.280599E-11  4.417181E-09
       226  11 -2.584725E+05 -1.042300E+06 -1.948517E+05 -3.668750E+05  1.273345E-09  2.339274E-09
       226  12 -3.287021E+05 -1.533625E+06 -3.072694E+05 -4.030299E+05  8.430232E-10 -1.091429E-09
       226  13  2.397174E+03  9.129179E+04  2.344656E+04 -4.495607E+05  1.038736E-09  2.168915E-09
       226  14  1.398762E+04  8.376883E+04  4.018440E+04 -3.876067E+05 -1.370119E-09 -8.948023E-10
       226  15  7.469340E+04  9.092962E+04  8.266191E+04 -4.494048E+05  1.139115E-09  9.632282E-10
       226  16  1.549864E+05  7.301248E+05  1.480409E+05 -4.446083E+05 -1.684708E-09 -4.140117E-09
       226  17  2.863682E+05  1.211040E+06  2.751506E+05 -4.083756E+05  2.472705E-09 -2.265681E-09
       226  18  4.779046E+05  1.717909E+06  4.724070E+05 -4.958996E+05  1.417205E-09  2.778777E-09
       226  19 -1.502139E+05 -5.471451E+05 -1.011569E+05 -4.545056E+05  3.599120E+04  6.493732E+04
       226  20 -2.584699E+05 -1.042299E+06 -1.948464E+05 -3.668741E+05  4.811236E+04  2.174449E+04
       226  21 -3.287016E+05 -1.533625E+06 -3.072679E+05 -4.030302E+05  1.716577E+04 -2.147716E+04
       226  22  2.398636E+03  9.129239E+04  2.344944E+04 -4.495602E+05  3.612116E+04  1.509918E+04
       226  23  1.399045E+04  8.377084E+04  4.019117E+04 -3.876053E+05  4.807128E+04  3.593436E+04
       226  24  7.469457E+04  9.093316E+04  8.266850E+04 -4.494040E+05  1.699287E+04  5.670641E+04
       226  25  1.549881E+05  7.301265E+05  1.480457E+05 -4.446093E+05  3.625024E+04 -3.478912E+04
       226  26  2.863714E+05  1.211043E+06  2.751597E+05 -4.083737E+05  4.802931E+04  5.014953E+04
       226  27  4.779098E+05  1.717929E+06  4.724417E+05 -4.958978E+05  1.680855E+04  1.350940E+05
       227   1 -1.400031E+06 -6.217012E+05 -3.577250E+05 -5.620730E+05 -1.576009E+05 -4.685283E+04
       227   2 -1.321770E+06 -4.322638E+05 -2.187731E+05 -5.288589E+05 -9.872554E+04  2.693584E+03
       227   3 -1.273039E+06 -3.581116E+05 -1.572906E+05 -4.908575E+05 -3.209594E+04  3.167255E+04
       227   4 -7.144249E+05 -2.875184E+05 -1.643152E+05 -2.959941E+05 -1.099589E+05 -2.896375E+04
       227   5 -6.934175E+05 -1.686356E+05 -7.481638E+04 -3.224523E+05 -7.965642E+04  9.851280E+03
       227   6 -6.962301E+05 -1.593167E+05 -4.006777E+04 -3.441409E+05 -4.161324E+04  2.809410E+04
       227   7 -2.834770E+04  4.679475E+04  2.905878E+04 -2.961864E+04 -6.225993E+04 -1.103840E+04
       227   8 -6.466238E+04  9.505688E+04  6.911551E+04 -1.158424E+05 -6.056648E+04  1.701928E+04
       227   9 -1.190772E+05  3.949766E+04  7.713949E+04 -1.973016E+05 -5.114012E+04  2.451254E+04
       227  10 -1.400058E+06 -6.217102E+05 -3.577759E+05 -5.620790E+05 -5.451862E-10 -5.016234E-10
       227  11 -1.321780E+06 -4.322664E+05 -2.187914E+05 -5.288586E+05 -8.005687E-09 -7.967955E-10
       227  12 -1.273040E+06 -3.581129E+05 -1.572944E+05 -4.908567E+05 -7.058545E-09 -1.807315E-09
       227  13 -7.144381E+05 -2.875225E+05 -1.643395E+05 -2.959966E+05 -3.339866E-09 -4.771021E-10
       227  14 -6.934244E+05 -1.686374E+05 -7.482850E+04 -3.224517E+05 -8.806279E-09 -5.364120E-10
       227  15 -6.962321E+05 -1.593180E+05 -4.007250E+04 -3.441400E+05 -1.899641E-09 -1.854269E-09
       227  16 -2.835189E+04  4.679358E+04  2.905127E+04 -2.961920E+04 -3.461477E-09 -8.449101E-10
       227  17 -6.466640E+04  9.505558E+04  6.910807E+04 -1.158415E+05 -5.153008E-09  3.177996E-10
       227  18 -1.190802E+05  3.949631E+04  7.713345E+04 -1.973006E+05  1.553499E-09  3.637676E-10
       227  19 -1.400031E+06 -6.217012E+05 -3.577250E+05 -5.620730E+05  1.576009E+05  4.685283E+04
       227  20 -1.321770E+06 -4.322638E+05 -2.187731E+05 -5.288589E+05  9.872554E+04 -2.693584E+03
       227  21 -1.273039E+06 -3.581116E+05 -1.572906E+05 -4.908575E+05  3.209594E+04 -3.167255E+04
       227  22 -7.144249E+05 -2.875184E+05 -1.643152E+05 -2.959941E+05  1.099589E+05  2.896375E+04
       227  23 -6.934175E+05 -1.686356E+05 -7.481638E+04 -3.224523E+05  7.965642E+04 -9.851280E+03
       227  24 -6.962301E+05 -1.593167E+05 -4.006777E+04 -3.441409E+05  4.161324E+04 -2.809410E+04
       227  25 -2.834770E+04  4.679475E+04  2.905878E+04 -2.961864E+04  6.225993E+04  1.103840E+04
       227  26 -6.466238E+04  9.505688E+04  6.911551E+04 -1.158424E+05  6.056648E+04 -1.701928E+04
       227  27 -1.190772E+05  3.949766E+04  7.713949E+04 -1.973016E+05  5.114012E+04 -2.451254E+04
       228   1 -1.197593E+06 -3.516001E+05 -1.353764E+05 -4.822214E+05 -3.012008E+04  2.793655E+04
       228   2 -1.118821E+06 -3.053817E+05 -1.016520E+05 -4.486347E+05 -1.837800E+04  2.716392E+04
       228   3 -1.025767E+06 -2.809000E+05 -7.658594E+04 -4.340025E+05 -6.125796E+03  2.503085E+04
       228   4 -6.911517E+05 -1.643430E+05 -3.065850E+04 -3.401518E+05 -3.550321E+04  2.591179E+04
       228   5 -6.981058E+05 -1.511238E+05 -1.619825E+04 -3.316203E+05 -2.564707E+04  2.443252E+04
       228   6 -6.904080E+05 -1.592649E+05 -8.894852E+03 -3.420459E+05 -1.528241E+04  2.159273E+04
       228   7 -1.844513E+05  2.293557E+04  7.404491E+04 -1.979757E+05 -4.089102E+04  2.388523E+04
       228   8 -2.772082E+05  3.149503E+03  6.924685E+04 -2.145325E+05 -3.292144E+04  2.169913E+04
       228   9 -3.549306E+05 -3.761946E+04  5.879178E+04 -2.500428E+05 -2.444441E+04  1.815262E+04
       228  10 -1.197594E+06 -3.516012E+05 -1.353796E+05 -4.822207E+05 -2.453534E-08 -9.293119E-09
       228  11 -1.118821E+06 -3.053826E+05 -1.016540E+05 -4.486343E+05 -5.013938E-09 -3.896796E-09
       228  12 -1.025767E+06 -2.809007E+05 -7.658719E+04 -4.340023E+05  1.990892E-08  6.398659E-09
       228  13 -6.911533E+05 -1.643440E+05 -3.066213E+04 -3.401511E+05 -3.018403E-09 -2.251138E-09
       228  14 -6.981066E+05 -1.511246E+05 -1.620061E+04 -3.316198E+05 -4.352769E-09 -4.171229E-09
       228  15 -6.904084E+05 -1.592654E+05 -8.896167E+03 -3.420456E+05 -1.293428E-09 -1.117325E-09
       228  16 -1.844533E+05  2.293451E+04  7.404070E+04 -1.979749E+05  1.876234E-08  6.308153E-09
       228  17 -2.772095E+05  3.148707E+03  6.924393E+04 -2.145319E+05 -4.197505E-09 -3.038458E-09
       228  18 -3.549313E+05 -3.761997E+04  5.879004E+04 -2.500424E+05 -2.246806E-08 -9.200749E-09
       228  19 -1.197593E+06 -3.516001E+05 -1.353764E+05 -4.822214E+05  3.012008E+04 -2.793655E+04
       228  20 -1.118821E+06 -3.053817E+05 -1.016520E+05 -4.486347E+05  1.837800E+04 -2.716392E+04
       228  21 -1.025767E+06 -2.809000E+05 -7.658594E+04 -4.340025E+05  6.125796E+03 -2.503085E+04
       228  22 -6.911517E+05 -1.643430E+05 -3.065850E+04 -3.401518E+05  3.550321E+04 -2.591179E+04
       228  23 -6.981058E+05 -1.511238E+05 -1.619825E+04 -3.316203E+05  2.564707E+04 -2.443252E+04
       228  24 -6.904080E+05 -1.592649E+05 -8.894852E+03 -3.420459E+05  1.528241E+04 -2.159273E+04
       228  25 -1.844513E+05  2.293557E+04  7.404491E+04 -1.979757E+05  4.089102E+04 -2.388523E+04
       228  26 -2.772082E+05  3.149503E+03  6.924685E+04 -2.145325E+05  3.292144E+04 -2.169913E+04
       228  27 -3.549306E+05 -3.761946E+04  5.879178E+04 -2.500428E+05  2.444441E+04 -1.815262E+04
       229   1 -9.655976E+05 -2.598476E+05 -6.196421E+04 -4.179431E+05 -3.706567E+03  2.157191E+04
       229   2 -8.873157E+05 -2.194351E+05 -4.165263E+04 -3.840687E+05  6.788381E+02  1.587669E+04
       229   3 -7.920635E+05 -1.965390E+05 -2.285826E+04 -3.700091E+05  5.097755E+03  1.008916E+04
       229   4 -6.900313E+05 -1.594756E+05 -6.700332E+03 -3.418312E+05 -1.259667E+04  1.823468E+04
       229   5 -6.985105E+05 -1.506672E+05 -3.694836E+03 -3.319436E+05 -8.339235E+03  1.249233E+04
       229   6 -6.900016E+05 -1.593498E+05 -2.104596E+03 -3.418731E+05 -4.048601E+03  6.657599E+03
       229   7 -4.143866E+05 -5.909722E+04  4.856018E+04 -2.656881E+05 -2.149101E+04  1.489587E+04
       229   8 -5.096691E+05 -8.189658E+04  3.426134E+04 -2.798040E+05 -1.736022E+04  9.106878E+03
       229   9 -5.879298E+05 -1.221600E+05  1.864867E+04 -3.137330E+05 -1.319650E+04  3.225466E+03
       229  10 -9.655977E+05 -2.598481E+05 -6.196511E+04 -4.179430E+05  2.382755E-09  8.730803E-10
       229  11 -8.873157E+05 -2.194354E+05 -4.165311E+04 -3.840688E+05  7.522692E-10  5.302091E-10
       229  12 -7.920635E+05 -1.965391E+05 -2.285850E+04 -3.700092E+05 -1.717452E-10  6.157206E-10
       229  13 -6.900316E+05 -1.594760E+05 -6.701255E+03 -3.418310E+05 -3.299910E-10 -1.079589E-10
       229  14 -6.985106E+05 -1.506674E+05 -3.695260E+03 -3.319435E+05  2.193423E-10  2.608217E-10
       229  15 -6.900017E+05 -1.593498E+05 -2.104710E+03 -3.418731E+05  1.279115E-09  7.273831E-10
       229  16 -4.143871E+05 -5.909758E+04  4.855889E+04 -2.656879E+05 -1.193620E-09 -9.240741E-10
       229  17 -5.096694E+05 -8.189675E+04  3.426062E+04 -2.798039E+05 -6.145444E-10 -6.179245E-11
       229  18 -5.879299E+05 -1.221600E+05  1.864832E+04 -3.137329E+05 -2.263820E-10  6.490982E-10
       229  19 -9.655976E+05 -2.598476E+05 -6.196421E+04 -4.179431E+05  3.706567E+03 -2.157191E+04
       229  20 -8.873157E+05 -2.194351E+05 -4.165263E+04 -3.840687E+05 -6.788381E+02 -1.587669E+04
       229  21 -7.920635E+05 -1.965390E+05 -2.285826E+04 -3.700091E+05 -5.097755E+03 -1.008916E+04
       229  22 -6.900313E+05 -1.594756E+05 -6.700332E+03 -3.418312E+05  1.259667E+04 -1.823468E+04
       229  23 -6.985105E+05 -1.506672E+05 -3.694836E+03 -3.319436E+05  8.339235E+03 -1.249233E+04
       229  24 -6.900016E+05 -1.593498E+05 -2.104596E+03 -3.418731E+05  4.048601E+03 -6.657599E+03
       229  25 -4.143866E+05 -5.909722E+04  4.856018E+04 -2.656881E+05  2.149101E+04 -1.489587E+04
       229  26 -5.096691E+05 -8.189658E+04  3.426134E+04 -2.798040E+05  1.736022E+04 -9.106878E+03
       229  27 -5.879298E+05 -1.221600E+05  1.864867E+04 -3.137330E+05  1.319650E+04 -3.225466E+03
       230   1 -7.326315E+05 -1.748164E+05 -9.952835E+03 -3.536135E+05  6.827284E+03  6.374345E+03
       230   2 -6.544553E+05 -1.345578E+05  7.793020E+03 -3.196681E+05  9.829755E+03  1.485530E+01
       230   3 -5.590470E+05 -1.116125E+05  2.513513E+04 -3.055361E+05  1.283424E+04 -6.349030E+03
       230   4 -6.899543E+05 -1.593571E+05 -1.636450E+03 -3.418549E+05 -2.303033E+03  2.949013E+03
       230   5 -6.985688E+05 -1.507111E+05 -1.071288E+03 -3.319428E+05  6.925180E+02 -3.413318E+03
       230   6 -6.899595E+05 -1.593786E+05 -9.050623E+02 -3.418477E+05  3.689987E+03 -9.780045E+03
       230   7 -6.472746E+05 -1.438975E+05  6.680311E+03 -3.300954E+05 -1.143410E+04 -4.765965E+02
       230   8 -7.426803E+05 -1.668642E+05 -9.935385E+03 -3.442165E+05 -8.444060E+03 -6.841242E+03
       230   9 -8.208540E+05 -2.071432E+05 -2.694572E+04 -3.781522E+05 -5.452194E+03 -1.321028E+04
       230  10 -7.326315E+05 -1.748165E+05 -9.953000E+03 -3.536135E+05  3.836088E-10  7.190933E-10
       230  11 -6.544554E+05 -1.345578E+05  7.792839E+03 -3.196681E+05 -9.741459E-10  5.589248E-11
       230  12 -5.590472E+05 -1.116126E+05  2.513475E+04 -3.055361E+05 -3.957351E-10  3.886972E-10
       230  13 -6.899543E+05 -1.593571E+05 -1.636476E+03 -3.418549E+05 -5.925878E-10  5.053249E-10
       230  14 -6.985688E+05 -1.507111E+05 -1.071311E+03 -3.319427E+05 -3.590609E-10  2.301574E-10
       230  15 -6.899595E+05 -1.593787E+05 -9.052676E+02 -3.418477E+05 -3.410368E-10  2.379925E-10
       230  16 -6.472748E+05 -1.438975E+05  6.680064E+03 -3.300954E+05 -5.035076E-10  3.818556E-10
       230  17 -7.426804E+05 -1.668642E+05 -9.935607E+03 -3.442166E+05 -8.630447E-11  4.604946E-10
       230  18 -8.208541E+05 -2.071434E+05 -2.694610E+04 -3.781523E+05  3.090700E-10  3.832920E-11
       230  19 -7.326315E+05 -1.748164E+05 -9.952835E+03 -3.536135E+05 -6.827284E+03 -6.374345E+03
       230  20 -6.544553E+05 -1.345578E+05  7.793020E+03 -3.196681E+05 -9.829755E+03 -1.485530E+01
       230  21 -5.590470E+05 -1.116125E+05  2.513513E+04 -3.055361E+05 -1.283424E+04  6.349030E+03
       230  22 -6.899543E+05 -1.593571E+05 -1.636450E+03 -3.418549E+05  2.303033E+03 -2.949013E+03
       230  23 -6.985688E+05 -1.507111E+05 -1.071288E+03 -3.319428E+05 -6.925180E+02  3.413318E+03
       230  24 -6.899595E+05 -1.593786E+05 -9.050623E+02 -3.418477E+05 -3.689987E+03  9.780045E+03
       230  25 -6.472746E+05 -1.438975E+05  6.680311E+03 -3.300954E+05  1.143410E+04  4.765965E+02
       230  26 -7.426803E+05 -1.668642E+05 -9.935385E+03 -3.442165E+05  8.444060E+03  6.841242E+03
       230  27 -8.208540E+05 -2.071432E+05 -2.694572E+04 -3.781522E+05  5.452194E+03  1.321028E+04
       231   1 -4.997097E+05 -8.986616E+04  3.752891E+04 -2.891262E+05  1.442083E+04 -1.011490E+04
       231   2 -4.216156E+05 -4.963964E+04  5.434147E+04 -2.552038E+05  1.750562E+04 -1.644106E+04
       231   3 -3.263062E+05 -2.670865E+04  7.069211E+04 -2.410710E+05  2.058755E+04 -2.275429E+04
       231   4 -6.899689E+05 -1.593793E+05 -9.422725E+02 -3.418430E+05  5.278777E+03 -1.354554E+04
       231   5 -6.985804E+05 -1.507396E+05 -1.283837E+03 -3.319460E+05  8.380148E+03 -1.986681E+04
       231   6 -6.899872E+05 -1.593998E+05 -2.100422E+03 -3.418421E+05  1.147857E+04 -2.617519E+04
       231   7 -8.801891E+05 -2.288886E+05 -3.941447E+04 -3.945444E+05 -3.860186E+03 -1.697503E+04
       231   8 -9.754658E+05 -2.518330E+05 -5.691253E+04 -4.086566E+05 -7.409493E+02 -2.329092E+04
       231   9 -1.053534E+06 -2.920805E+05 -7.489980E+04 -4.425593E+05  2.375247E+03 -2.959396E+04
       231  10 -4.997100E+05 -8.986632E+04  3.752833E+04 -2.891261E+05 -6.235450E-10  4.480875E-10
       231  11 -4.216160E+05 -4.964001E+04  5.434039E+04 -2.552036E+05 -1.026951E-10  1.378777E-10
       231  12 -3.263068E+05 -2.670932E+04  7.069034E+04 -2.410707E+05  1.013707E-10 -2.749083E-10
       231  13 -6.899690E+05 -1.593795E+05 -9.426695E+02 -3.418430E+05  8.487210E-10  2.487504E-10
       231  14 -6.985806E+05 -1.507401E+05 -1.284710E+03 -3.319459E+05  2.254435E-09 -8.569379E-11
       231  15 -6.899875E+05 -1.594005E+05 -2.101957E+03 -3.418418E+05 -1.791703E-10 -3.284183E-10
       231  16 -8.801892E+05 -2.288890E+05 -3.941504E+04 -3.945445E+05  5.247554E-10 -2.804099E-10
       231  17 -9.754660E+05 -2.518336E+05 -5.691355E+04 -4.086566E+05  1.941976E-09  2.868541E-10
       231  18 -1.053535E+06 -2.920815E+05 -7.490145E+04 -4.425592E+05 -1.997426E-10  6.059678E-10
       231  19 -4.997097E+05 -8.986616E+04  3.752891E+04 -2.891262E+05 -1.442083E+04  1.011490E+04
       231  20 -4.216156E+05 -4.963964E+04  5.434147E+04 -2.552038E+05 -1.750562E+04  1.644106E+04
       231  21 -3.263062E+05 -2.670865E+04  7.069211E+04 -2.410710E+05 -2.058755E+04  2.275429E+04
       231  22 -6.899689E+05 -1.593793E+05 -9.422725E+02 -3.418430E+05 -5.278777E+03  1.354554E+04
       231  23 -6.985804E+05 -1.507396E+05 -1.283837E+03 -3.319460E+05 -8.380148E+03  1.986681E+04
       231  24 -6.899872E+05 -1.593998E+05 -2.100422E+03 -3.418421E+05 -1.147857E+04  2.617519E+04
       231  25 -8.801891E+05 -2.288886E+05 -3.941447E+04 -3.945444E+05  3.860186E+03  1.697503E+04
       231  26 -9.754658E+05 -2.518330E+05 -5.691253E+04 -4.086566E+05  7.409493E+02  2.329092E+04
       231  27 -1.053534E+06 -2.920805E+05 -7.489980E+04 -4.425593E+05 -2.375247E+03  2.959396E+04
       232   1 -2.671121E+05 -5.010070E+03  8.245762E+04 -2.247248E+05  2.244082E+04 -2.641166E+04
       232   2 -1.891005E+05  3.514418E+04  9.747028E+04 -1.908617E+05  2.713049E+04 -3.205098E+04
       232   3 -9.417300E+04  5.783172E+04  1.107655E+05 -1.767388E+05  3.177328E+04 -3.755538E+04
       232   4 -6.900638E+05 -1.593915E+05 -2.742217E+03 -3.418561E+05  1.331387E+04 -2.984045E+04
       232   5 -6.985310E+05 -1.507428E+05 -4.888618E+03 -3.319520E+05  1.818796E+04 -3.541294E+04
       232   6 -6.901256E+05 -1.595992E+05 -8.899482E+03 -3.417925E+05  2.301479E+04 -4.085055E+04
       232   7 -1.112831E+06 -3.137575E+05 -8.795045E+04 -4.589136E+05  4.193611E+03 -3.326673E+04
       232   8 -1.207691E+06 -3.366065E+05 -1.072592E+05 -4.729348E+05  9.253352E+03 -3.877194E+04
       232   9 -1.285707E+06 -3.769978E+05 -1.285800E+05 -5.066985E+05  1.426541E+04 -4.414232E+04
       232  10 -2.671128E+05 -5.010954E+03  8.245536E+04 -2.247244E+05 -1.186279E-09 -8.269922E-11
       232  11 -1.891016E+05  3.514288E+04  9.746696E+04 -1.908610E+05 -1.204707E-10  4.200107E-10
       232  12 -9.417446E+04  5.782993E+04  1.107609E+05 -1.767378E+05  1.148212E-09  9.318968E-10
       232  13 -6.900642E+05 -1.593925E+05 -2.744222E+03 -3.418558E+05 -1.061546E-09  1.091864E-09
       232  14 -6.985316E+05 -1.507442E+05 -4.891595E+03 -3.319515E+05 -7.276341E-10 -6.239528E-11
       232  15 -6.901266E+05 -1.596012E+05 -8.903611E+03 -3.417917E+05  1.241443E-09 -5.717868E-10
       232  16 -1.112831E+06 -3.137587E+05 -8.795256E+04 -4.589135E+05  5.624077E-10  9.430050E-10
       232  17 -1.207692E+06 -3.366082E+05 -1.072622E+05 -4.729345E+05  6.521352E-10 -5.971109E-10
       232  18 -1.285707E+06 -3.769999E+05 -1.285841E+05 -5.066980E+05 -1.310666E-09  1.033303E-10
       232  19 -2.671121E+05 -5.010070E+03  8.245762E+04 -2.247248E+05 -2.244082E+04  2.641166E+04
       232  20 -1.891005E+05  3.514418E+04  9.747028E+04 -1.908617E+05 -2.713049E+04  3.205098E+04
       232  21 -9.417300E+04  5.783172E+04  1.107655E+05 -1.767388E+05 -3.177328E+04  3.755538E+04
       232  22 -6.900638E+05 -1.593915E+05 -2.742217E+03 -3.418561E+05 -1.331387E+04  2.984045E+04
       232  23 -6.985310E+05 -1.507428E+05 -4.888618E+03 -3.319520E+05 -1.818796E+04  3.541294E+04
       232  24 -6.901256E+05 -1.595992E+05 -8.899482E+03 -3.417925E+05 -2.301479E+04  4.085055E+04
       232  25 -1.112831E+06 -3.137575E+05 -8.795045E+04 -4.589136E+05 -4.193611E+03  3.326673E+04
       232  26 -1.207691E+06 -3.366065E+05 -1.072592E+05 -4.729348E+05 -9.253352E+03  3.877194E+04
       232  27 -1.285707E+06 -3.769978E+05 -1.285800E+05 -5.066985E+05 -1.426541E+04  4.414232E+04
       233   1 -3.494134E+04  7.916534E+04  1.202163E+05 -1.613560E+05  3.524177E+04 -4.060116E+04
       233   2  4.219222E+04  1.199544E+05  1.284094E+05 -1.254427E+05  4.551968E+04 -4.311749E+04
       233   3  1.336157E+05  1.386727E+05  1.292195E+05 -1.080710E+05  5.507932E+04 -4.370935E+04
       233   4 -6.906321E+05 -1.593164E+05 -1.182112E+04 -3.420648E+05  2.610882E+04 -4.403879E+04
       233   5 -6.980110E+05 -1.514017E+05 -2.154907E+04 -3.315282E+05  3.905357E+04 -4.555581E+04
       233   6 -6.916411E+05 -1.660946E+05 -4.078262E+04 -3.395390E+05  5.127836E+04 -4.514759E+04
       233   7 -1.345885E+06 -3.977643E+05 -1.438808E+05 -5.225992E+05  1.698616E+04 -4.747260E+04
       233   8 -1.437653E+06 -4.227112E+05 -1.715356E+05 -5.373873E+05  3.259571E+04 -4.799101E+04
       233   9 -1.516199E+06 -4.708014E+05 -2.108202E+05 -5.707220E+05  4.748283E+04 -4.658376E+04
       233  10 -3.494311E+04  7.916324E+04  1.202108E+05 -1.613549E+05 -8.831040E-10  1.245898E-10
       233  11  4.218950E+04  1.199518E+05  1.284020E+05 -1.254411E+05 -7.575774E-10  4.187071E-10
       233  12  1.336119E+05  1.386699E+05  1.292102E+05 -1.080690E+05 -8.164257E-10  1.822525E-09
       233  13 -6.906334E+05 -1.593187E+05 -1.182604E+04 -3.420639E+05  1.061630E-09 -4.612776E-10
       233  14 -6.980132E+05 -1.514044E+05 -2.155584E+04 -3.315268E+05 -4.382294E-10  9.594212E-10
       233  15 -6.916445E+05 -1.660975E+05 -4.079139E+04 -3.395371E+05  1.297296E-09  7.054356E-10
       233  16 -1.345886E+06 -3.977668E+05 -1.438856E+05 -5.225985E+05  1.979548E-09  3.078200E-10
       233  17 -1.437655E+06 -4.227140E+05 -1.715419E+05 -5.373860E+05 -3.890044E-10  1.662354E-10
       233  18 -1.516202E+06 -4.708043E+05 -2.108286E+05 -5.707203E+05 -6.931108E-10 -8.939461E-12
       233  19 -3.494134E+04  7.916534E+04  1.202163E+05 -1.613560E+05 -3.524177E+04  4.060116E+04
       233  20  4.219222E+04  1.199544E+05  1.284094E+05 -1.254427E+05 -4.551968E+04  4.311749E+04
       233  21  1.336157E+05  1.386727E+05  1.292195E+05 -1.080710E+05 -5.507932E+04  4.370935E+04
       233  22 -6.906321E+05 -1.593164E+05 -1.182112E+04 -3.420648E+05 -2.610882E+04  4.403879E+04
       233  23 -6.980110E+05 -1.514017E+05 -2.154907E+04 -3.315282E+05 -3.905357E+04  4.555581E+04
       233  24 -6.916411E+05 -1.660946E+05 -4.078262E+04 -3.395390E+05 -5.127836E+04  4.514759E+04
       233  25 -1.345885E+06 -3.977643E+05 -1.438808E+05 -5.225992E+05 -1.698616E+04  4.747260E+04
       233  26 -1.437653E+06 -4.227112E+05 -1.715356E+05 -5.373873E+05 -3.259571E+04  4.799101E+04
       233  27 -1.516199E+06 -4.708014E+05 -2.108202E+05 -5.707220E+05 -4.748283E+04  4.658376E+04
       234   1  2.007091E+05  1.534608E+05  1.291732E+05 -1.125736E+05  6.857920E+04 -4.313316E+04
       234   2  2.465445E+05  2.140261E+05  1.135160E+05 -1.575746E+04  7.762710E+04 -3.101093E+04
       234   3  2.629282E+05  1.429718E+05  5.714953E+04  9.421516E+04  7.572862E+04  1.015201E+04
       234   4 -6.984095E+05 -1.593990E+05 -5.329866E+04 -3.448260E+05  5.892936E+04 -4.677272E+04
       234   5 -6.917844E+05 -1.747224E+05 -9.952986E+04 -3.193498E+05  1.083916E+05 -1.943699E+04
       234   6 -7.227073E+05 -3.298111E+05 -2.185713E+05 -2.807058E+05  1.468939E+05  3.695714E+04
       234   7 -1.596699E+06 -4.722100E+05 -2.358104E+05 -5.767762E+05  4.929456E+04 -5.040728E+04
       234   8 -1.629199E+06 -5.633286E+05 -3.126245E+05 -6.224927E+05  1.391055E+05 -7.887444E+03
       234   9 -1.707332E+06 -8.023231E+05 -4.943516E+05 -6.550149E+05  2.179339E+05  6.368559E+04
       234  10  2.007035E+05  1.534576E+05  1.291609E+05 -1.125712E+05 -1.134559E-09  1.549196E-09
       234  11  2.465378E+05  2.140234E+05  1.135028E+05 -1.575552E+04  8.874654E-10  1.907885E-09
       234  12  2.629220E+05  1.429702E+05  5.713857E+04  9.421454E+04  1.333714E-09  1.452157E-10
       234  13 -6.984138E+05 -1.594023E+05 -5.330929E+04 -3.448238E+05  1.835334E-09  9.583323E-10
       234  14 -6.917971E+05 -1.747260E+05 -9.955267E+04 -3.193481E+05  4.471538E-09 -5.186123E-09
       234  15 -7.227309E+05 -3.298184E+05 -2.186145E+05 -2.807102E+05  4.189007E-10  5.341784E-09
       234  16 -1.596702E+06 -4.722134E+05 -2.358198E+05 -5.767742E+05  1.482895E-10 -2.842727E-10
       234  17 -1.629220E+06 -5.633339E+05 -3.126611E+05 -6.224919E+05 -8.257086E-10  3.125535E-09
       234  18 -1.707384E+06 -8.023403E+05 -4.944487E+05 -6.550261E+05 -9.752775E-10  5.380565E-10
       234  19  2.007091E+05  1.534608E+05  1.291732E+05 -1.125736E+05 -6.857920E+04  4.313316E+04
       234  20  2.465445E+05  2.140261E+05  1.135160E+05 -1.575746E+04 -7.762710E+04  3.101093E+04
       234  21  2.629282E+05  1.429718E+05  5.714953E+04  9.421516E+04 -7.572862E+04 -1.015201E+04
       234  22 -6.984095E+05 -1.593990E+05 -5.329866E+04 -3.448260E+05 -5.892936E+04  4.677272E+04
       234  23 -6.917844E+05 -1.747224E+05 -9.952986E+04 -3.193498E+05 -1.083916E+05  1.943699E+04
       234  24 -7.227073E+05 -3.298111E+05 -2.185713E+05 -2.807058E+05 -1.468939E+05 -3.695714E+04
       234  25 -1.596699E+06 -4.722100E+05 -2.358104E+05 -5.767762E+05 -4.929456E+04  5.040728E+04
       234  26 -1.629199E+06 -5.633286E+05 -3.126245E+05 -6.224927E+05 -1.391055E+05  7.887444E+03
       234  27 -1.707332E+06 -8.023231E+05 -4.943516E+05 -6.550149E+05 -2.179339E+05 -6.368559E+04
       235   1  1.349732E+06  1.862498E+05  1.633893E+05  1.391407E+04  9.195484E+03 -1.567527E+04
       235   2  1.286437E+06  2.301682E+05  1.590277E+05  3.445829E+04 -7.419654E+03 -5.227080E+04
       235   3  1.213431E+06  2.262721E+05  1.535778E+05  7.068254E+04 -2.407987E+04 -6.196785E+04
       235   4  2.583851E+05 -8.306404E+04 -9.394522E+04  6.212039E+04 -6.527163E+04 -1.582206E+04
       235   5  2.667447E+05 -1.428847E+04 -4.502157E+04  5.418782E+04 -4.181486E+04 -5.235217E+04
       235   6  2.584173E+05 -3.247451E+02 -2.500569E+04  6.193721E+04 -1.840437E+04 -6.196213E+04
       235   7 -8.318515E+05 -3.524510E+05 -3.513397E+05  1.102411E+05 -1.396087E+05 -1.598053E+04
       235   8 -7.519531E+05 -2.588067E+05 -2.491187E+05  7.388380E+04 -7.615474E+04 -5.243580E+04
       235   9 -6.957154E+05 -2.269740E+05 -2.036283E+05  5.320510E+04 -1.273735E+04 -6.195657E+04
       235  10  1.349732E+06  1.862495E+05  1.633887E+05  1.391418E+04 -1.288961E-09 -4.745640E-10
       235  11  1.286436E+06  2.301652E+05  1.590224E+05  3.445798E+04  1.002206E-08 -4.050254E-09
       235  12  1.213429E+06  2.262679E+05  1.535695E+05  7.068133E+04  2.182046E-08 -3.339972E-09
       235  13  2.583805E+05 -8.306545E+04 -9.395369E+04  6.211955E+04 -4.641639E-10  1.505472E-09
       235  14  2.667421E+05 -1.429189E+04 -4.503001E+04  5.418606E+04 -2.688447E-09 -2.892109E-09
       235  15  2.584159E+05 -3.289592E+02 -2.501354E+04  6.193629E+04  5.733743E-10  8.259468E-10
       235  16 -8.318726E+05 -3.524565E+05 -3.513769E+05  1.102393E+05  1.043283E-10  1.360912E-10
       235  17 -7.519601E+05 -2.588112E+05 -2.491348E+05  7.388059E+04 -1.179613E-08 -6.576263E-09
       235  18 -6.957166E+05 -2.269782E+05 -2.036358E+05  5.320447E+04 -2.182142E-08 -5.924124E-09
       235  19  1.349732E+06  1.862498E+05  1.633893E+05  1.391407E+04 -9.195484E+03  1.567527E+04
       235  20  1.286437E+06  2.301682E+05  1.590277E+05  3.445829E+04  7.419654E+03  5.227080E+04
       235  21  1.213431E+06  2.262721E+05  1.535778E+05  7.068254E+04  2.407987E+04  6.196785E+04
       235  22  2.583851E+05 -8.306404E+04 -9.394522E+04  6.212039E+04  6.527163E+04  1.582206E+04
       235  23  2.667447E+05 -1.428847E+04 -4.502157E+04  5.418782E+04  4.181486E+04  5.235217E+04
       235  24  2.584173E+05 -3.247451E+02 -2.500569E+04  6.193721E+04  1.840437E+04  6.196213E+04
       235  25 -8.318515E+05 -3.524510E+05 -3.513397E+05  1.102411E+05  1.396087E+05  1.598053E+04
       235  26 -7.519531E+05 -2.588067E+05 -2.491187E+05  7.388380E+04  7.615474E+04  5.243580E+04
       235  27 -6.957154E+05 -2.269740E+05 -2.036283E+05  5.320510E+04  1.273735E+04  6.195657E+04
       236   1  1.170283E+06  2.122724E+05  1.500538E+05  6.288406E+04 -1.634075E+04 -5.955481E+04
       236   2  1.103029E+06  1.986056E+05  1.434595E+05  5.513479E+04 -1.404104E+04 -5.773380E+04
       236   3  1.034996E+06  1.830627E+05  1.349013E+05  6.460837E+04 -1.174915E+04 -5.390094E+04
       236   4  2.618535E+05 -3.110378E+03 -1.920972E+04  6.231061E+04 -1.511891E+04 -5.955917E+04
       236   5  2.625226E+05 -1.766708E+02 -1.060690E+04  5.369371E+04 -9.827767E+03 -5.772932E+04
       236   6  2.618891E+05  3.603995E+02 -6.046708E+03  6.230115E+04 -4.544141E+03 -5.388628E+04
       236   7 -6.457785E+05 -2.185406E+05 -1.885085E+05  6.173750E+04 -1.389880E+04 -5.956353E+04
       236   8 -5.772985E+05 -1.989989E+05 -1.647021E+05  5.225416E+04 -5.620033E+03 -5.772486E+04
       236   9 -5.106374E+05 -1.823755E+05 -1.470186E+05  5.999646E+04  2.652151E+03 -5.387166E+04
       236  10  1.170282E+06  2.122685E+05  1.500467E+05  6.288328E+04 -2.777901E-08 -4.369693E-09
       236  11  1.103028E+06  1.986019E+05  1.434528E+05  5.513414E+04 -1.231054E-08  2.528369E-09
       236  12  1.034995E+06  1.830595E+05  1.348956E+05  6.460786E+04  4.975292E-09  3.144589E-09
       236  13  2.618523E+05 -3.114249E+03 -1.921682E+04  6.230988E+04 -4.030493E-10 -2.362145E-09
       236  14  2.625216E+05 -1.802758E+02 -1.061335E+04  5.369325E+04 -2.156492E-09  9.242440E-10
       236  15  2.618883E+05  3.572755E+02 -6.052204E+03  6.230095E+04  7.874574E-10 -1.764624E-09
       236  16 -6.457797E+05 -2.185444E+05 -1.885155E+05  6.173683E+04  2.735266E-08  1.375255E-09
       236  17 -5.772994E+05 -1.990025E+05 -1.647084E+05  5.225389E+04  9.745926E-09  3.042302E-09
       236  18 -5.106381E+05 -1.823787E+05 -1.470240E+05  5.999657E+04 -4.214725E-09  1.145356E-09
       236  19  1.170283E+06  2.122724E+05  1.500538E+05  6.288406E+04  1.634075E+04  5.955481E+04
       236  20  1.103029E+06  1.986056E+05  1.434595E+05  5.513479E+04  1.404104E+04  5.773380E+04
       236  21  1.034996E+06  1.830627E+05  1.349013E+05  6.460837E+04  1.174915E+04  5.390094E+04
       236  22  2.618535E+05 -3.110378E+03 -1.920972E+04  6.231061E+04  1.511891E+04  5.955917E+04
       236  23  2.625226E+05 -1.766708E+02 -1.060690E+04  5.369371E+04  9.827767E+03  5.772932E+04
       236  24  2.618891E+05  3.603995E+02 -6.046708E+03  6.230115E+04  4.544141E+03  5.388628E+04
       236  25 -6.457785E+05 -2.185406E+05 -1.885085E+05  6.173750E+04  1.389880E+04  5.956353E+04
       236  26 -5.772985E+05 -1.989989E+05 -1.647021E+05  5.225416E+04  5.620033E+03  5.772486E+04
       236  27 -5.106374E+05 -1.823755E+05 -1.470186E+05  5.999646E+04 -2.652151E+03  5.387166E+04
       237   1  9.898203E+05  1.721399E+05  1.277503E+05  6.415595E+04 -1.048172E+04 -5.107155E+04
       237   2  9.224266E+05  1.562513E+05  1.174084E+05  5.535814E+04 -9.421010E+03 -4.638716E+04
       237   3  8.548385E+05  1.403988E+05  1.063677E+05  6.386693E+04 -8.363433E+03 -4.155459E+04
       237   4  2.621393E+05  2.356905E+02 -4.592440E+03  6.232142E+04 -3.614610E+03 -5.105662E+04
       237   5  2.622723E+05  3.027415E+02 -2.607563E+03  5.366740E+04 -2.334828E+03 -4.636976E+04
       237   6  2.621682E+05  3.679254E+02 -1.474470E+03  6.232105E+04 -1.058066E+03 -4.153465E+04
       237   7 -4.650273E+05 -1.716983E+05 -1.369562E+05  6.048872E+04  3.244680E+03 -5.104172E+04
       237   8 -3.974585E+05 -1.556703E+05 -1.226408E+05  5.197817E+04  4.744034E+03 -4.635240E+04
       237   9 -3.301610E+05 -1.396827E+05 -1.093305E+05  6.077642E+04  6.240525E+03 -4.151474E+04
       237  10  9.898195E+05  1.721371E+05  1.277452E+05  6.415552E+04 -3.737534E-09  4.901221E-09
       237  11  9.224259E+05  1.562489E+05  1.174042E+05  5.535778E+04  6.495548E-10  3.934377E-09
       237  12  8.548380E+05  1.403969E+05  1.063643E+05  6.386665E+04  5.755271E-09 -8.081877E-10
       237  13  2.621386E+05  2.328874E+02 -4.597364E+03  6.232127E+04  5.842059E-10 -2.520803E-09
       237  14  2.622718E+05  3.004309E+02 -2.611614E+03  5.366731E+04  1.066406E-09  3.923191E-09
       237  15  2.621677E+05  3.660724E+02 -1.477714E+03  6.232102E+04  3.687854E-09  5.427060E-09
       237  16 -4.650280E+05 -1.717011E+05 -1.369611E+05  6.048885E+04  3.764795E-09  3.300106E-09
       237  17 -3.974591E+05 -1.556726E+05 -1.226449E+05  5.197835E+04 -5.227887E-10  5.266350E-09
       237  18 -3.301615E+05 -1.396845E+05 -1.093338E+05  6.077662E+04 -5.045205E-09  5.541589E-10
       237  19  9.898203E+05  1.721399E+05  1.277503E+05  6.415595E+04  1.048172E+04  5.107155E+04
       237  20  9.224266E+05  1.562513E+05  1.174084E+05  5.535814E+04  9.421010E+03  4.638716E+04
       237  21  8.548385E+05  1.403988E+05  1.063677E+05  6.386693E+04  8.363433E+03  4.155459E+04
       237  22  2.621393E+05  2.356905E+02 -4.592440E+03  6.232142E+04  3.614610E+03  5.105662E+04
       237  23  2.622723E+05  3.027415E+02 -2.607563E+03  5.366740E+04  2.334828E+03  4.636976E+04
       237  24  2.621682E+05  3.679254E+02 -1.474470E+03  6.232105E+04  1.058066E+03  4.153465E+04
       237  25 -4.650273E+05 -1.716983E+05 -1.369562E+05  6.048872E+04 -3.244680E+03  5.104172E+04
       237  26 -3.974585E+05 -1.556703E+05 -1.226408E+05  5.197817E+04 -4.744034E+03  4.635240E+04
       237  27 -3.301610E+05 -1.396827E+05 -1.093305E+05  6.077642E+04 -6.240525E+03  4.151474E+04
       238   1  8.096105E+05  1.296488E+05  9.819790E+04  6.374768E+04 -8.109713E+03 -3.869953E+04
       238   2  7.422781E+05  1.137189E+05  8.661012E+04  5.494470E+04 -7.842751E+03 -3.380900E+04
       238   3  6.748343E+05  9.790466E+04  7.484809E+04  6.343101E+04 -7.577763E+03 -2.890941E+04
       238   4  2.622046E+05  3.701949E+02 -1.104712E+03  6.231724E+04 -8.326431E+02 -3.867871E+04
       238   5  2.622747E+05  3.285548E+02 -5.946815E+02  5.367220E+04 -5.528482E+02 -3.378677E+04
       238   6  2.622257E+05  4.001817E+02 -2.683460E+02  6.231720E+04 -2.749987E+02 -2.888576E+04
       238   7 -2.849100E+05 -1.289252E+05 -1.004190E+05  6.088785E+04  6.438193E+03 -3.865792E+04
       238   8 -2.175047E+05 -1.130747E+05 -8.780847E+04  5.240051E+04  6.731577E+03 -3.376457E+04
       238   9 -1.502175E+05 -9.711386E+04 -7.539141E+04  6.120402E+04  7.023048E+03 -2.886214E+04
       238  10  8.096100E+05  1.296471E+05  9.819496E+04  6.374742E+04 -2.342256E-08 -1.921966E-09
       238  11  7.422777E+05  1.137177E+05  8.660786E+04  5.494449E+04  2.572399E-09  6.944603E-09
       238  12  6.748340E+05  9.790374E+04  7.484642E+04  6.343083E+04  2.715147E-08  7.181271E-09
       238  13  2.622042E+05  3.685881E+02 -1.107525E+03  6.231721E+04 -2.350145E-10  2.182866E-10
       238  14  2.622744E+05  3.273287E+02 -5.968275E+02  5.367218E+04 -9.443101E-10  7.342791E-09
       238  15  2.622254E+05  3.992856E+02 -2.699143E+02  6.231720E+04  1.281691E-09  5.334266E-10
       238  16 -2.849105E+05 -1.289268E+05 -1.004219E+05  6.088805E+04  2.229162E-08  1.379723E-11
       238  17 -2.175050E+05 -1.130760E+05 -8.781070E+04  5.240069E+04 -1.833338E-09 -2.617466E-10
       238  18 -1.502177E+05 -9.711476E+04 -7.539307E+04  6.120418E+04 -2.652052E-08 -1.889712E-09
       238  19  8.096105E+05  1.296488E+05  9.819790E+04  6.374768E+04  8.109713E+03  3.869953E+04
       238  20  7.422781E+05  1.137189E+05  8.661012E+04  5.494470E+04  7.842751E+03  3.380900E+04
       238  21  6.748343E+05  9.790466E+04  7.484809E+04  6.343101E+04  7.577763E+03  2.890941E+04
       238  22  2.622046E+05  3.701949E+02 -1.104712E+03  6.231724E+04  8.326431E+02  3.867871E+04
       238  23  2.622747E+05  3.285548E+02 -5.946815E+02  5.367220E+04  5.528482E+02  3.378677E+04
       238  24  2.622257E+05  4.001817E+02 -2.683460E+02  6.231720E+04  2.749987E+02  2.888576E+04
       238  25 -2.849100E+05 -1.289252E+05 -1.004190E+05  6.088785E+04 -6.438193E+03  3.865792E+04
       238  26 -2.175047E+05 -1.130747E+05 -8.780847E+04  5.240051E+04 -6.731577E+03  3.376457E+04
       238  27 -1.502175E+05 -9.711386E+04 -7.539141E+04  6.120402E+04 -7.023048E+03  2.886214E+04
       239   1  6.296457E+05  8.717251E+04  6.644428E+04  6.331810E+04 -7.545812E+03 -2.605566E+04
       239   2  5.623793E+05  7.124965E+04  5.459380E+04  5.451539E+04 -7.593679E+03 -2.115625E+04
       239   3  4.950144E+05  5.544924E+04  4.276735E+04  6.299068E+04 -7.642725E+03 -1.626066E+04
       239   4  2.622367E+05  4.066965E+02 -1.456427E+02  6.231464E+04 -2.467385E+02 -2.603136E+04
       239   5  2.622938E+05  3.541556E+02  7.624265E+01  5.367540E+04 -3.005943E+02 -2.113113E+04
       239   6  2.622498E+05  4.255482E+02  3.265079E+02  6.231462E+04 -3.556332E+02 -1.623470E+04
       239   7 -1.050410E+05 -8.636666E+04 -6.674072E+04  6.131168E+04  7.048138E+03 -2.600709E+04
       239   8 -3.770418E+04 -7.054637E+04 -5.444470E+04  5.283574E+04  6.989064E+03 -2.110602E+04
       239   9  2.953806E+04 -5.460117E+04 -4.211632E+04  6.163879E+04  6.928802E+03 -1.620875E+04
       239  10  6.296455E+05  8.717176E+04  6.644290E+04  6.331794E+04  1.391355E-08  9.917334E-10
       239  11  5.623792E+05  7.124915E+04  5.459285E+04  5.451526E+04  7.289050E-09 -2.537134E-09
       239  12  4.950142E+05  5.544894E+04  4.276674E+04  6.299058E+04 -1.785225E-09 -3.822388E-09
       239  13  2.622365E+05  4.059688E+02 -1.469164E+02  6.231464E+04  2.181589E-09  8.842044E-09
       239  14  2.622937E+05  3.536760E+02  7.540328E+01  5.367539E+04  1.713648E-09 -9.435108E-11
       239  15  2.622498E+05  4.252651E+02  3.260124E+02  6.231462E+04  2.786278E-09 -2.004335E-09
       239  16 -1.050413E+05 -8.636740E+04 -6.674208E+04  6.131183E+04 -1.420573E-08  3.650884E-09
       239  17 -3.770435E+04 -7.054686E+04 -5.444563E+04  5.283586E+04 -7.370718E-09 -3.203620E-09
       239  18  2.953794E+04 -5.460147E+04 -4.211690E+04  6.163888E+04  1.558066E-09 -5.034189E-09
       239  19  6.296457E+05  8.717251E+04  6.644428E+04  6.331810E+04  7.545812E+03  2.605566E+04
       239  20  5.623793E+05  7.124965E+04  5.459380E+04  5.451539E+04  7.593679E+03  2.115625E+04
       239  21  4.950144E+05  5.544924E+04  4.276735E+04  6.299068E+04  7.642725E+03  1.626066E+04
       239  22  2.622367E+05  4.066965E+02 -1.456427E+02  6.231464E+04  2.467385E+02  2.603136E+04
       239  23  2.622938E+05  3.541556E+02  7.624265E+01  5.367540E+04  3.005943E+02  2.113113E+04
       239  24  2.622498E+05  4.255482E+02  3.265079E+02  6.231462E+04  3.556332E+02  1.623470E+04
       239  25 -1.050410E+05 -8.636666E+04 -6.674072E+04  6.131168E+04 -7.048138E+03  2.600709E+04
       239  26 -3.770418E+04 -7.054637E+04 -5.444470E+04  5.283574E+04 -6.989064E+03  2.110602E+04
       239  27  2.953806E+04 -5.460117E+04 -4.211632E+04  6.163879E+04 -6.928802E+03  1.620875E+04
       240   1  4.498704E+05  4.471838E+04  3.440136E+04  6.287648E+04 -7.731932E+03 -1.340969E+04
       240   2  3.826251E+05  2.878586E+04  2.275336E+04  5.407977E+04 -8.137189E+03 -8.535172E+03
       240   3  3.153217E+05  1.300800E+04  1.136608E+04  6.254837E+04 -8.542725E+03 -3.705821E+03
       240   4  2.622648E+05  4.261516E+02  4.817521E+02  6.231179E+04 -4.389928E+02 -1.338335E+04
       240   5  2.622928E+05  3.596945E+02  9.203258E+02  5.367898E+04 -9.117979E+02 -8.508741E+03
       240   6  2.622700E+05  4.598028E+02  1.666413E+03  6.231167E+04 -1.384921E+03 -3.679296E+03
       240   7  7.469348E+04 -4.386802E+04 -3.343904E+04  6.174724E+04  6.851805E+03 -1.335702E+04
       240   8  1.419747E+05 -2.806725E+04 -2.091309E+04  5.327826E+04  6.312232E+03 -8.482317E+03
       240   9  2.092211E+05 -1.208852E+04 -8.033175E+03  6.207499E+04  5.772287E+03 -3.652774E+03
       240  10  4.498703E+05  4.471817E+04  3.440091E+04  6.287639E+04 -8.669949E-09  2.334662E-09
       240  11  3.826250E+05  2.878576E+04  2.275310E+04  5.407971E+04  1.545782E-08  3.516073E-09
       240  12  3.153216E+05  1.300796E+04  1.136592E+04  6.254834E+04  3.632739E-08  5.602610E-09
       240  13  2.622647E+05  4.259592E+02  4.814151E+02  6.231178E+04  9.418496E-10 -1.187226E-09
       240  14  2.622928E+05  3.596165E+02  9.201882E+02  5.367897E+04 -1.084973E-09  3.855803E-09
       240  15  2.622700E+05  4.597877E+02  1.666384E+03  6.231167E+04  2.092939E-09  5.493713E-09
       240  16  7.469339E+04 -4.386822E+04 -3.343946E+04  6.174731E+04  9.105882E-09  1.142756E-09
       240  17  1.419746E+05 -2.806734E+04 -2.091330E+04  5.327830E+04 -1.658923E-08 -1.023863E-08
       240  18  2.092210E+05 -1.208855E+04 -8.033263E+03  6.207500E+04 -3.716456E-08  1.613498E-09
       240  19  4.498704E+05  4.471838E+04  3.440136E+04  6.287648E+04  7.731932E+03  1.340969E+04
       240  20  3.826251E+05  2.878586E+04  2.275336E+04  5.407977E+04  8.137189E+03  8.535172E+03
       240  21  3.153217E+05  1.300800E+04  1.136608E+04  6.254837E+04  8.542725E+03  3.705821E+03
       240  22  2.622648E+05  4.261516E+02  4.817521E+02  6.231179E+04  4.389928E+02  1.338335E+04
       240  23  2.622928E+05  3.596945E+02  9.203258E+02  5.367898E+04  9.117979E+02  8.508741E+03
       240  24  2.622700E+05  4.598028E+02  1.666413E+03  6.231167E+04  1.384921E+03  3.679296E+03
       240  25  7.469348E+04 -4.386802E+04 -3.343904E+04  6.174724E+04 -6.851805E+03  1.335702E+04
       240  26  1.419747E+05 -2.806725E+04 -2.091309E+04  5.327826E+04 -6.312232E+03  8.482317E+03
       240  27  2.092211E+05 -1.208852E+04 -8.033175E+03  6.207499E+04 -5.772287E+03  3.652774E+03
       241   1  2.702508E+05  2.221150E+03  3.370930E+03  6.256707E+04 -8.991706E+03 -8.664420E+02
       241   2  2.028817E+05 -1.359295E+04 -7.314247E+03  5.343827E+04 -1.005588E+04  3.706329E+03
       241   3  1.357238E+05 -2.851584E+04 -1.712540E+04  6.153613E+04 -1.111761E+04  7.682890E+03
       241   4  2.623617E+05  4.085570E+02  2.205697E+03  6.230389E+04 -1.735992E+03 -8.394985E+02
       241   5  2.621804E+05  5.040983E+02  3.880220E+03  5.368836E+04 -3.688147E+03  3.729820E+03
       241   6  2.623587E+05  1.644787E+03  7.044673E+03  6.229930E+04 -5.637953E+03  7.702965E+03
       241   7  2.544728E+05 -1.404010E+03  1.040660E+03  6.204072E+04  5.519635E+03 -8.125610E+02
       241   8  3.214826E+05  1.460096E+04  1.507469E+04  5.393846E+04  2.680178E+03  3.753314E+03
       241   9  3.890092E+05  3.180449E+04  3.121413E+04  6.306262E+04 -1.572077E+02  7.723050E+03
       241  10  2.702507E+05  2.221127E+03  3.370777E+03  6.256706E+04 -4.735682E-08  1.057207E-08
       241  11  2.028816E+05 -1.359299E+04 -7.314463E+03  5.343830E+04 -1.777827E-08  8.060794E-10
       241  12  1.357236E+05 -2.851594E+04 -1.712574E+04  6.153620E+04  1.815003E-08  3.944764E-09
       241  13  2.623617E+05  4.085554E+02  2.205690E+03  6.230389E+04  1.026838E-09  6.629508E-09
       241  14  2.621804E+05  5.040797E+02  3.880169E+03  5.368837E+04 -2.175029E-09  7.480080E-09
       241  15  2.623587E+05  1.644715E+03  7.044502E+03  6.229934E+04  1.578661E-09 -1.382889E-09
       241  16  2.544728E+05 -1.404019E+03  1.040601E+03  6.204073E+04  4.698890E-08  6.245507E-09
       241  17  3.214826E+05  1.460095E+04  1.507465E+04  5.393845E+04  1.637684E-08 -4.488326E-10
       241  18  3.890092E+05  3.180443E+04  3.121402E+04  6.306262E+04 -1.756545E-08 -8.947596E-09
       241  19  2.702508E+05  2.221150E+03  3.370930E+03  6.256707E+04  8.991706E+03  8.664420E+02
       241  20  2.028817E+05 -1.359295E+04 -7.314247E+03  5.343827E+04  1.005588E+04 -3.706329E+03
       241  21  1.357238E+05 -2.851584E+04 -1.712540E+04  6.153613E+04  1.111761E+04 -7.682890E+03
       241  22  2.623617E+05  4.085570E+02  2.205697E+03  6.230389E+04  1.735992E+03  8.394985E+02
       241  23  2.621804E+05  5.040983E+02  3.880220E+03  5.368836E+04  3.688147E+03 -3.729820E+03
       241  24  2.623587E+05  1.644787E+03  7.044673E+03  6.229930E+04  5.637953E+03 -7.702965E+03
       241  25  2.544728E+05 -1.404010E+03  1.040660E+03  6.204072E+04 -5.519635E+03  8.125610E+02
       241  26  3.214826E+05  1.460096E+04  1.507469E+04  5.393846E+04 -2.680178E+03 -3.753314E+03
       241  27  3.890092E+05  3.180449E+04  3.121413E+04  6.306262E+04  1.572077E+02 -7.723050E+03
       242   1  9.148316E+04 -4.037471E+04 -2.373774E+04  6.431084E+04 -1.364814E+04  1.038553E+04
       242   2  2.220757E+04 -5.188825E+04 -3.241292E+04  4.529519E+04 -1.036913E+04  1.098263E+04
       242   3 -4.306339E+04 -4.513760E+04 -3.868583E+04  4.298183E+04 -7.062691E+03  3.617437E+03
       242   4  2.636221E+05  6.083178E+02  9.174472E+03  6.220143E+04 -6.855470E+03  1.041028E+04
       242   5  2.605876E+05  5.636079E+03  1.651180E+04  5.379629E+04 -1.542672E+04  1.096389E+04
       242   6  2.636083E+05  3.098097E+04  3.447749E+04  6.209222E+04 -2.397047E+04  3.556704E+03
       242   7  4.357896E+05  4.158964E+04  4.208552E+04  6.009139E+04 -6.096167E+01  1.043498E+04
       242   8  4.990217E+05  6.315710E+04  6.543362E+04  6.230065E+04 -2.048620E+04  1.094501E+04
       242   9  5.703676E+05  1.070942E+05  1.076355E+05  8.121202E+04 -4.088656E+04  3.494946E+03
       242  10  9.148293E+04 -4.037487E+04 -2.373829E+04  6.431096E+04 -5.561063E-09  4.656973E-09
       242  11  2.220742E+04 -5.188841E+04 -3.241335E+04  4.529529E+04 -1.962483E-09 -3.979192E-09
       242  12 -4.306345E+04 -4.513762E+04 -3.868595E+04  4.298185E+04  1.667647E-09 -1.475487E-09
       242  13  2.636220E+05  6.081888E+02  9.174180E+03  6.220149E+04  2.220788E-09  7.462365E-09
       242  14  2.605873E+05  5.635886E+03  1.651112E+04  5.379642E+04  3.643011E-10 -6.520954E-09
       242  15  2.636077E+05  3.098081E+04  3.447639E+04  6.209229E+04  1.251933E-09  5.541322E-09
       242  16  4.357896E+05  4.158952E+04  4.208531E+04  6.009139E+04  4.988964E-09  4.019544E-10
       242  17  4.990212E+05  6.315686E+04  6.543260E+04  6.230083E+04  8.586761E-10  2.293380E-09
       242  18  5.703658E+05  1.070938E+05  1.076323E+05  8.121213E+04 -1.992998E-09 -1.132946E-09
       242  19  9.148316E+04 -4.037471E+04 -2.373774E+04  6.431084E+04  1.364814E+04 -1.038553E+04
       242  20  2.220757E+04 -5.188825E+04 -3.241292E+04  4.529519E+04  1.036913E+04 -1.098263E+04
       242  21 -4.306339E+04 -4.513760E+04 -3.868583E+04  4.298183E+04  7.062691E+03 -3.617437E+03
       242  22  2.636221E+05  6.083178E+02  9.174472E+03  6.220143E+04  6.855470E+03 -1.041028E+04
       242  23  2.605876E+05  5.636079E+03  1.651180E+04  5.379629E+04  1.542672E+04 -1.096389E+04
       242  24  2.636083E+05  3.098097E+04  3.447749E+04  6.209222E+04  2.397047E+04 -3.556704E+03
       242  25  4.357896E+05  4.158964E+04  4.208552E+04  6.009139E+04  6.096167E+01 -1.043498E+04
       242  26  4.990217E+05  6.315710E+04  6.543362E+04  6.230065E+04  2.048620E+04 -1.094501E+04
       242  27  5.703676E+05  1.070942E+05  1.076355E+05  8.121202E+04  4.088656E+04 -3.494946E+03
       243   1  2.131243E+05  1.642768E+06  2.148662E+05 -1.804128E+05  6.998070E+03  7.376758E+04
       243   2  1.234457E+05  1.477516E+06  1.310565E+05 -1.412965E+05  2.109071E+04  3.166157E+04
       243   3  7.585146E+04  1.328113E+06  8.511193E+04 -1.413966E+05  1.879941E+04 -1.046370E+04
       243   4  5.724134E+04  1.013441E+06  6.466764E+04 -1.450892E+05  7.070862E+03  4.065600E+04
       243   5  1.017014E+04  1.007673E+06  3.424629E+04 -1.255412E+05  2.111128E+04  2.299246E+04
       243   6  9.669584E+02  1.013514E+06  2.476135E+04 -1.452063E+05  1.876475E+04  5.298694E+03
       243   7 -9.866505E+04  3.844803E+05 -8.555398E+04 -1.098013E+05  7.139936E+03  7.577736E+03
       243   8 -1.031184E+05  5.380397E+05 -6.257538E+04 -1.097978E+05  2.113141E+04  1.432977E+04
       243   9 -7.392319E+04  6.990104E+05 -3.559283E+04 -1.490139E+05  1.872989E+04  2.105330E+04
       243  10  2.131228E+05  1.642762E+06  2.148559E+05 -1.804132E+05 -6.325808E-10 -4.706720E-10
       243  11  1.234450E+05  1.477514E+06  1.310538E+05 -1.412970E+05 -8.305899E-10 -5.354633E-09
       243  12  7.585105E+04  1.328113E+06  8.511106E+04 -1.413965E+05 -7.294269E-10  7.472422E-10
       243  13  5.724084E+04  1.013439E+06  6.466445E+04 -1.450894E+05  7.123112E-10  1.377583E-10
       243  14  1.016952E+04  1.007672E+06  3.424446E+04 -1.255415E+05 -2.062285E-09 -4.092163E-09
       243  15  9.665726E+02  1.013514E+06  2.476063E+04 -1.452064E+05 -4.034062E-10  5.084689E-09
       243  16 -9.866513E+04  3.844803E+05 -8.555419E+04 -1.098013E+05  9.849672E-10 -1.762550E-09
       243  17 -1.031190E+05  5.380393E+05 -6.257660E+04 -1.097980E+05  2.127231E-09  5.736422E-10
       243  18 -7.392369E+04  6.990098E+05 -3.559433E+04 -1.490143E+05  4.940300E-10  5.419995E-09
       243  19  2.131243E+05  1.642768E+06  2.148662E+05 -1.804128E+05 -6.998070E+03 -7.376758E+04
       243  20  1.234457E+05  1.477516E+06  1.310565E+05 -1.412965E+05 -2.109071E+04 -3.166157E+04
       243  21  7.585146E+04  1.328113E+06  8.511193E+04 -1.413966E+05 -1.879941E+04  1.046370E+04
       243  22  5.724134E+04  1.013441E+06  6.466764E+04 -1.450892E+05 -7.070862E+03 -4.065600E+04
       243  23  1.017014E+04  1.007673E+06  3.424629E+04 -1.255412E+05 -2.111128E+04 -2.299246E+04
       243  24  9.669584E+02  1.013514E+06  2.476135E+04 -1.452063E+05 -1.876475E+04 -5.298694E+03
       243  25 -9.866505E+04  3.844803E+05 -8.555398E+04 -1.098013E+05 -7.139936E+03 -7.577736E+03
       243  26 -1.031184E+05  5.380397E+05 -6.257538E+04 -1.097978E+05 -2.113141E+04 -1.432977E+04
       243  27 -7.392319E+04  6.990104E+05 -3.559283E+04 -1.490139E+05 -1.872989E+04 -2.105330E+04
       244   1  5.226783E+04  1.220014E+06  6.361578E+04 -1.477444E+05  1.245837E+04 -1.177896E+04
       244   2  1.347433E+04  1.061323E+06  3.570816E+04 -1.251509E+05  3.528391E+03 -2.518243E+04
       244   3 -1.879503E+04  9.058273E+05  1.809375E+04 -1.427025E+05 -5.585812E+03 -3.858358E+04
       244   4  2.635770E+03  1.011636E+06  2.362840E+04 -1.453963E+05  1.242848E+04  1.435081E+03
       244   5  1.350955E+03  1.010075E+06  2.627323E+04 -1.253195E+05  3.497679E+03 -1.169403E+04
       244   6  6.543880E+03  1.011636E+06  3.902096E+04 -1.453874E+05 -5.617312E+03 -2.482403E+04
       244   7 -4.699874E+04  8.032997E+05 -1.636033E+04 -1.430489E+05  1.239868E+04  1.464479E+04
       244   8 -1.077247E+04  9.588294E+05  1.683888E+04 -1.254880E+05  3.466958E+03  1.793284E+03
       244   9  3.188223E+04  1.117456E+06  5.994833E+04 -1.480727E+05 -5.648927E+03 -1.106219E+04
       244  10  5.226763E+04  1.220014E+06  6.361523E+04 -1.477443E+05 -2.155060E-09 -6.192319E-10
       244  11  1.347415E+04  1.061323E+06  3.570695E+04 -1.251508E+05 -6.793800E-10 -5.059858E-09
       244  12 -1.879546E+04  9.058257E+05  1.809090E+04 -1.427027E+05 -9.801553E-10  1.572881E-09
       244  13  2.635603E+03  1.011636E+06  2.362810E+04 -1.453963E+05 -5.537457E-10 -9.494646E-12
       244  14  1.350906E+03  1.010075E+06  2.627295E+04 -1.253194E+05  3.392816E-10 -4.674031E-09
       244  15  6.543681E+03  1.011636E+06  3.901974E+04 -1.453875E+05 -9.726179E-10  4.848661E-09
       244  16 -4.699896E+04  8.032994E+05 -1.636102E+04 -1.430490E+05 -1.073905E-09 -1.805647E-09
       244  17 -1.077249E+04  9.588294E+05  1.683885E+04 -1.254880E+05  3.081169E-09  1.315294E-10
       244  18  3.188217E+04  1.117456E+06  5.994804E+04 -1.480728E+05  1.793657E-09  3.983891E-09
       244  19  5.226783E+04  1.220014E+06  6.361578E+04 -1.477444E+05 -1.245837E+04  1.177896E+04
       244  20  1.347433E+04  1.061323E+06  3.570816E+04 -1.251509E+05 -3.528391E+03  2.518243E+04
       244  21 -1.879503E+04  9.058273E+05  1.809375E+04 -1.427025E+05  5.585812E+03  3.858358E+04
       244  22  2.635770E+03  1.011636E+06  2.362840E+04 -1.453963E+05 -1.242848E+04 -1.435081E+03
       244  23  1.350955E+03  1.010075E+06  2.627323E+04 -1.253195E+05 -3.497679E+03  1.169403E+04
       244  24  6.543880E+03  1.011636E+06  3.902096E+04 -1.453874E+05  5.617312E+03  2.482403E+04
       244  25 -4.699874E+04  8.032997E+05 -1.636033E+04 -1.430489E+05 -1.239868E+04 -1.464479E+04
       244  26 -1.077247E+04  9.588294E+05  1.683888E+04 -1.254880E+05 -3.466958E+03 -1.793284E+03
       244  27  3.188223E+04  1.117456E+06  5.994833E+04 -1.480727E+05  5.648927E+03  1.106219E+04
       245   1 -4.903472E+04  8.058785E+05  7.427462E+03 -1.576440E+05 -1.194899E+04 -4.731629E+04
       245   2 -6.206348E+04  6.352029E+05  7.373922E+03 -8.544011E+04 -1.561376E+04 -7.010463E+04
       245   3  2.249494E+04  4.917540E+05  4.650963E+04 -5.252386E+04 -5.390575E+03 -9.285932E+04
       245   4  1.479260E+03  1.017778E+06  4.865065E+04 -1.452473E+05 -1.198590E+04 -3.145751E+04
       245   5  2.679559E+04  1.002344E+06  8.384282E+04 -1.254486E+05 -1.559795E+04 -7.495431E+04
       245   6  1.532458E+05  1.017668E+06  1.725676E+05 -1.449245E+05 -5.321965E+03 -1.184240E+05
       245   7  5.199128E+04  1.229722E+06  8.987274E+04 -1.328463E+05 -1.202216E+04 -1.559345E+04
       245   8  1.156520E+05  1.369617E+06  1.603052E+05 -1.654810E+05 -1.558152E+04 -7.980680E+04
       245   9  2.840088E+05  1.543855E+06  2.986130E+05 -2.374035E+05 -5.245789E+03 -1.440101E+05
       245  10 -4.903547E+04  8.058760E+05  7.422991E+03 -1.576444E+05 -2.494964E-11  1.555600E-09
       245  11 -6.206506E+04  6.351975E+05  7.364237E+03 -8.544099E+04  2.990860E-09 -4.498717E-09
       245  12  2.249260E+04  4.917447E+05  4.649339E+04 -5.252426E+04  7.268107E-10 -1.770367E-10
       245  13  1.478841E+03  1.017777E+06  4.864852E+04 -1.452476E+05  2.626874E-09 -1.126592E-10
       245  14  2.679382E+04  1.002338E+06  8.383182E+04 -1.254495E+05 -8.004998E-10 -3.891459E-09
       245  15  1.532420E+05  1.017653E+06  1.725413E+05 -1.449250E+05  4.388788E-10  5.136212E-09
       245  16  5.199106E+04  1.229722E+06  8.987202E+04 -1.328464E+05  7.022249E-10 -4.068652E-09
       245  17  1.156500E+05  1.369610E+06  1.602928E+05 -1.654820E+05  3.929334E-09 -5.303765E-10
       245  18  2.840032E+05  1.543833E+06  2.985741E+05 -2.374041E+05  1.143178E-09  5.595872E-09
       245  19 -4.903472E+04  8.058785E+05  7.427462E+03 -1.576440E+05  1.194899E+04  4.731629E+04
       245  20 -6.206348E+04  6.352029E+05  7.373922E+03 -8.544011E+04  1.561376E+04  7.010463E+04
       245  21  2.249494E+04  4.917540E+05  4.650963E+04 -5.252386E+04  5.390575E+03  9.285932E+04
       245  22  1.479260E+03  1.017778E+06  4.865065E+04 -1.452473E+05  1.198590E+04  3.145751E+04
       245  23  2.679559E+04  1.002344E+06  8.384282E+04 -1.254486E+05  1.559795E+04  7.495431E+04
       245  24  1.532458E+05  1.017668E+06  1.725676E+05 -1.449245E+05  5.321965E+03  1.184240E+05
       245  25  5.199128E+04  1.229722E+06  8.987274E+04 -1.328463E+05  1.202216E+04  1.559345E+04
       245  26  1.156520E+05  1.369617E+06  1.603052E+05 -1.654810E+05  1.558152E+04  7.980680E+04
       245  27  2.840088E+05  1.543855E+06  2.986130E+05 -2.374035E+05  5.245789E+03  1.440101E+05
       246   1  1.446623E+06  4.568036E+05  2.279874E+05  5.090663E+05  5.380269E+04  2.996230E+03
       246   2  1.373899E+06  4.399868E+05  1.867730E+05  4.827508E+05  3.621294E+04 -4.315303E+04
       246   3  1.288056E+06  4.275869E+05  1.656395E+05  4.760355E+05  8.440351E+03 -6.227728E+04
       246   4  4.452143E+05  9.409175E+04 -2.950812E+04  2.482804E+05 -1.332781E+04 -2.233046E+04
       246   5  4.571709E+05  1.070992E+05 -1.346069E+04  2.341552E+05  6.813431E+03 -5.425850E+04
       246   6  4.485323E+05  1.170492E+05 -7.196069E+03  2.396328E+05  1.675909E+04 -5.914306E+04
       246   7 -5.551850E+05 -2.685600E+05 -2.870582E+05 -1.212404E+04 -8.033768E+04 -4.761538E+04
       246   8 -4.586926E+05 -2.257222E+05 -2.137371E+05 -1.410307E+04 -2.253870E+04 -6.534677E+04
       246   9 -3.902675E+05 -1.934243E+05 -1.800676E+05  3.525957E+03  2.506573E+04 -5.601349E+04
       246  10  1.446620E+06  4.568028E+05  2.279819E+05  5.090662E+05 -2.974439E-09  1.215823E-10
       246  11  1.373897E+06  4.399844E+05  1.867670E+05  4.827521E+05 -5.665921E-10  1.045324E-09
       246  12  1.288055E+06  4.275827E+05  1.656321E+05  4.760359E+05  2.566638E-09  1.445022E-10
       246  13  4.452140E+05  9.409117E+04 -2.950939E+04  2.482802E+05 -5.873848E-10  4.764405E-09
       246  14  4.571701E+05  1.070961E+05 -1.346631E+04  2.341555E+05 -5.033050E-10  1.125137E-09
       246  15  4.485311E+05  1.170454E+05 -7.203172E+03  2.396336E+05  7.836985E-09 -1.264835E-09
       246  16 -5.551925E+05 -2.685642E+05 -2.870746E+05 -1.212713E+04  1.639212E-09  2.839905E-09
       246  17 -4.586943E+05 -2.257269E+05 -2.137461E+05 -1.410426E+04  3.811689E-09 -4.140151E-10
       246  18 -3.902690E+05 -1.934278E+05 -1.800746E+05  3.527088E+03  7.807346E-09  5.623391E-09
       246  19  1.446623E+06  4.568036E+05  2.279874E+05  5.090663E+05 -5.380269E+04 -2.996230E+03
       246  20  1.373899E+06  4.399868E+05  1.867730E+05  4.827508E+05 -3.621294E+04  4.315303E+04
       246  21  1.288056E+06  4.275869E+05  1.656395E+05  4.760355E+05 -8.440351E+03  6.227728E+04
       246  22  4.452143E+05  9.409175E+04 -2.950812E+04  2.482804E+05  1.332781E+04  2.233046E+04
       246  23  4.571709E+05  1.070992E+05 -1.346069E+04  2.341552E+05 -6.813431E+03  5.425850E+04
       246  24  4.485323E+05  1.170492E+05 -7.196069E+03  2.396328E+05 -1.675909E+04  5.914306E+04
       246  25 -5.551850E+05 -2.685600E+05 -2.870582E+05 -1.212404E+04  8.033768E+04  4.761538E+04
       246  26 -4.586926E+05 -2.257222E+05 -2.137371E+05 -1.410307E+04  2.253870E+04  6.534677E+04
       246  27 -3.902675E+05 -1.934243E+05 -1.800676E+05  3.525957E+03 -2.506573E+04  5.601349E+04
       247   1  1.238854E+06  4.061806E+05  1.565955E+05  4.605949E+05  1.345196E+04 -5.650303E+04
       247   2  1.172205E+06  3.723848E+05  1.418128E+05  4.317950E+05  1.134242E+04 -5.395348E+04
       247   3  1.090987E+06  3.530506E+05  1.277281E+05  4.198006E+05  8.559825E+03 -4.963201E+04
       247   4  4.491585E+05  1.164617E+05 -5.506948E+03  2.406701E+05  1.630877E+04 -5.543080E+04
       247   5  4.567775E+05  1.099706E+05 -2.914286E+03  2.320876E+05  1.667166E+04 -5.194495E+04
       247   6  4.493332E+05  1.174520E+05 -1.582208E+03  2.403101E+05  1.636099E+04 -4.668609E+04
       247   7 -3.399046E+05 -1.732062E+05 -1.676434E+05  2.100083E+04  1.916171E+04 -5.436005E+04
       247   8 -2.581265E+05 -1.524000E+05 -1.476676E+05  3.259163E+04  2.199433E+04 -4.993891E+04
       247   9 -1.918966E+05 -1.181101E+05 -1.309125E+05  6.099088E+04  2.415351E+04 -4.374344E+04
       247  10  1.238853E+06  4.061771E+05  1.565891E+05  4.605956E+05  1.059800E-08  1.726548E-09
       247  11  1.172204E+06  3.723816E+05  1.418071E+05  4.317955E+05  2.672934E-09 -1.497948E-09
       247  12  1.090986E+06  3.530479E+05  1.277233E+05  4.198009E+05 -5.538237E-09 -1.803208E-09
       247  13  4.491574E+05  1.164584E+05 -5.513223E+03  2.406708E+05  5.679867E-09  3.231733E-09
       247  14  4.567765E+05  1.099676E+05 -2.919880E+03  2.320883E+05  1.184944E-09 -1.426312E-09
       247  15  4.493323E+05  1.174496E+05 -1.586808E+03  2.403108E+05 -1.921913E-09 -9.640121E-10
       247  16 -3.399058E+05 -1.732095E+05 -1.676496E+05  2.100167E+04  1.269296E-09  9.371888E-11
       247  17 -2.581277E+05 -1.524028E+05 -1.476732E+05  3.259252E+04  8.245502E-10 -5.788658E-10
       247  18 -1.918978E+05 -1.181123E+05 -1.309172E+05  6.099173E+04  5.884341E-09  7.200313E-10
       247  19  1.238854E+06  4.061806E+05  1.565955E+05  4.605949E+05 -1.345196E+04  5.650303E+04
       247  20  1.172205E+06  3.723848E+05  1.418128E+05  4.317950E+05 -1.134242E+04  5.395348E+04
       247  21  1.090987E+06  3.530506E+05  1.277281E+05  4.198006E+05 -8.559825E+03  4.963201E+04
       247  22  4.491585E+05  1.164617E+05 -5.506948E+03  2.406701E+05 -1.630877E+04  5.543080E+04
       247  23  4.567775E+05  1.099706E+05 -2.914286E+03  2.320876E+05 -1.667166E+04  5.194495E+04
       247  24  4.493332E+05  1.174520E+05 -1.582208E+03  2.403101E+05 -1.636099E+04  4.668609E+04
       247  25 -3.399046E+05 -1.732062E+05 -1.676434E+05  2.100083E+04 -1.916171E+04  5.436005E+04
       247  26 -2.581265E+05 -1.524000E+05 -1.476676E+05  3.259163E+04 -2.199433E+04  4.993891E+04
       247  27 -1.918966E+05 -1.181101E+05 -1.309125E+05  6.099088E+04 -2.415351E+04  4.374344E+04
       248   1  1.040742E+06  3.344305E+05  1.175879E+05  4.057241E+05  7.922143E+03 -4.616258E+04
       248   2  9.746379E+05  3.002066E+05  1.034351E+05  3.768576E+05  6.047536E+03 -4.071989E+04
       248   3  8.938355E+05  2.807160E+05  8.917655E+04  3.646708E+05  4.127968E+03 -3.516644E+04
       248   4  4.493926E+05  1.174371E+05 -1.185173E+03  2.403544E+05  1.535552E+04 -4.335432E+04
       248   5  4.567806E+05  1.101288E+05 -6.307697E+02  2.320048E+05  1.363547E+04 -3.785110E+04
       248   6  4.494329E+05  1.175236E+05 -3.054781E+02  2.403340E+05  1.187046E+04 -3.223702E+04
       248   7 -1.415922E+05 -9.952351E+04 -1.199738E+05  7.513145E+04  2.278124E+04 -4.054897E+04
       248   8 -6.080030E+04 -7.992511E+04 -1.047095E+05  8.726356E+04  2.121662E+04 -3.498488E+04
       248   9  5.230191E+03 -4.565260E+04 -8.979792E+04  1.160784E+05  1.960706E+04 -2.930983E+04
       248  10  1.040742E+06  3.344282E+05  1.175838E+05  4.057244E+05  1.789434E-10 -4.150167E-10
       248  11  9.746374E+05  3.002048E+05  1.034319E+05  3.768578E+05 -2.157219E-10 -5.926848E-09
       248  12  8.938351E+05  2.807147E+05  8.917419E+04  3.646709E+05 -2.382309E-09 -6.244359E-09
       248  13  4.493918E+05  1.174350E+05 -1.189149E+03  2.403549E+05 -5.251708E-10 -5.496371E-09
       248  14  4.567800E+05  1.101273E+05 -6.338123E+02  2.320052E+05 -1.100544E-09 -1.002198E-08
       248  15  4.494324E+05  1.175224E+05 -3.076963E+02  2.403343E+05 -1.994458E-09  4.550599E-09
       248  16 -1.415932E+05 -9.952541E+04 -1.199778E+05  7.513220E+04 -1.773348E-09  6.005742E-10
       248  17 -6.080111E+04 -7.992655E+04 -1.047127E+05  8.726416E+04 -3.301477E-09  2.151087E-09
       248  18  5.229548E+03 -4.565363E+04 -8.980026E+04  1.160788E+05  3.349335E-10  5.541528E-09
       248  19  1.040742E+06  3.344305E+05  1.175879E+05  4.057241E+05 -7.922143E+03  4.616258E+04
       248  20  9.746379E+05  3.002066E+05  1.034351E+05  3.768576E+05 -6.047536E+03  4.071989E+04
       248  21  8.938355E+05  2.807160E+05  8.917655E+04  3.646708E+05 -4.127968E+03  3.516644E+04
       248  22  4.493926E+05  1.174371E+05 -1.185173E+03  2.403544E+05 -1.535552E+04  4.335432E+04
       248  23  4.567806E+05  1.101288E+05 -6.307697E+02  2.320048E+05 -1.363547E+04  3.785110E+04
       248  24  4.494329E+05  1.175236E+05 -3.054781E+02  2.403340E+05 -1.187046E+04  3.223702E+04
       248  25 -1.415922E+05 -9.952351E+04 -1.199738E+05  7.513145E+04 -2.278124E+04  4.054897E+04
       248  26 -6.080030E+04 -7.992511E+04 -1.047095E+05  8.726356E+04 -2.121662E+04  3.498488E+04
       248  27  5.230191E+03 -4.565260E+04 -8.979792E+04  1.160784E+05 -1.960706E+04  2.930983E+04
       249   1  8.437117E+05  2.622517E+05  7.878494E+04  3.506753E+05  2.977527E+03 -3.191129E+04
       249   2  7.778059E+05  2.280739E+05  6.446141E+04  3.218562E+05  8.893750E+02 -2.637838E+04
       249   3  6.972156E+05  2.086046E+05  5.013822E+04  3.096741E+05 -1.201927E+03 -2.084199E+04
       249   4  4.494505E+05  1.175257E+05 -1.992782E+02  2.403272E+05  1.069032E+04 -2.899208E+04
       249   5  4.568067E+05  1.101897E+05 -2.060851E+01  2.320065E+05  8.606924E+03 -2.345608E+04
       249   6  4.494710E+05  1.175606E+05  1.540349E+02  2.403208E+05  6.520374E+03 -1.791660E+04
       249   7  5.534974E+04 -2.718630E+04 -7.919073E+04  1.300438E+05  1.839786E+04 -2.607487E+04
       249   8  1.359152E+05 -7.684856E+03 -6.450701E+04  1.422001E+05  1.632015E+04 -2.053542E+04
       249   9  2.017919E+05  2.652288E+04 -4.983235E+04  1.709937E+05  1.423930E+04 -1.499248E+04
       249  10  8.437114E+05  2.622506E+05  7.878301E+04  3.506754E+05  1.652222E-09 -5.311847E-10
       249  11  7.778057E+05  2.280732E+05  6.446010E+04  3.218562E+05 -2.325978E-09  5.590420E-09
       249  12  6.972154E+05  2.086041E+05  5.013740E+04  3.096741E+05 -5.554410E-09 -3.463599E-09
       249  13  4.494501E+05  1.175248E+05 -2.010730E+02  2.403274E+05 -1.911900E-10 -8.942827E-10
       249  14  4.568065E+05  1.101890E+05 -2.178194E+01  2.320066E+05 -2.446206E-09 -7.181265E-09
       249  15  4.494709E+05  1.175602E+05  1.533516E+02  2.403209E+05  3.251636E-09  8.213840E-09
       249  16  5.534920E+04 -2.718712E+04 -7.919264E+04  1.300442E+05 -4.711548E-09  3.076943E-09
       249  17  1.359148E+05 -7.685380E+03 -6.450831E+04  1.422004E+05  2.032605E-09  4.681234E-09
       249  18  2.017916E+05  2.652259E+04 -4.983316E+04  1.709939E+05  1.179639E-08  9.138625E-09
       249  19  8.437117E+05  2.622517E+05  7.878494E+04  3.506753E+05 -2.977527E+03  3.191129E+04
       249  20  7.778059E+05  2.280739E+05  6.446141E+04  3.218562E+05 -8.893750E+02  2.637838E+04
       249  21  6.972156E+05  2.086046E+05  5.013822E+04  3.096741E+05  1.201927E+03  2.084199E+04
       249  22  4.494505E+05  1.175257E+05 -1.992782E+02  2.403272E+05 -1.069032E+04  2.899208E+04
       249  23  4.568067E+05  1.101897E+05 -2.060851E+01  2.320065E+05 -8.606924E+03  2.345608E+04
       249  24  4.494710E+05  1.175606E+05  1.540349E+02  2.403208E+05 -6.520374E+03  1.791660E+04
       249  25  5.534974E+04 -2.718630E+04 -7.919073E+04  1.300438E+05 -1.839786E+04  2.607487E+04
       249  26  1.359152E+05 -7.684856E+03 -6.450701E+04  1.422001E+05 -1.632015E+04  2.053542E+04
       249  27  2.017919E+05  2.652288E+04 -4.983235E+04  1.709937E+05 -1.423930E+04  1.499248E+04
       250   1  6.471923E+05  1.901641E+05  3.975539E+04  2.957019E+05 -2.452697E+03 -1.763145E+04
       250   2  5.813681E+05  1.560049E+05  2.555982E+04  2.669241E+05 -4.805978E+03 -1.219709E+04
       250   3  5.008931E+05  1.365478E+05  1.155671E+04  2.547682E+05 -7.157874E+03 -6.768161E+03
       250   4  4.494856E+05  1.175629E+05  2.524443E+02  2.403190E+05  5.265435E+03 -1.470709E+04
       250   5  4.568151E+05  1.102106E+05  5.333581E+02  2.320101E+05  2.904361E+03 -9.275164E+03
       250   6  4.494910E+05  1.175620E+05  1.013157E+03  2.403217E+05  5.446402E+02 -3.848683E+03
       250   7  2.518178E+05  4.496457E+04 -3.925258E+04  1.849519E+05  1.298099E+04 -1.178371E+04
       250   8  3.322777E+05  6.441749E+04 -2.449375E+04  1.971025E+05  1.061307E+04 -6.353860E+03
       250   9  3.980918E+05  9.857661E+04 -9.530285E+03  2.258763E+05  8.246470E+03 -9.294667E+02
       250  10  6.471922E+05  1.901637E+05  3.975479E+04  2.957019E+05  1.104883E-08  4.660875E-09
       250  11  5.813681E+05  1.560048E+05  2.555949E+04  2.669241E+05  3.181402E-09  3.375995E-09
       250  12  5.008930E+05  1.365477E+05  1.155653E+04  2.547682E+05 -2.435658E-10 -3.291862E-10
       250  13  4.494856E+05  1.175626E+05  2.519857E+02  2.403190E+05  2.067840E-09  3.469126E-09
       250  14  4.568151E+05  1.102105E+05  5.331806E+02  2.320102E+05 -4.246332E-09  2.807086E-09
       250  15  4.494910E+05  1.175620E+05  1.013129E+03  2.403217E+05  7.984997E-10  1.724891E-09
       250  16  2.518175E+05  4.496438E+04 -3.925315E+04  1.849520E+05 -4.695730E-09  7.918933E-09
       250  17  3.322775E+05  6.441742E+04 -2.449404E+04  1.971026E+05 -4.311796E-09 -7.665049E-10
       250  18  3.980917E+05  9.857659E+04 -9.530414E+03  2.258763E+05  1.914756E-09 -5.590272E-09
       250  19  6.471923E+05  1.901641E+05  3.975539E+04  2.957019E+05  2.452697E+03  1.763145E+04
       250  20  5.813681E+05  1.560049E+05  2.555982E+04  2.669241E+05  4.805978E+03  1.219709E+04
       250  21  5.008931E+05  1.365478E+05  1.155671E+04  2.547682E+05  7.157874E+03  6.768161E+03
       250  22  4.494856E+05  1.175629E+05  2.524443E+02  2.403190E+05 -5.265435E+03  1.470709E+04
       250  23  4.568151E+05  1.102106E+05  5.333581E+02  2.320101E+05 -2.904361E+03  9.275164E+03
       250  24  4.494910E+05  1.175620E+05  1.013157E+03  2.403217E+05 -5.446402E+02  3.848683E+03
       250  25  2.518178E+05  4.496457E+04 -3.925258E+04  1.849519E+05 -1.298099E+04  1.178371E+04
       250  26  3.322777E+05  6.441749E+04 -2.449375E+04  1.971025E+05 -1.061307E+04  6.353860E+03
       250  27  3.980918E+05  9.857661E+04 -9.530285E+03  2.258763E+05 -8.246470E+03  9.294667E+02
       251   1  4.509239E+05  1.181290E+05  1.432589E+03  2.408428E+05 -8.588107E+03 -3.627407E+03
       251   2  3.850199E+05  8.395468E+04 -1.194850E+04  2.120832E+05 -1.182104E+04  1.439134E+03
       251   3  3.046248E+05  6.459491E+04 -2.444731E+04  1.999562E+05 -1.502891E+04  6.441280E+03
       251   4  4.495258E+05  1.175576E+05  1.362467E+03  2.403366E+05 -8.732265E+02 -7.031853E+02
       251   5  4.567670E+05  1.101682E+05  2.486299E+03  2.320106E+05 -4.196738E+03  4.328718E+03
       251   6  4.495292E+05  1.176104E+05  4.563886E+03  2.403147E+05 -7.495347E+03  9.296207E+03
       251   7  4.481279E+05  1.169862E+05  1.292604E+03  2.398305E+05  6.841575E+03  2.221003E+03
       251   8  5.285195E+05  1.363822E+05  1.692110E+04  2.519401E+05  3.428514E+03  7.218656E+03
       251   9  5.944564E+05  1.706282E+05  3.357463E+04  2.806821E+05  4.016506E+01  1.215187E+04
       251  10  4.509238E+05  1.181289E+05  1.432426E+03  2.408428E+05  3.703513E-09  1.764705E-09
       251  11  3.850198E+05  8.395464E+04 -1.194877E+04  2.120832E+05  1.331938E-09 -1.678263E-09
       251  12  3.046246E+05  6.459481E+04 -2.444781E+04  1.999563E+05 -5.569617E-09 -4.202549E-09
       251  13  4.495258E+05  1.175576E+05  1.362464E+03  2.403366E+05  6.442345E-10 -2.535132E-09
       251  14  4.567670E+05  1.101682E+05  2.486231E+03  2.320106E+05  1.135212E-09 -2.104936E-09
       251  15  4.495291E+05  1.176103E+05  4.563618E+03  2.403147E+05  4.907062E-10 -1.633488E-09
       251  16  4.481279E+05  1.169862E+05  1.292507E+03  2.398305E+05  4.992693E-10 -4.656170E-09
       251  17  5.285195E+05  1.363821E+05  1.692098E+04  2.519401E+05  2.815548E-09 -1.522708E-08
       251  18  5.944564E+05  1.706281E+05  3.357435E+04  2.806821E+05  7.346167E-09  5.914202E-10
       251  19  4.509239E+05  1.181290E+05  1.432589E+03  2.408428E+05  8.588107E+03  3.627407E+03
       251  20  3.850199E+05  8.395468E+04 -1.194850E+04  2.120832E+05  1.182104E+04 -1.439134E+03
       251  21  3.046248E+05  6.459491E+04 -2.444731E+04  1.999562E+05  1.502891E+04 -6.441280E+03
       251  22  4.495258E+05  1.175576E+05  1.362467E+03  2.403366E+05  8.732265E+02  7.031853E+02
       251  23  4.567670E+05  1.101682E+05  2.486299E+03  2.320106E+05  4.196738E+03 -4.328718E+03
       251  24  4.495292E+05  1.176104E+05  4.563886E+03  2.403147E+05  7.495347E+03 -9.296207E+03
       251  25  4.481279E+05  1.169862E+05  1.292604E+03  2.398305E+05 -6.841575E+03 -2.221003E+03
       251  26  5.285195E+05  1.363822E+05  1.692110E+04  2.519401E+05 -3.428514E+03 -7.218656E+03
       251  27  5.944564E+05  1.706282E+05  3.357463E+04  2.806821E+05 -4.016506E+01 -1.215187E+04
       252   1  2.544965E+05  4.633831E+04 -3.342126E+04  1.865288E+05 -1.730515E+04  9.268995E+03
       252   2  1.887593E+05  1.172960E+04 -4.338296E+04  1.566661E+05 -2.340639E+04  1.273962E+04
       252   3  1.098837E+05 -5.638127E+03 -4.953805E+04  1.429033E+05 -2.913176E+04  1.522331E+04
       252   4  4.497766E+05  1.174656E+05  6.073712E+03  2.404751E+05 -9.570587E+03  1.219971E+04
       252   5  4.564480E+05  1.104004E+05  1.106889E+04  2.317827E+05 -1.705071E+04  1.514680E+04
       252   6  4.502475E+05  1.208473E+05  2.096195E+04  2.391872E+05 -2.415556E+04  1.710699E+04
       252   7  6.450961E+05  1.885962E+05  4.556702E+04  2.944371E+05 -1.833407E+03  1.513139E+04
       252   8  7.242093E+05  2.090773E+05  6.551698E+04  3.069290E+05 -1.069211E+04  1.755509E+04
       252   9  7.907273E+05  2.473422E+05  9.145515E+04  3.355193E+05 -1.917645E+04  1.899179E+04
       252  10  2.544961E+05  4.633814E+04 -3.342198E+04  1.865289E+05 -7.698915E-10 -2.610832E-09
       252  11  1.887587E+05  1.172928E+04 -4.338430E+04  1.566664E+05  9.334853E-09 -3.805099E-09
       252  12  1.098827E+05 -5.638604E+03 -4.954008E+04  1.429036E+05  1.598927E-08  1.079245E-09
       252  13  4.497765E+05  1.174655E+05  6.073260E+03  2.404752E+05 -9.162363E-10 -1.145970E-08
       252  14  4.564476E+05  1.104001E+05  1.106791E+04  2.317830E+05  3.922940E-09  1.081450E-08
       252  15  4.502468E+05  1.208468E+05  2.096030E+04  2.391876E+05  4.569275E-10  9.623982E-10
       252  16  6.450960E+05  1.885959E+05  4.556659E+04  2.944371E+05  3.069829E-09 -5.949639E-09
       252  17  7.242090E+05  2.090769E+05  6.551618E+04  3.069292E+05 -8.267594E-09 -1.060768E-08
       252  18  7.907268E+05  2.473417E+05  9.145378E+04  3.355196E+05 -1.602021E-08 -6.682207E-09
       252  19  2.544965E+05  4.633831E+04 -3.342126E+04  1.865288E+05  1.730515E+04 -9.268995E+03
       252  20  1.887593E+05  1.172960E+04 -4.338296E+04  1.566661E+05  2.340639E+04 -1.273962E+04
       252  21  1.098837E+05 -5.638127E+03 -4.953805E+04  1.429033E+05  2.913176E+04 -1.522331E+04
       252  22  4.497766E+05  1.174656E+05  6.073712E+03  2.404751E+05  9.570587E+03 -1.219971E+04
       252  23  4.564480E+05  1.104004E+05  1.106889E+04  2.317827E+05  1.705071E+04 -1.514680E+04
       252  24  4.502475E+05  1.208473E+05  2.096195E+04  2.391872E+05  2.415556E+04 -1.710699E+04
       252  25  6.450961E+05  1.885962E+05  4.556702E+04  2.944371E+05  1.833407E+03 -1.513139E+04
       252  26  7.242093E+05  2.090773E+05  6.551698E+04  3.069290E+05  1.069211E+04 -1.755509E+04
       252  27  7.907273E+05  2.473422E+05  9.145515E+04  3.355193E+05  1.917645E+04 -1.899179E+04
       253   1  5.542878E+04 -2.053459E+04 -5.368257E+04  1.396697E+05 -3.658561E+04  1.618175E+04
       253   2  5.441241E+03 -6.557214E+04 -5.156335E+04  7.842876E+04 -4.182419E+04  1.218447E+04
       253   3 -3.515562E+04 -3.694039E+04 -2.861697E+04  1.705500E+04 -4.137541E+04 -6.840536E+03
       253   4  4.536944E+05  1.174195E+05  2.740048E+04  2.419461E+05 -2.858303E+04  1.921149E+04
       253   5  4.531774E+05  1.222235E+05  5.113884E+04  2.254578E+05 -5.477458E+04  7.277886E+03
       253   6  4.661795E+05  2.048151E+05  1.123003E+05  2.088387E+05 -7.528281E+04 -1.967911E+04
       253   7  8.521271E+05  2.553844E+05  1.084771E+05  3.442822E+05 -2.057482E+04  2.224309E+04
       253   8  9.011179E+05  3.100515E+05  1.538285E+05  3.725899E+05 -6.773503E+04  2.366345E+03
       253   9  9.677619E+05  4.466350E+05  2.531973E+05  4.007764E+05 -1.092196E+05 -3.253603E+04
       253  10  5.542727E+04 -2.053523E+04 -5.368558E+04  1.396701E+05 -2.162827E-08 -1.392409E-08
       253  11  5.439322E+03 -6.557277E+04 -5.156691E+04  7.842917E+04 -1.098118E-08 -8.491703E-09
       253  12 -3.515747E+04 -3.694090E+04 -2.862028E+04  1.705477E+04  1.173801E-09  8.070137E-11
       253  13  4.536934E+05  1.174189E+05  2.739825E+04  2.419465E+05 -5.715904E-10 -1.587037E-09
       253  14  4.531741E+05  1.222226E+05  5.113311E+04  2.254582E+05 -1.704305E-09 -8.083043E-09
       253  15  4.661733E+05  2.048132E+05  1.122890E+05  2.088375E+05  2.241859E-09 -9.239433E-11
       253  16  8.521265E+05  2.553838E+05  1.084753E+05  3.442826E+05  2.081502E-08  1.308736E-08
       253  17  9.011129E+05  3.100503E+05  1.538198E+05  3.725900E+05  1.024737E-08  6.434333E-09
       253  18  9.677488E+05  4.466307E+05  2.531729E+05  4.007735E+05 -2.115695E-09  6.448278E-09
       253  19  5.542878E+04 -2.053459E+04 -5.368257E+04  1.396697E+05  3.658561E+04 -1.618175E+04
       253  20  5.441241E+03 -6.557214E+04 -5.156335E+04  7.842876E+04  4.182419E+04 -1.218447E+04
       253  21 -3.515562E+04 -3.694039E+04 -2.861697E+04  1.705500E+04  4.137541E+04  6.840536E+03
       253  22  4.536944E+05  1.174195E+05  2.740048E+04  2.419461E+05  2.858303E+04 -1.921149E+04
       253  23  4.531774E+05  1.222235E+05  5.113884E+04  2.254578E+05  5.477458E+04 -7.277886E+03
       253  24  4.661795E+05  2.048151E+05  1.123003E+05  2.088387E+05  7.528281E+04  1.967911E+04
       253  25  8.521271E+05  2.553844E+05  1.084771E+05  3.442822E+05  2.057482E+04 -2.224309E+04
       253  26  9.011179E+05  3.100515E+05  1.538285E+05  3.725899E+05  6.773503E+04 -2.366345E+03
       253  27  9.677619E+05  4.466350E+05  2.531973E+05  4.007764E+05  1.092196E+05  3.253603E+04
       254   1  5.302052E+04 -4.673995E+03 -8.027816E+03 -1.999158E+03 -1.133513E+04 -5.663822E+02
       254   2  4.697497E+04  8.756383E+03 -5.333809E+02  1.099123E+03 -7.914433E+03 -1.597467E+03
       254   3  3.679700E+04  7.548624E+03  1.071440E+03  7.526224E+03 -4.497926E+03 -1.437088E+03
       254   4  9.201818E+03 -1.550228E+04 -1.865640E+04  5.276263E+03 -1.282899E+04 -5.717001E+02
       254   5  1.136267E+04  6.203953E+01 -8.499619E+03  3.583521E+03 -8.321943E+03 -1.598924E+03
       254   6  9.202081E+03  7.990547E+02 -4.987153E+03  5.219649E+03 -3.819031E+03 -1.434706E+03
       254   7 -3.461501E+04 -2.633050E+04 -2.928509E+04  1.255117E+04 -1.432274E+04 -5.770533E+02
       254   8 -2.424843E+04 -8.632366E+03 -1.646593E+04  6.067775E+03 -8.729429E+03 -1.600384E+03
       254   9 -1.839211E+04 -5.950546E+03 -1.104579E+04  2.913178E+03 -3.140165E+03 -1.432329E+03
       254  10  5.302038E+04 -4.674030E+03 -8.028058E+03 -1.999163E+03 -7.827321E-09  2.363729E-09
       254  11  4.697491E+04  8.756363E+03 -5.335034E+02  1.099113E+03 -1.515103E-09  9.894769E-09
       254  12  3.679697E+04  7.548616E+03  1.071398E+03  7.526219E+03  2.274945E-09  4.842969E-09
       254  13  9.201641E+03 -1.550232E+04 -1.865671E+04  5.276257E+03 -1.086636E-09 -4.581785E-09
       254  14  1.136260E+04  6.201819E+01 -8.499754E+03  3.583511E+03  3.761035E-10 -1.314919E-08
       254  15  9.202065E+03  7.990486E+02 -4.987184E+03  5.219645E+03  1.236888E-09  1.351165E-09
       254  16 -3.461523E+04 -2.633055E+04 -2.928547E+04  1.255116E+04  7.331193E-09  7.779767E-10
       254  17 -2.424852E+04 -8.632389E+03 -1.646608E+04  6.067763E+03  1.405067E-09  7.140150E-09
       254  18 -1.839212E+04 -5.950550E+03 -1.104581E+04  2.913174E+03 -2.943491E-09 -1.208868E-09
       254  19  5.302052E+04 -4.673995E+03 -8.027816E+03 -1.999158E+03  1.133513E+04  5.663822E+02
       254  20  4.697497E+04  8.756383E+03 -5.333809E+02  1.099123E+03  7.914433E+03  1.597467E+03
       254  21  3.679700E+04  7.548624E+03  1.071440E+03  7.526224E+03  4.497926E+03  1.437088E+03
       254  22  9.201818E+03 -1.550228E+04 -1.865640E+04  5.276263E+03  1.282899E+04  5.717001E+02
       254  23  1.136267E+04  6.203953E+01 -8.499619E+03  3.583521E+03  8.321943E+03  1.598924E+03
       254  24  9.202081E+03  7.990547E+02 -4.987153E+03  5.219649E+03  3.819031E+03  1.434706E+03
       254  25 -3.461501E+04 -2.633050E+04 -2.928509E+04  1.255117E+04  1.432274E+04  5.770533E+02
       254  26 -2.424843E+04 -8.632366E+03 -1.646593E+04  6.067775E+03  8.729429E+03  1.600384E+03
       254  27 -1.839211E+04 -5.950546E+03 -1.104579E+04  2.913178E+03  3.140165E+03  1.432329E+03
       255   1  3.107429E+04  4.306710E+03  6.614307E+02  4.999033E+03 -3.445241E+03 -1.062675E+03
       255   2  2.319051E+04  3.203642E+03  6.990204E+02  3.532297E+03 -2.420711E+03 -6.683148E+02
       255   3  1.493826E+04  1.276711E+03 -1.430078E+02  5.411029E+03 -1.396402E+03 -2.206653E+02
       255   4  1.007862E+04 -8.149744E+02 -3.963097E+03  5.239754E+03 -3.113078E+03 -1.061518E+03
       255   5  1.026720E+04  5.167332E+01 -2.139882E+03  3.565437E+03 -2.039988E+03 -6.669838E+02
       255   6  1.007868E+04  8.598445E+01 -1.230068E+03  5.236598E+03 -9.671052E+02 -2.191604E+02
       255   7 -1.091663E+04 -5.936689E+03 -8.587650E+03  5.480467E+03 -2.780926E+03 -1.060361E+03
       255   8 -2.655947E+03 -3.100306E+03 -4.978794E+03  3.598576E+03 -1.659272E+03 -6.656527E+02
       255   9  5.219122E+03 -1.104743E+03 -2.317130E+03  5.062168E+03 -5.378117E+02 -2.176557E+02
       255  10  3.107427E+04  4.306706E+03  6.614063E+02  4.999030E+03 -8.909009E-10 -2.446897E-09
       255  11  2.319050E+04  3.203640E+03  6.990085E+02  3.532296E+03  5.007725E-09  2.710851E-09
       255  12  1.493825E+04  1.276710E+03 -1.430115E+02  5.411029E+03  6.414827E-09  7.765646E-09
       255  13  1.007861E+04 -8.149782E+02 -3.963117E+03  5.239752E+03  1.057647E-09  1.153201E-08
       255  14  1.026720E+04  5.167173E+01 -2.139890E+03  3.565436E+03 -1.200540E-09 -2.070319E-08
       255  15  1.007868E+04  8.598415E+01 -1.230070E+03  5.236598E+03  7.313252E-10  7.914635E-09
       255  16 -1.091664E+04 -5.936692E+03 -8.587667E+03  5.480465E+03 -1.294689E-10 -1.080703E-08
       255  17 -2.655950E+03 -3.100307E+03 -4.978800E+03  3.598575E+03 -2.857050E-09 -4.578952E-09
       255  18  5.219122E+03 -1.104743E+03 -2.317130E+03  5.062168E+03 -8.014102E-09  1.772179E-09
       255  19  3.107429E+04  4.306710E+03  6.614307E+02  4.999033E+03  3.445241E+03  1.062675E+03
       255  20  2.319051E+04  3.203642E+03  6.990204E+02  3.532297E+03  2.420711E+03  6.683148E+02
       255  21  1.493826E+04  1.276711E+03 -1.430078E+02  5.411029E+03  1.396402E+03  2.206653E+02
       255  22  1.007862E+04 -8.149744E+02 -3.963097E+03  5.239754E+03  3.113078E+03  1.061518E+03
       255  23  1.026720E+04  5.167332E+01 -2.139882E+03  3.565437E+03  2.039988E+03  6.669838E+02
       255  24  1.007868E+04  8.598445E+01 -1.230068E+03  5.236598E+03  9.671052E+02  2.191604E+02
       255  25 -1.091663E+04 -5.936689E+03 -8.587650E+03  5.480467E+03  2.780926E+03  1.060361E+03
       255  26 -2.655947E+03 -3.100306E+03 -4.978794E+03  3.598576E+03  1.659272E+03  6.656527E+02
       255  27  5.219122E+03 -1.104743E+03 -2.317130E+03  5.062168E+03  5.378117E+02  2.176557E+02
       256   1  8.417453E+03 -4.281451E+02 -1.337853E+03  5.248014E+03 -1.190904E+03  5.121406E+01
       256   2  3.862627E+02 -2.355779E+03 -2.665213E+03  3.555463E+03 -9.371295E+02  5.070131E+02
       256   3 -7.714029E+03 -4.309897E+03 -4.171316E+03  5.208972E+03 -6.833570E+02  9.651915E+02
       256   4  1.014705E+04 -2.437380E+00 -9.383676E+02  5.237660E+03 -7.771214E+02  5.266452E+01
       256   5  1.018174E+04  3.244595E+01 -5.193498E+02  3.564553E+03 -5.211767E+02  5.084687E+02
       256   6  1.014700E+04  4.050205E+01 -2.805508E+02  5.237504E+03 -2.652306E+02  9.666524E+02
       256   7  1.187666E+04  4.232702E+02 -5.388814E+02  5.227306E+03 -3.633378E+02  5.411497E+01
       256   8  1.997731E+04  2.420664E+03  1.626508E+03  3.573644E+03 -1.052174E+02  5.099243E+02
       256   9  2.800834E+04  4.390880E+03  3.610196E+03  5.266037E+03  1.529077E+02  9.681133E+02
       256  10  8.417451E+03 -4.281455E+02 -1.337856E+03  5.248014E+03 -3.257916E-09 -4.849405E-09
       256  11  3.862617E+02 -2.355779E+03 -2.665215E+03  3.555463E+03 -7.703790E-09 -4.022219E-09
       256  12 -7.714030E+03 -4.309898E+03 -4.171319E+03  5.208972E+03 -7.899374E-09 -7.465305E-11
       256  13  1.014705E+04 -2.437545E+00 -9.383687E+02  5.237660E+03  1.828419E-11 -1.072364E-09
       256  14  1.018174E+04  3.244560E+01 -5.193508E+02  3.564553E+03  4.093483E-10 -6.154393E-09
       256  15  1.014700E+04  4.050102E+01 -2.805527E+02  5.237504E+03  2.455878E-09 -5.363512E-09
       256  16  1.187666E+04  4.232702E+02 -5.388816E+02  5.227306E+03  2.022447E-09 -8.598693E-09
       256  17  1.997731E+04  2.420664E+03  1.626508E+03  3.573644E+03  8.513968E-09  1.668056E-09
       256  18  2.800833E+04  4.390879E+03  3.610194E+03  5.266037E+03  6.878997E-09  5.758251E-09
       256  19  8.417453E+03 -4.281451E+02 -1.337853E+03  5.248014E+03  1.190904E+03 -5.121406E+01
       256  20  3.862627E+02 -2.355779E+03 -2.665213E+03  3.555463E+03  9.371295E+02 -5.070131E+02
       256  21 -7.714029E+03 -4.309897E+03 -4.171316E+03  5.208972E+03  6.833570E+02 -9.651915E+02
       256  22  1.014705E+04 -2.437380E+00 -9.383676E+02  5.237660E+03  7.771214E+02 -5.266452E+01
       256  23  1.018174E+04  3.244595E+01 -5.193498E+02  3.564553E+03  5.211767E+02 -5.084687E+02
       256  24  1.014700E+04  4.050205E+01 -2.805508E+02  5.237504E+03  2.652306E+02 -9.666524E+02
       256  25  1.187666E+04  4.232702E+02 -5.388814E+02  5.227306E+03  3.633378E+02 -5.411497E+01
       256  26  1.997731E+04  2.420664E+03  1.626508E+03  3.573644E+03  1.052174E+02 -5.099243E+02
       256  27  2.800834E+04  4.390880E+03  3.610196E+03  5.266037E+03 -1.529077E+02 -9.681133E+02
       257   1 -1.429370E+04 -5.929567E+03 -5.577648E+03  5.183021E+03 -6.404715E+02  1.232054E+03
       257   2 -2.234556E+04 -7.902600E+03 -7.196096E+03  3.487696E+03 -6.066708E+02  1.689965E+03
       257   3 -3.042551E+04 -9.855042E+03 -8.838179E+03  5.138763E+03 -5.728518E+02  2.147977E+03
       257   4  1.015611E+04  3.652735E+01 -1.979951E+02  5.237625E+03 -2.230347E+02  1.233509E+03
       257   5  1.017011E+04  2.574683E+01 -7.171798E+01  3.564433E+03 -1.891431E+02  1.691412E+03
       257   6  1.015594E+04  3.554416E+01  3.086178E+01  5.237623E+03 -1.552328E+02  2.149417E+03
       257   7  3.460646E+04  6.002582E+03  5.181622E+03  5.292231E+03  1.944183E+02  1.234965E+03
       257   8  4.268677E+04  7.954023E+03  7.052596E+03  3.641174E+03  2.284061E+02  1.692860E+03
       257   9  5.073895E+04  9.926021E+03  8.899804E+03  5.336488E+03  2.624131E+02  2.150857E+03
       257  10 -1.429370E+04 -5.929569E+03 -5.577652E+03  5.183022E+03  8.831750E-10 -4.272171E-09
       257  11 -2.234556E+04 -7.902603E+03 -7.196102E+03  3.487697E+03 -4.733670E-09  1.787899E-09
       257  12 -3.042552E+04 -9.855047E+03 -8.838189E+03  5.138764E+03 -7.975872E-09  5.211742E-10
       257  13  1.015610E+04  3.652570E+01 -1.979981E+02  5.237625E+03 -2.026920E-11  1.621123E-09
       257  14  1.017011E+04  2.574374E+01 -7.172342E+01  3.564434E+03  9.281452E-10 -3.791628E-09
       257  15  1.015594E+04  3.553919E+01  3.085306E+01  5.237623E+03  1.105004E-09 -3.829328E-10
       257  16  3.460646E+04  6.002580E+03  5.181619E+03  5.292230E+03 -1.657906E-09  4.326587E-09
       257  17  4.268677E+04  7.954020E+03  7.052591E+03  3.641174E+03  5.493569E-09  1.309005E-08
       257  18  5.073894E+04  9.926016E+03  8.899795E+03  5.336487E+03  7.878604E-09  5.569238E-09
       257  19 -1.429370E+04 -5.929567E+03 -5.577648E+03  5.183021E+03  6.404715E+02 -1.232054E+03
       257  20 -2.234556E+04 -7.902600E+03 -7.196096E+03  3.487696E+03  6.066708E+02 -1.689965E+03
       257  21 -3.042551E+04 -9.855042E+03 -8.838179E+03  5.138763E+03  5.728518E+02 -2.147977E+03
       257  22  1.015611E+04  3.652735E+01 -1.979951E+02  5.237625E+03  2.230347E+02 -1.233509E+03
       257  23  1.017011E+04  2.574683E+01 -7.171798E+01  3.564433E+03  1.891431E+02 -1.691412E+03
       257  24  1.015594E+04  3.554416E+01  3.086178E+01  5.237623E+03  1.552328E+02 -2.149417E+03
       257  25  3.460646E+04  6.002582E+03  5.181622E+03  5.292231E+03 -1.944183E+02 -1.234965E+03
       257  26  4.268677E+04  7.954023E+03  7.052596E+03  3.641174E+03 -2.284061E+02 -1.692860E+03
       257  27  5.073895E+04  9.926021E+03  8.899804E+03  5.336488E+03 -2.624131E+02 -2.150857E+03
       258   1 -3.701006E+04 -1.147082E+04 -1.027444E+04  5.122412E+03 -5.842264E+02  2.414497E+03
       258   2 -4.507313E+04 -1.344784E+04 -1.188971E+04  3.432980E+03 -6.909682E+02  2.872010E+03
       258   3 -5.314282E+04 -1.539611E+04 -1.343481E+04  5.090703E+03 -7.976738E+02  3.329241E+03
       258   4  1.016057E+04  3.554457E+01  8.370975E+01  5.237795E+03 -1.665419E+02  2.415930E+03
       258   5  1.016382E+04  2.087405E+01  2.132700E+02  3.564225E+03 -2.735554E+02  2.873429E+03
       258   6  1.016030E+04  3.498107E+01  4.131475E+02  5.237791E+03 -3.805339E+02  3.330646E+03
       258   7  5.733328E+04  1.154176E+04  1.044173E+04  5.353185E+03  2.511739E+02  2.417364E+03
       258   8  6.540361E+04  1.348939E+04  1.231607E+04  3.695478E+03  1.438941E+02  2.874848E+03
       258   9  7.346716E+04  1.546580E+04  1.426087E+04  5.384890E+03  3.664793E+01  3.332051E+03
       258  10 -3.701007E+04 -1.147083E+04 -1.027445E+04  5.122413E+03 -1.621858E-09  8.966146E-10
       258  11 -4.507313E+04 -1.344785E+04 -1.188973E+04  3.432982E+03 -1.584193E-09 -4.357340E-09
       258  12 -5.314282E+04 -1.539612E+04 -1.343484E+04  5.090706E+03 -6.346140E-09 -4.796621E-09
       258  13  1.016057E+04  3.553829E+01  8.369873E+01  5.237795E+03  1.068703E-09  1.044338E-08
       258  14  1.016381E+04  2.086516E+01  2.132544E+02  3.564225E+03 -2.293089E-09 -6.879924E-09
       258  15  1.016029E+04  3.496912E+01  4.131264E+02  5.237792E+03  1.913192E-09  5.221271E-10
       258  16  5.733328E+04  1.154175E+04  1.044171E+04  5.353185E+03  8.909392E-11  3.484990E-09
       258  17  6.540361E+04  1.348938E+04  1.231605E+04  3.695478E+03  4.679771E-09 -1.352252E-08
       258  18  7.346716E+04  1.546579E+04  1.426085E+04  5.384890E+03  7.478999E-09 -7.148107E-09
       258  19 -3.701006E+04 -1.147082E+04 -1.027444E+04  5.122412E+03  5.842264E+02 -2.414497E+03
       258  20 -4.507313E+04 -1.344784E+04 -1.188971E+04  3.432980E+03  6.909682E+02 -2.872010E+03
       258  21 -5.314282E+04 -1.539611E+04 -1.343481E+04  5.090703E+03  7.976738E+02 -3.329241E+03
       258  22  1.016057E+04  3.554457E+01  8.370975E+01  5.237795E+03  1.665419E+02 -2.415930E+03
       258  23  1.016382E+04  2.087405E+01  2.132700E+02  3.564225E+03  2.735554E+02 -2.873429E+03
       258  24  1.016030E+04  3.498107E+01  4.131475E+02  5.237791E+03  3.805339E+02 -3.330646E+03
       258  25  5.733328E+04  1.154176E+04  1.044173E+04  5.353185E+03 -2.511739E+02 -2.417364E+03
       258  26  6.540361E+04  1.348939E+04  1.231607E+04  3.695478E+03 -1.438941E+02 -2.874848E+03
       258  27  7.346716E+04  1.546580E+04  1.426087E+04  5.384890E+03 -3.664793E+01 -3.332051E+03
       259   1 -5.971683E+04 -1.701948E+04 -1.478204E+04  5.090343E+03 -8.878823E+02  3.596089E+03
       259   2 -6.781693E+04 -1.900076E+04 -1.610088E+04  3.395204E+03 -1.370080E+03  4.050720E+03
       259   3 -7.585194E+04 -2.086719E+04 -1.708326E+04  5.046185E+03 -1.852210E+03  4.498550E+03
       259   4  1.017632E+04  2.743528E+01  5.549127E+02  5.237648E+03 -4.687390E+02  3.597491E+03
       259   5  1.014301E+04  8.936615E+00  9.820558E+02  3.564464E+03 -9.571914E+02  4.052081E+03
       259   6  1.017593E+04  1.064006E+02  1.749999E+03  5.237374E+03 -1.445583E+03  4.499871E+03
       259   7  8.007403E+04  1.707403E+04  1.589157E+04  5.384967E+03 -4.954905E+01  3.598893E+03
       259   8  8.810864E+04  1.901823E+04  1.806462E+04  3.733740E+03 -5.442520E+02  4.053442E+03
       259   9  9.621073E+04  2.107950E+04  2.058281E+04  5.428583E+03 -1.038901E+03  4.501193E+03
       259  10 -5.971683E+04 -1.701950E+04 -1.478206E+04  5.090345E+03 -1.114920E-08 -3.139740E-09
       259  11 -6.781694E+04 -1.900078E+04 -1.610091E+04  3.395208E+03  2.541842E-10 -1.133046E-08
       259  12 -7.585194E+04 -2.086721E+04 -1.708331E+04  5.046192E+03  1.066323E-08 -6.918595E-10
       259  13  1.017631E+04  2.742132E+01  5.548880E+02  5.237650E+03  3.405018E-12 -3.118842E-09
       259  14  1.014300E+04  8.918737E+00  9.820232E+02  3.564467E+03  2.520228E-09  2.626448E-09
       259  15  1.017593E+04  1.063783E+02  1.749957E+03  5.237379E+03  4.009899E-10  3.044255E-09
       259  16  8.007403E+04  1.707401E+04  1.589154E+04  5.384967E+03  1.020629E-08  1.065139E-08
       259  17  8.810863E+04  1.901821E+04  1.806459E+04  3.733742E+03  2.330533E-10 -6.281126E-09
       259  18  9.621073E+04  2.107947E+04  2.058277E+04  5.428587E+03 -1.046065E-08  1.824656E-09
       259  19 -5.971683E+04 -1.701948E+04 -1.478204E+04  5.090343E+03  8.878823E+02 -3.596089E+03
       259  20 -6.781693E+04 -1.900076E+04 -1.610088E+04  3.395204E+03  1.370080E+03 -4.050720E+03
       259  21 -7.585194E+04 -2.086719E+04 -1.708326E+04  5.046185E+03  1.852210E+03 -4.498550E+03
       259  22  1.017632E+04  2.743528E+01  5.549127E+02  5.237648E+03  4.687390E+02 -3.597491E+03
       259  23  1.014301E+04  8.936615E+00  9.820558E+02  3.564464E+03  9.571914E+02 -4.052081E+03
       259  24  1.017593E+04  1.064006E+02  1.749999E+03  5.237374E+03  1.445583E+03 -4.499871E+03
       259  25  8.007403E+04  1.707403E+04  1.589157E+04  5.384967E+03  4.954905E+01 -3.598893E+03
       259  26  8.810864E+04  1.901823E+04  1.806462E+04  3.733740E+03  5.442520E+02 -4.053442E+03
       259  27  9.621073E+04  2.107950E+04  2.058281E+04  5.428583E+03  1.038901E+03 -4.501193E+03
       260   1 -8.232094E+04 -2.264479E+04 -1.802797E+04  5.301865E+03 -2.253128E+03  4.777185E+03
       260   2 -9.069497E+04 -2.458299E+04 -1.811295E+04  3.188931E+03 -4.107745E+03  5.189510E+03
       260   3 -9.845560E+04 -2.493731E+04 -1.659999E+04  4.413783E+03 -5.961789E+03  5.449155E+03
       260   4  1.030259E+04 -5.757537E+01  2.287697E+03  5.237159E+03 -1.802062E+03  4.778643E+03
       260   5  9.983638E+03 -2.788072E+01  3.968981E+03  3.565525E+03 -3.796199E+03  5.190478E+03
       260   6  1.030212E+04  1.609773E+03  7.344914E+03  5.231639E+03 -5.789786E+03  5.449643E+03
       260   7  1.029342E+05  2.252906E+04  2.260284E+04  5.172436E+03 -1.350929E+03  4.780100E+03
       260   8  1.106717E+05  2.452655E+04  2.605030E+04  3.942174E+03 -3.484603E+03  5.191447E+03
       260   9  1.190709E+05  2.815606E+04  3.128909E+04  6.049630E+03 -5.617753E+03  5.450133E+03
       260  10 -8.232095E+04 -2.264481E+04 -1.802802E+04  5.301873E+03  5.375033E-10 -3.077020E-09
       260  11 -9.069499E+04 -2.458303E+04 -1.811303E+04  3.188948E+03 -2.815280E-09  3.586054E-09
       260  12 -9.845565E+04 -2.493735E+04 -1.660011E+04  4.413809E+03 -1.683130E-09 -1.130752E-08
       260  13  1.030258E+04 -5.760076E+01  2.287648E+03  5.237166E+03 -2.128704E-09 -9.125838E-09
       260  14  9.983615E+03 -2.791352E+01  3.968903E+03  3.565541E+03 -7.147093E-10  5.913560E-09
       260  15  1.030207E+04  1.609732E+03  7.344795E+03  5.231664E+03 -4.306436E-11  2.494786E-09
       260  16  1.029341E+05  2.252904E+04  2.260279E+04  5.172442E+03 -3.130524E-09 -5.567207E-09
       260  17  1.106717E+05  2.452652E+04  2.605022E+04  3.942188E+03  3.256216E-09 -1.797645E-08
       260  18  1.190708E+05  2.815602E+04  3.128898E+04  6.049655E+03  6.837466E-10  1.088440E-09
       260  19 -8.232094E+04 -2.264479E+04 -1.802797E+04  5.301865E+03  2.253128E+03 -4.777185E+03
       260  20 -9.069497E+04 -2.458299E+04 -1.811295E+04  3.188931E+03  4.107745E+03 -5.189510E+03
       260  21 -9.845560E+04 -2.493731E+04 -1.659999E+04  4.413783E+03  5.961789E+03 -5.449155E+03
       260  22  1.030259E+04 -5.757537E+01  2.287697E+03  5.237159E+03  1.802062E+03 -4.778643E+03
       260  23  9.983638E+03 -2.788072E+01  3.968981E+03  3.565525E+03  3.796199E+03 -5.190478E+03
       260  24  1.030212E+04  1.609773E+03  7.344914E+03  5.231639E+03  5.789786E+03 -5.449643E+03
       260  25  1.029342E+05  2.252906E+04  2.260284E+04  5.172436E+03  1.350929E+03 -4.780100E+03
       260  26  1.106717E+05  2.452655E+04  2.605030E+04  3.942174E+03  3.484603E+03 -5.191447E+03
       260  27  1.190709E+05  2.815606E+04  3.128909E+04  6.049630E+03  5.617753E+03 -5.450133E+03
       261   1 -1.035321E+05 -2.949836E+04 -1.603539E+04  9.068031E+03 -8.268103E+03  6.007093E+03
       261   2 -1.152837E+05 -3.023367E+04 -1.174326E+04 -1.474891E+03 -1.349375E+04  5.561938E+03
       261   3 -1.196243E+05 -3.971594E+03  2.698172E+03 -8.884797E+03 -1.870839E+04  1.701514E+03
       261   4  1.192678E+04 -1.381087E+03  9.241578E+03  5.214285E+03 -7.102414E+03  6.010862E+03
       261   5  7.951548E+03 -4.893674E+01  1.574725E+04  3.599460E+03 -1.544382E+04  5.555488E+03
       261   6  1.192646E+04  2.881834E+04  3.456457E+04  5.117467E+03 -2.377430E+04  1.684999E+03
       261   7  1.273981E+05  2.673536E+04  3.451775E+04  1.359804E+03 -5.936510E+03  6.014615E+03
       261   8  1.312010E+05  3.013486E+04  4.323683E+04  8.674817E+03 -1.739427E+04  5.549006E+03
       261   9  1.434935E+05  6.160775E+04  6.642991E+04  1.912270E+04 -2.884128E+04  1.668256E+03
       261  10 -1.035322E+05 -2.949842E+04 -1.603559E+04  9.068071E+03  8.729695E-09 -1.193677E-08
       261  11 -1.152839E+05 -3.023376E+04 -1.174366E+04 -1.474830E+03  5.666604E-09 -4.323846E-09
       261  12 -1.196247E+05 -3.971691E+03  2.697509E+03 -8.884772E+03 -3.197503E-09  7.543184E-09
       261  13  1.192671E+04 -1.381139E+03  9.241415E+03  5.214320E+03  1.309115E-11 -4.409312E-09
       261  14  7.951284E+03 -4.903391E+01  1.574674E+04  3.599529E+03  1.953485E-09 -1.090403E-09
       261  15  1.192585E+04  2.881819E+04  3.456350E+04  5.117499E+03  7.115263E-10  2.659518E-09
       261  16  1.273981E+05  2.673531E+04  3.451762E+04  1.359833E+03 -1.242058E-08  3.960859E-09
       261  17  1.312007E+05  3.013475E+04  4.323621E+04  8.674895E+03 -3.086846E-09  7.645150E-09
       261  18  1.434926E+05  6.160752E+04  6.642834E+04  1.912274E+04  2.977275E-09  2.391403E-09
       261  19 -1.035321E+05 -2.949836E+04 -1.603539E+04  9.068031E+03  8.268103E+03 -6.007093E+03
       261  20 -1.152837E+05 -3.023367E+04 -1.174326E+04 -1.474891E+03  1.349375E+04 -5.561938E+03
       261  21 -1.196243E+05 -3.971594E+03  2.698172E+03 -8.884797E+03  1.870839E+04 -1.701514E+03
       261  22  1.192678E+04 -1.381087E+03  9.241578E+03  5.214285E+03  7.102414E+03 -6.010862E+03
       261  23  7.951548E+03 -4.893674E+01  1.574725E+04  3.599460E+03  1.544382E+04 -5.555488E+03
       261  24  1.192646E+04  2.881834E+04  3.456457E+04  5.117467E+03  2.377430E+04 -1.684999E+03
       261  25  1.273981E+05  2.673536E+04  3.451775E+04  1.359804E+03  5.936510E+03 -6.014615E+03
       261  26  1.312010E+05  3.013486E+04  4.323683E+04  8.674817E+03  1.739427E+04 -5.549006E+03
       261  27  1.434935E+05  6.160775E+04  6.642991E+04  1.912270E+04  2.884128E+04 -1.668256E+03
       262   1 -2.993369E+05 -1.242063E+06 -3.099340E+05  1.534234E+05 -1.010181E+04 -9.426231E+04
       262   2 -1.713987E+05 -1.055306E+06 -2.024100E+05  9.258023E+04 -3.054246E+04 -4.823921E+04
       262   3 -1.251391E+05 -8.942385E+05 -1.452135E+05  1.026231E+05 -2.704531E+04 -2.124066E+03
       262   4 -8.165497E+04 -3.685115E+05 -9.744630E+04  1.127983E+05 -1.018851E+04 -6.493232E+04
       262   5 -3.447548E+02 -3.575181E+05 -4.601374E+04  7.748405E+04 -3.056151E+04 -4.067537E+04
       262   6  3.121680E+03 -3.684261E+05 -2.973928E+04  1.130593E+05 -2.700497E+04 -1.634063E+04
       262   7  1.359772E+05  5.057430E+05  1.149901E+05  7.211634E+04 -1.027899E+04 -3.556106E+04
       262   8  1.706768E+05  3.407248E+05  1.103520E+05  6.237101E+04 -3.058091E+04 -3.310309E+04
       262   9  1.313645E+05  1.576460E+05  8.571886E+04  1.235047E+05 -2.696512E+04 -3.056911E+04
       262  10 -2.993394E+05 -1.242073E+06 -3.099509E+05  1.534226E+05 -7.677233E-10  5.448064E-09
       262  11 -1.714004E+05 -1.055309E+06 -2.024161E+05  9.257904E+04 -3.983814E-09  2.554569E-10
       262  12 -1.251399E+05 -8.942387E+05 -1.452148E+05  1.026231E+05  2.272765E-09 -1.836019E-09
       262  13 -8.165621E+04 -3.685161E+05 -9.745442E+04  1.127978E+05  1.661269E-09  9.477472E-09
       262  14 -3.462019E+02 -3.575201E+05 -4.601860E+04  7.748305E+04  7.997395E-10 -8.422103E-09
       262  15  3.120825E+03 -3.684266E+05 -2.974116E+04  1.130590E+05 -1.184133E-10  3.125251E-09
       262  16  1.359767E+05  5.057416E+05  1.149875E+05  7.211605E+04  1.646581E-09  5.175310E-09
       262  17  1.706755E+05  3.407234E+05  1.103482E+05  6.237019E+04  4.232501E-09 -4.341641E-09
       262  18  1.313635E+05  1.576448E+05  8.571574E+04  1.235040E+05 -3.865202E-09 -5.214785E-09
       262  19 -2.993369E+05 -1.242063E+06 -3.099340E+05  1.534234E+05  1.010181E+04  9.426231E+04
       262  20 -1.713987E+05 -1.055306E+06 -2.024100E+05  9.258023E+04  3.054246E+04  4.823921E+04
       262  21 -1.251391E+05 -8.942385E+05 -1.452135E+05  1.026231E+05  2.704531E+04  2.124066E+03
       262  22 -8.165497E+04 -3.685115E+05 -9.744630E+04  1.127983E+05  1.018851E+04  6.493232E+04
       262  23 -3.447548E+02 -3.575181E+05 -4.601374E+04  7.748405E+04  3.056151E+04  4.067537E+04
       262  24  3.121680E+03 -3.684261E+05 -2.973928E+04  1.130593E+05  2.700497E+04  1.634063E+04
       262  25  1.359772E+05  5.057430E+05  1.149901E+05  7.211634E+04  1.027899E+04  3.556106E+04
       262  26  1.706768E+05  3.407248E+05  1.103520E+05  6.237101E+04  3.058091E+04  3.310309E+04
       262  27  1.313645E+05  1.576460E+05  8.571886E+04  1.235047E+05  2.696512E+04  3.056911E+04
       263   1 -9.842391E+04 -7.471888E+05 -1.102045E+05  1.163234E+05 -1.913695E+04 -4.431029E+03
       263   2 -5.112852E+04 -5.715516E+05 -6.617826E+04  7.765988E+04 -1.077845E+04  6.230274E+03
       263   3 -1.255793E+04 -3.989375E+05 -3.116435E+04  1.111754E+05 -1.943399E+03  1.689338E+04
       263   4 -4.869859E+03 -3.641939E+05 -2.575886E+04  1.132741E+05 -1.911651E+04 -1.186023E+04
       263   5 -1.629387E+02 -3.626955E+05 -2.032566E+04  7.718597E+04 -1.075780E+04 -1.629614E+03
       263   6 -4.102160E+03 -3.641723E+05 -2.360125E+04  1.132761E+05 -1.922651E+03  8.599907E+03
       263   7  8.867439E+04  1.893845E+04  5.867802E+04  1.102230E+05 -1.909600E+04 -1.929396E+04
       263   8  5.079976E+04 -1.537984E+05  2.552452E+04  7.671192E+04 -1.073715E+04 -9.492116E+03
       263   9  4.353581E+03 -3.294058E+05 -1.603797E+04  1.153769E+05 -1.901959E+03  3.059757E+02
       263  10 -9.842431E+04 -7.471889E+05 -1.102053E+05  1.163233E+05  3.287343E-09  4.524928E-09
       263  11 -5.112866E+04 -5.715517E+05 -6.617855E+04  7.765994E+04 -1.141273E-09  1.951987E-09
       263  12 -1.255801E+04 -3.989378E+05 -3.116489E+04  1.111754E+05  2.508770E-09  6.345875E-10
       263  13 -4.870289E+03 -3.641941E+05 -2.575981E+04  1.132739E+05 -2.868257E-10  5.047389E-09
       263  14 -1.630637E+02 -3.626955E+05 -2.032588E+04  7.718596E+04 -2.725305E-09 -9.838712E-09
       263  15 -4.102184E+03 -3.641724E+05 -2.360140E+04  1.132761E+05 -1.554936E-10  1.821754E-10
       263  16  8.867390E+04  1.893795E+04  5.867663E+04  1.102227E+05 -3.616137E-09  2.918272E-09
       263  17  5.079961E+04 -1.537985E+05  2.552413E+04  7.671184E+04 -5.667161E-10 -4.250247E-09
       263  18  4.353577E+03 -3.294058E+05 -1.603798E+04  1.153769E+05  7.512432E-10 -6.132529E-09
       263  19 -9.842391E+04 -7.471888E+05 -1.102045E+05  1.163234E+05  1.913695E+04  4.431029E+03
       263  20 -5.112852E+04 -5.715516E+05 -6.617826E+04  7.765988E+04  1.077845E+04 -6.230274E+03
       263  21 -1.255793E+04 -3.989375E+05 -3.116435E+04  1.111754E+05  1.943399E+03 -1.689338E+04
       263  22 -4.869859E+03 -3.641939E+05 -2.575886E+04  1.132741E+05  1.911651E+04  1.186023E+04
       263  23 -1.629387E+02 -3.626955E+05 -2.032566E+04  7.718597E+04  1.075780E+04  1.629614E+03
       263  24 -4.102160E+03 -3.641723E+05 -2.360125E+04  1.132761E+05  1.922651E+03 -8.599907E+03
       263  25  8.867439E+04  1.893845E+04  5.867802E+04  1.102230E+05  1.909600E+04  1.929396E+04
       263  26  5.079976E+04 -1.537984E+05  2.552452E+04  7.671192E+04  1.073715E+04  9.492116E+03
       263  27  4.353581E+03 -3.294058E+05 -1.603797E+04  1.153769E+05  1.901959E+03 -3.059757E+02
       264   1  2.891224E+04 -2.597287E+05 -2.603694E+03  1.227782E+05  5.058484E+03  2.454249E+04
       264   2  6.876959E+04 -7.723248E+04  2.378581E+04  6.523408E+04  1.139317E+04  3.338912E+04
       264   3  4.436791E+04  8.861279E+04  2.846701E+04  7.919957E+04  4.409570E+03  4.220150E+04
       264   4  2.582165E+03 -3.676889E+05 -2.655149E+04  1.131824E+05  5.087854E+03  1.266999E+04
       264   5 -2.308846E+02 -3.583095E+05 -3.970016E+04  7.732657E+04  1.139347E+04  3.365236E+04
       264   6 -6.942738E+04 -3.677299E+05 -8.299660E+04  1.129876E+05  4.378691E+03  5.459760E+04
       264   7 -2.374827E+04 -4.756377E+05 -5.049943E+04  1.035884E+05  5.117595E+03  7.995388E+02
       264   8 -6.923626E+04 -6.393128E+05 -1.031911E+05  8.941358E+04  1.139377E+04  3.391547E+04
       264   9 -1.832338E+05 -8.238801E+05 -1.944742E+05  1.467509E+05  4.349152E+03  6.698459E+04
       264  10  2.891205E+04 -2.597293E+05 -2.604875E+03  1.227781E+05  2.548458E-09  3.523610E-09
       264  11  6.876915E+04 -7.723371E+04  2.378347E+04  6.523377E+04 -1.635760E-09 -5.477289E-10
       264  12  4.436741E+04  8.861087E+04  2.846363E+04  7.919942E+04 -1.508045E-09 -3.711111E-09
       264  13  2.582094E+03 -3.676891E+05 -2.655184E+04  1.131824E+05  1.644505E-09  4.785341E-09
       264  14 -2.313282E+02 -3.583108E+05 -3.970254E+04  7.732626E+04 -3.698140E-09 -6.687356E-09
       264  15 -6.942821E+04 -3.677331E+05 -8.300224E+04  1.129875E+05 -3.279987E-11  4.538595E-09
       264  16 -2.374829E+04 -4.756377E+05 -5.049948E+04  1.035884E+05 -1.652042E-10  3.906217E-09
       264  17 -6.923671E+04 -6.393141E+05 -1.031935E+05  8.941327E+04  3.024747E-09 -3.578134E-09
       264  18 -1.832350E+05 -8.238849E+05 -1.944827E+05  1.467507E+05  1.767282E-09 -3.516922E-09
       264  19  2.891224E+04 -2.597287E+05 -2.603694E+03  1.227782E+05 -5.058484E+03 -2.454249E+04
       264  20  6.876959E+04 -7.723248E+04  2.378581E+04  6.523408E+04 -1.139317E+04 -3.338912E+04
       264  21  4.436791E+04  8.861279E+04  2.846701E+04  7.919957E+04 -4.409570E+03 -4.220150E+04
       264  22  2.582165E+03 -3.676889E+05 -2.655149E+04  1.131824E+05 -5.087854E+03 -1.266999E+04
       264  23 -2.308846E+02 -3.583095E+05 -3.970016E+04  7.732657E+04 -1.139347E+04 -3.365236E+04
       264  24 -6.942738E+04 -3.677299E+05 -8.299660E+04  1.129876E+05 -4.378691E+03 -5.459760E+04
       264  25 -2.374827E+04 -4.756377E+05 -5.049943E+04  1.035884E+05 -5.117595E+03 -7.995388E+02
       264  26 -6.923626E+04 -6.393128E+05 -1.031911E+05  8.941358E+04 -1.139377E+04 -3.391547E+04
       264  27 -1.832338E+05 -8.238801E+05 -1.944742E+05  1.467509E+05 -4.349152E+03 -6.698459E+04
       265   1  3.097880E+05  1.029330E+05  5.546440E+04  1.235505E+05  3.302982E+04  1.231875E+04
       265   2  3.017084E+05  5.202293E+04  2.453592E+04  1.232631E+05  2.081656E+04  7.398301E+03
       265   3  3.076206E+05  4.183453E+04  1.333422E+04  1.155170E+05  8.400805E+03  3.012845E+03
       265   4  3.059751E+05  8.380518E+04  5.098424E+04  1.044855E+05  3.258383E+04  1.214856E+04
       265   5  2.962239E+05  4.396750E+04  2.209032E+04  1.156146E+05  2.082718E+04  7.402075E+03
       265   6  3.003742E+05  4.476036E+04  1.256137E+04  1.192849E+05  8.867943E+03  3.189970E+03
       265   7  3.021630E+05  6.467940E+04  4.650434E+04  8.542111E+04  3.213784E+04  1.197840E+04
       265   8  2.907396E+05  3.591234E+04  1.964474E+04  1.079662E+05  2.083780E+04  7.405849E+03
       265   9  2.931279E+05  4.768634E+04  1.178854E+04  1.230527E+05  9.335078E+03  3.367104E+03
       265  10  3.097867E+05  1.029325E+05  5.546206E+04  1.235502E+05 -3.888110E-09  2.400716E-09
       265  11  3.017079E+05  5.202275E+04  2.453501E+04  1.232629E+05 -2.116616E-09  1.151912E-08
       265  12  3.076205E+05  4.183450E+04  1.333407E+04  1.155170E+05 -5.091912E-09  1.202332E-09
       265  13  3.059739E+05  8.380473E+04  5.098197E+04  1.044852E+05  2.985087E-11 -6.776242E-09
       265  14  2.962234E+05  4.396733E+04  2.208940E+04  1.156144E+05 -1.162265E-10  1.646351E-08
       265  15  3.003741E+05  4.476033E+04  1.256120E+04  1.192849E+05 -5.416659E-09  1.428839E-09
       265  16  3.021618E+05  6.467897E+04  4.650213E+04  8.542080E+04  3.361866E-09  5.875141E-09
       265  17  2.907391E+05  3.591217E+04  1.964382E+04  1.079661E+05 -1.979126E-09 -9.583837E-09
       265  18  2.931278E+05  4.768630E+04  1.178836E+04  1.230527E+05 -6.592832E-09  1.009567E-08
       265  19  3.097880E+05  1.029330E+05  5.546440E+04  1.235505E+05 -3.302982E+04 -1.231875E+04
       265  20  3.017084E+05  5.202293E+04  2.453592E+04  1.232631E+05 -2.081656E+04 -7.398301E+03
       265  21  3.076206E+05  4.183453E+04  1.333422E+04  1.155170E+05 -8.400805E+03 -3.012845E+03
       265  22  3.059751E+05  8.380518E+04  5.098424E+04  1.044855E+05 -3.258383E+04 -1.214856E+04
       265  23  2.962239E+05  4.396750E+04  2.209032E+04  1.156146E+05 -2.082718E+04 -7.402075E+03
       265  24  3.003742E+05  4.476036E+04  1.256137E+04  1.192849E+05 -8.867943E+03 -3.189970E+03
       265  25  3.021630E+05  6.467940E+04  4.650434E+04  8.542111E+04 -3.213784E+04 -1.197840E+04
       265  26  2.907396E+05  3.591234E+04  1.964474E+04  1.079662E+05 -2.083780E+04 -7.405849E+03
       265  27  2.931279E+05  4.768634E+04  1.178854E+04  1.230527E+05 -9.335078E+03 -3.367104E+03
       266   1  2.955842E+05  4.822399E+04  9.333589E+03  1.168472E+05  6.846693E+03  2.749873E+03
       266   2  2.895983E+05  4.176843E+04  2.856834E+03  1.139483E+05  4.090723E+03  2.128769E+03
       266   3  2.826755E+05  3.993432E+04 -1.016607E+03  1.129912E+05  1.325664E+03  1.531851E+03
       266   4  2.987746E+05  4.859483E+04  9.962912E+03  1.168875E+05  7.152661E+03  2.865813E+03
       266   5  2.990765E+05  4.510952E+04  5.111551E+03  1.163626E+05  4.417309E+03  2.252530E+03
       266   6  2.984374E+05  4.624153E+04  2.847160E+03  1.177796E+05  1.672845E+03  1.663417E+03
       266   7  3.019651E+05  4.896567E+04  1.059223E+04  1.169277E+05  7.458630E+03  2.981753E+03
       266   8  3.085548E+05  4.845061E+04  7.366256E+03  1.187770E+05  4.743899E+03  2.376292E+03
       266   9  3.141996E+05  5.254875E+04  6.710886E+03  1.225681E+05  2.020035E+03  1.794986E+03
       266  10  2.955842E+05  4.822397E+04  9.333487E+03  1.168472E+05 -4.481563E-09 -5.181832E-09
       266  11  2.895983E+05  4.176842E+04  2.856794E+03  1.139483E+05  3.650918E-09 -4.773659E-09
       266  12  2.826755E+05  3.993431E+04 -1.016615E+03  1.129912E+05  1.155797E-08  5.147975E-09
       266  13  2.987746E+05  4.859481E+04  9.962800E+03  1.168875E+05 -4.912123E-09 -3.635374E-09
       266  14  2.990765E+05  4.510951E+04  5.111505E+03  1.163626E+05  3.197766E-10  2.028837E-08
       266  15  2.984374E+05  4.624153E+04  2.847150E+03  1.177796E+05  1.538419E-09  7.939590E-09
       266  16  3.019650E+05  4.896565E+04  1.059211E+04  1.169277E+05 -3.869029E-09  1.407843E-08
       266  17  3.085548E+05  4.845060E+04  7.366203E+03  1.187770E+05 -5.700508E-09 -5.598227E-09
       266  18  3.141995E+05  5.254874E+04  6.710873E+03  1.225681E+05 -5.090721E-09  2.425410E-09
       266  19  2.955842E+05  4.822399E+04  9.333589E+03  1.168472E+05 -6.846693E+03 -2.749873E+03
       266  20  2.895983E+05  4.176843E+04  2.856834E+03  1.139483E+05 -4.090723E+03 -2.128769E+03
       266  21  2.826755E+05  3.993432E+04 -1.016607E+03  1.129912E+05 -1.325664E+03 -1.531851E+03
       266  22  2.987746E+05  4.859483E+04  9.962912E+03  1.168875E+05 -7.152661E+03 -2.865813E+03
       266  23  2.990765E+05  4.510952E+04  5.111551E+03  1.163626E+05 -4.417309E+03 -2.252530E+03
       266  24  2.984374E+05  4.624153E+04  2.847160E+03  1.177796E+05 -1.672845E+03 -1.663417E+03
       266  25  3.019651E+05  4.896567E+04  1.059223E+04  1.169277E+05 -7.458630E+03 -2.981753E+03
       266  26  3.085548E+05  4.845061E+04  7.366256E+03  1.187770E+05 -4.743899E+03 -2.376292E+03
       266  27  3.141996E+05  5.254875E+04  6.710886E+03  1.225681E+05 -2.020035E+03 -1.794986E+03
       267   1  2.765095E+05  3.829717E+04 -3.125977E+03  1.115787E+05  8.420514E+02  1.617408E+03
       267   2  2.707906E+05  3.452695E+04 -5.718910E+03  1.084917E+05  9.614213E+01  1.790842E+03
       267   3  2.630178E+05  3.310599E+04 -7.828354E+03  1.078663E+05 -6.502836E+02  1.965687E+03
       267   4  2.982943E+05  4.646391E+04  2.170516E+03  1.176198E+05  1.182198E+03  1.746304E+03
       267   5  2.993120E+05  4.522445E+04  1.187426E+03  1.164136E+05  4.374730E+02  1.920179E+03
       267   6  2.982757E+05  4.633409E+04  6.869241E+02  1.176690E+05 -3.077740E+02  2.095463E+03
       267   7  3.200796E+05  5.463073E+04  7.467005E+03  1.236610E+05  1.522360E+03  1.875205E+03
       267   8  3.278342E+05  5.592205E+04  8.093724E+03  1.243358E+05  7.788220E+02  2.049523E+03
       267   9  3.335347E+05  5.956228E+04  9.202112E+03  1.274722E+05  3.475680E+01  2.225247E+03
       267  10  2.765095E+05  3.829717E+04 -3.125984E+03  1.115787E+05 -4.312414E-09  1.661583E-09
       267  11  2.707906E+05  3.452695E+04 -5.718916E+03  1.084917E+05 -3.629226E-10  5.855835E-09
       267  12  2.630178E+05  3.310599E+04 -7.828362E+03  1.078663E+05  8.526444E-09  3.027428E-09
       267  13  2.982943E+05  4.646391E+04  2.170508E+03  1.176197E+05  3.502805E-09 -2.489693E-09
       267  14  2.993120E+05  4.522445E+04  1.187419E+03  1.164136E+05  2.718468E-09 -8.840124E-09
       267  15  2.982757E+05  4.633408E+04  6.869156E+02  1.176690E+05 -1.289182E-10  5.246193E-09
       267  16  3.200796E+05  5.463072E+04  7.466994E+03  1.236610E+05  6.528965E-09 -6.685979E-09
       267  17  3.278342E+05  5.592204E+04  8.093715E+03  1.243358E+05  1.453230E-09  6.529376E-09
       267  18  3.335347E+05  5.956227E+04  9.202103E+03  1.274722E+05 -7.197419E-09  7.938959E-09
       267  19  2.765095E+05  3.829717E+04 -3.125977E+03  1.115787E+05 -8.420514E+02 -1.617408E+03
       267  20  2.707906E+05  3.452695E+04 -5.718910E+03  1.084917E+05 -9.614213E+01 -1.790842E+03
       267  21  2.630178E+05  3.310599E+04 -7.828354E+03  1.078663E+05  6.502836E+02 -1.965687E+03
       267  22  2.982943E+05  4.646391E+04  2.170516E+03  1.176198E+05 -1.182198E+03 -1.746304E+03
       267  23  2.993120E+05  4.522445E+04  1.187426E+03  1.164136E+05 -4.374730E+02 -1.920179E+03
       267  24  2.982757E+05  4.633409E+04  6.869241E+02  1.176690E+05  3.077740E+02 -2.095463E+03
       267  25  3.200796E+05  5.463073E+04  7.467005E+03  1.236610E+05 -1.522360E+03 -1.875205E+03
       267  26  3.278342E+05  5.592205E+04  8.093724E+03  1.243358E+05 -7.788220E+02 -2.049523E+03
       267  27  3.335347E+05  5.956228E+04  9.202112E+03  1.274722E+05 -3.475680E+01 -2.225247E+03
       268   1  2.572383E+05  3.097977E+04 -9.409956E+03  1.062906E+05 -8.402625E+02  2.160609E+03
       268   2  2.515448E+05  2.734763E+04 -1.119479E+04  1.031776E+05 -1.178212E+03  2.491525E+03
       268   3  2.436850E+05  2.592651E+04 -1.283802E+04  1.025537E+05 -1.516359E+03  2.823073E+03
       268   4  2.982568E+05  4.634616E+04  5.424050E+02  1.176588E+05 -4.976643E+02  2.290413E+03
       268   5  2.993394E+05  4.523775E+04  3.724210E+02  1.164154E+05 -8.350936E+02  2.621512E+03
       268   6  2.982556E+05  4.634020E+04  3.436241E+02  1.176609E+05 -1.172724E+03  2.953243E+03
       268   7  3.392767E+05  6.171259E+04  1.049459E+04  1.290276E+05 -1.550432E+02  2.420224E+03
       268   8  3.471362E+05  6.312803E+04  1.193946E+04  1.296540E+05 -4.919465E+02  2.751509E+03
       268   9  3.528294E+05  6.675421E+04  1.352513E+04  1.327694E+05 -8.290550E+02  3.083427E+03
       268  10  2.572383E+05  3.097977E+04 -9.409966E+03  1.062906E+05  1.728452E-09  2.285415E-09
       268  11  2.515448E+05  2.734763E+04 -1.119480E+04  1.031776E+05 -3.502501E-09 -7.616452E-09
       268  12  2.436850E+05  2.592650E+04 -1.283804E+04  1.025537E+05 -1.470899E-09  3.075085E-10
       268  13  2.982568E+05  4.634615E+04  5.423947E+02  1.176588E+05  3.159118E-09  2.151845E-09
       268  14  2.993394E+05  4.523774E+04  3.724068E+02  1.164154E+05  1.651901E-10 -1.057397E-08
       268  15  2.982556E+05  4.634019E+04  3.436051E+02  1.176609E+05  1.908171E-09 -3.173313E-09
       268  16  3.392767E+05  6.171259E+04  1.049457E+04  1.290276E+05  2.352938E-09  3.816226E-10
       268  17  3.471362E+05  6.312803E+04  1.193945E+04  1.296540E+05  4.234686E-09  7.390781E-09
       268  18  3.528294E+05  6.675420E+04  1.352511E+04  1.327694E+05  4.091709E-09  4.663601E-09
       268  19  2.572383E+05  3.097977E+04 -9.409956E+03  1.062906E+05  8.402625E+02 -2.160609E+03
       268  20  2.515448E+05  2.734763E+04 -1.119479E+04  1.031776E+05  1.178212E+03 -2.491525E+03
       268  21  2.436850E+05  2.592651E+04 -1.283802E+04  1.025537E+05  1.516359E+03 -2.823073E+03
       268  22  2.982568E+05  4.634616E+04  5.424050E+02  1.176588E+05  4.976643E+02 -2.290413E+03
       268  23  2.993394E+05  4.523775E+04  3.724210E+02  1.164154E+05  8.350936E+02 -2.621512E+03
       268  24  2.982556E+05  4.634020E+04  3.436241E+02  1.176609E+05  1.172724E+03 -2.953243E+03
       268  25  3.392767E+05  6.171259E+04  1.049459E+04  1.290276E+05  1.550432E+02 -2.420224E+03
       268  26  3.471362E+05  6.312803E+04  1.193946E+04  1.296540E+05  4.919465E+02 -2.751509E+03
       268  27  3.528294E+05  6.675421E+04  1.352513E+04  1.327694E+05  8.290550E+02 -3.083427E+03
       269   1  2.379153E+05  2.376679E+04 -1.425125E+04  1.009687E+05 -1.665414E+03  3.034576E+03
       269   2  2.321842E+05  2.012082E+04 -1.570833E+04  9.783911E+04 -2.087269E+03  3.335903E+03
       269   3  2.242912E+05  1.870620E+04 -1.695946E+04  9.721419E+04 -2.509267E+03  3.637765E+03
       269   4  2.982562E+05  4.634297E+04  3.737305E+02  1.176650E+05 -1.321157E+03  3.164972E+03
       269   5  2.993377E+05  4.523080E+04  5.396634E+02  1.164113E+05 -1.742597E+03  3.466438E+03
       269   6  2.982570E+05  4.634986E+04  9.111915E+02  1.176623E+05 -2.164183E+03  3.768437E+03
       269   7  3.586007E+05  6.891941E+04  1.499843E+04  1.343628E+05 -9.768632E+02  3.295383E+03
       269   8  3.664954E+05  7.034102E+04  1.678727E+04  1.349854E+05 -1.397886E+03  3.596988E+03
       269   9  3.722278E+05  7.399376E+04  1.878134E+04  1.381125E+05 -1.819056E+03  3.899126E+03
       269  10  2.379153E+05  2.376677E+04 -1.425127E+04  1.009687E+05 -1.934712E-09 -2.368529E-09
       269  11  2.321842E+05  2.012081E+04 -1.570836E+04  9.783911E+04 -5.522656E-09  3.313787E-10
       269  12  2.242912E+05  1.870618E+04 -1.695950E+04  9.721419E+04 -6.078472E-09 -1.056519E-09
       269  13  2.982562E+05  4.634296E+04  3.737084E+02  1.176650E+05 -1.295923E-10  2.319894E-09
       269  14  2.993377E+05  4.523078E+04  5.396351E+02  1.164113E+05  1.596159E-09 -9.552448E-09
       269  15  2.982570E+05  4.634984E+04  9.111560E+02  1.176623E+05 -1.558585E-10  5.056819E-09
       269  16  3.586007E+05  6.891940E+04  1.499841E+04  1.343628E+05  5.830541E-09 -2.227654E-09
       269  17  3.664954E+05  7.034101E+04  1.678724E+04  1.349854E+05  6.890034E-09 -3.215465E-09
       269  18  3.722278E+05  7.399375E+04  1.878130E+04  1.381125E+05  7.379798E-09 -6.490284E-09
       269  19  2.379153E+05  2.376679E+04 -1.425125E+04  1.009687E+05  1.665414E+03 -3.034576E+03
       269  20  2.321842E+05  2.012082E+04 -1.570833E+04  9.783911E+04  2.087269E+03 -3.335903E+03
       269  21  2.242912E+05  1.870620E+04 -1.695946E+04  9.721419E+04  2.509267E+03 -3.637765E+03
       269  22  2.982562E+05  4.634297E+04  3.737305E+02  1.176650E+05  1.321157E+03 -3.164972E+03
       269  23  2.993377E+05  4.523080E+04  5.396634E+02  1.164113E+05  1.742597E+03 -3.466438E+03
       269  24  2.982570E+05  4.634986E+04  9.111915E+02  1.176623E+05  2.164183E+03 -3.768437E+03
       269  25  3.586007E+05  6.891941E+04  1.499843E+04  1.343628E+05  9.768632E+02 -3.295383E+03
       269  26  3.664954E+05  7.034102E+04  1.678727E+04  1.349854E+05  1.397886E+03 -3.596988E+03
       269  27  3.722278E+05  7.399376E+04  1.878134E+04  1.381125E+05  1.819056E+03 -3.899126E+03
       270   1  2.184841E+05  1.654547E+04 -1.812897E+04  9.567572E+04 -2.775507E+03  3.807331E+03
       270   2  2.126546E+05  1.282908E+04 -1.882760E+04  9.246910E+04 -3.988070E+03  3.810452E+03
       270   3  2.048488E+05  1.162516E+04 -1.866292E+04  9.175303E+04 -5.198144E+03  3.807136E+03
       270   4  2.982870E+05  4.633469E+04  1.193717E+03  1.176885E+05 -2.427396E+03  3.939137E+03
       270   5  2.992910E+05  4.519465E+04  2.130199E+03  1.163989E+05 -3.645609E+03  3.940096E+03
       270   6  2.983200E+05  4.656824E+04  3.934417E+03  1.175998E+05 -4.861343E+03  3.934613E+03
       270   7  3.780965E+05  7.612452E+04  2.051604E+04  1.397040E+05 -2.079234E+03  4.070962E+03
       270   8  3.859350E+05  7.756085E+04  2.308750E+04  1.403317E+05 -3.303094E+03  4.069759E+03
       270   9  3.917997E+05  8.151195E+04  2.653112E+04  1.434501E+05 -4.524486E+03  4.062111E+03
       270  10  2.184841E+05  1.654545E+04 -1.812901E+04  9.567573E+04 -1.715828E-09  7.389159E-09
       270  11  2.126545E+05  1.282906E+04 -1.882766E+04  9.246911E+04 -1.925005E-09 -4.944123E-10
       270  12  2.048488E+05  1.162514E+04 -1.866300E+04  9.175304E+04 -2.818036E-09  2.040991E-09
       270  13  2.982870E+05  4.633467E+04  1.193677E+03  1.176885E+05 -1.232788E-09 -1.219327E-09
       270  14  2.992909E+05  4.519463E+04  2.130144E+03  1.163989E+05  2.918169E-09 -5.954416E-09
       270  15  2.983199E+05  4.656822E+04  3.934344E+03  1.175998E+05 -2.197682E-09 -3.467355E-09
       270  16  3.780965E+05  7.612450E+04  2.051600E+04  1.397040E+05  1.950018E-09  5.957926E-09
       270  17  3.859350E+05  7.756083E+04  2.308745E+04  1.403317E+05 -2.811114E-10  2.195774E-09
       270  18  3.917997E+05  8.151193E+04  2.653105E+04  1.434502E+05 -8.700778E-10  4.155904E-09
       270  19  2.184841E+05  1.654547E+04 -1.812897E+04  9.567572E+04  2.775507E+03 -3.807331E+03
       270  20  2.126546E+05  1.282908E+04 -1.882760E+04  9.246910E+04  3.988070E+03 -3.810452E+03
       270  21  2.048488E+05  1.162516E+04 -1.866292E+04  9.175303E+04  5.198144E+03 -3.807136E+03
       270  22  2.982870E+05  4.633469E+04  1.193717E+03  1.176885E+05  2.427396E+03 -3.939137E+03
       270  23  2.992910E+05  4.519465E+04  2.130199E+03  1.163989E+05  3.645609E+03 -3.940096E+03
       270  24  2.983200E+05  4.656824E+04  3.934417E+03  1.175998E+05  4.861343E+03 -3.934613E+03
       270  25  3.780965E+05  7.612452E+04  2.051604E+04  1.397040E+05  2.079234E+03 -4.070962E+03
       270  26  3.859350E+05  7.756085E+04  2.308750E+04  1.403317E+05  3.303094E+03 -4.069759E+03
       270  27  3.917997E+05  8.151195E+04  2.653112E+04  1.434501E+05  4.524486E+03 -4.062111E+03
       271   1  1.987229E+05  9.564175E+03 -1.888001E+04  9.103741E+04 -6.074437E+03  3.765748E+03
       271   2  1.929277E+05  4.975970E+03 -1.642145E+04  8.660815E+04 -1.079411E+04  2.404008E+03
       271   3  1.871388E+05  7.026990E+03 -9.366247E+03  8.375146E+04 -1.545087E+04  8.763452E+02
       271   4  2.985767E+05  4.616834E+04  5.170951E+03  1.178966E+05 -5.686170E+03  3.912703E+03
       271   5  2.988657E+05  4.497667E+04  9.298639E+03  1.162990E+05 -1.054839E+04  2.496950E+03
       271   6  2.991887E+05  5.045182E+04  1.813536E+04  1.162739E+05 -1.534776E+04  9.152417E+02
       271   7  3.984399E+05  8.277294E+04  2.922105E+04  1.447596E+05 -5.297836E+03  4.059682E+03
       271   8  4.048147E+05  8.497824E+04  3.501789E+04  1.459946E+05 -1.030261E+04  2.589910E+03
       271   9  4.112516E+05  9.387801E+04  4.563616E+04  1.488020E+05 -1.524463E+04  9.541469E+02
       271  10  1.987229E+05  9.564150E+03 -1.888010E+04  9.103743E+04  9.333313E-09  3.987352E-09
       271  11  1.929276E+05  4.975933E+03 -1.642168E+04  8.660817E+04  7.576774E-09 -9.414464E-10
       271  12  1.871386E+05  7.026925E+03 -9.366697E+03  8.375148E+04  4.388723E-09 -3.377158E-09
       271  13  2.985767E+05  4.616832E+04  5.170861E+03  1.178967E+05 -1.499643E-09 -7.215631E-09
       271  14  2.988655E+05  4.497664E+04  9.298419E+03  1.162991E+05  3.954298E-09  3.251879E-09
       271  15  2.991885E+05  5.045176E+04  1.813492E+04  1.162739E+05  2.787512E-09 -8.446449E-09
       271  16  3.984399E+05  8.277292E+04  2.922096E+04  1.447596E+05 -8.991441E-09 -2.551287E-10
       271  17  4.048146E+05  8.497820E+04  3.501768E+04  1.459946E+05 -2.137135E-09  2.606705E-09
       271  18  4.112514E+05  9.387795E+04  4.563573E+04  1.488020E+05  1.101549E-09 -1.365545E-08
       271  19  1.987229E+05  9.564175E+03 -1.888001E+04  9.103741E+04  6.074437E+03 -3.765748E+03
       271  20  1.929277E+05  4.975970E+03 -1.642145E+04  8.660815E+04  1.079411E+04 -2.404008E+03
       271  21  1.871388E+05  7.026990E+03 -9.366247E+03  8.375146E+04  1.545087E+04 -8.763452E+02
       271  22  2.985767E+05  4.616834E+04  5.170951E+03  1.178966E+05  5.686170E+03 -3.912703E+03
       271  23  2.988657E+05  4.497667E+04  9.298639E+03  1.162990E+05  1.054839E+04 -2.496950E+03
       271  24  2.991887E+05  5.045182E+04  1.813536E+04  1.162739E+05  1.534776E+04 -9.152417E+02
       271  25  3.984399E+05  8.277294E+04  2.922105E+04  1.447596E+05  5.297836E+03 -4.059682E+03
       271  26  4.048147E+05  8.497824E+04  3.501789E+04  1.459946E+05  1.030261E+04 -2.589910E+03
       271  27  4.112516E+05  9.387801E+04  4.563616E+04  1.488020E+05  1.524463E+04 -9.541469E+02
       272   1  1.755380E+05  6.381030E+03 -5.899632E+03  9.611345E+04 -1.973379E+04 -5.200811E+01
       272   2  1.757145E+05 -1.215812E+04  9.321216E+03  7.120270E+04 -3.796678E+04 -7.435096E+03
       272   3  2.023748E+05  4.087319E+04  5.727871E+04  3.069573E+04 -5.478862E+04 -1.854616E+04
       272   4  3.021187E+05  4.345385E+04  2.286772E+04  1.206200E+05 -1.850379E+04  4.138531E+02
       272   5  2.936517E+05  4.291339E+04  4.021777E+04  1.149579E+05 -3.992603E+04 -8.177555E+03
       272   6  3.122934E+05  1.145647E+05  9.282795E+04  9.370208E+04 -5.993693E+04 -2.049796E+04
       272   7  4.287157E+05  8.052665E+04  5.163420E+04  1.451305E+05 -1.727351E+04  8.797686E+02
       272   8  4.116020E+05  9.798786E+04  7.111292E+04  1.587212E+05 -4.188567E+04 -8.920248E+03
       272   9  4.222245E+05  1.882659E+05  1.283757E+05  1.567199E+05 -6.508614E+04 -2.245077E+04
       272  10  1.755376E+05  6.380926E+03 -5.900364E+03  9.611345E+04 -6.870672E-10 -1.145715E-08
       272  11  1.757129E+05 -1.215857E+04  9.318404E+03  7.120247E+04 -1.100110E-09 -5.633620E-09
       272  12  2.023715E+05  4.087202E+04  5.727242E+04  3.069491E+04  2.652694E-10 -8.128173E-10
       272  13  3.021183E+05  4.345376E+04  2.286708E+04  1.206200E+05  3.597480E-09 -1.315732E-08
       272  14  2.936499E+05  4.291289E+04  4.021465E+04  1.149577E+05 -3.100736E-09  1.443080E-09
       272  15  3.122895E+05  1.145633E+05  9.282041E+04  9.370109E+04 -5.183543E-10 -2.174356E-09
       272  16  4.287154E+05  8.052657E+04  5.163364E+04  1.451305E+05  2.124875E-09  1.766237E-09
       272  17  4.116001E+05  9.798731E+04  7.110948E+04  1.587209E+05  9.885735E-10  1.042025E-08
       272  18  4.222198E+05  1.882642E+05  1.283668E+05  1.567187E+05 -1.094971E-09  1.784393E-09
       272  19  1.755380E+05  6.381030E+03 -5.899632E+03  9.611345E+04  1.973379E+04  5.200811E+01
       272  20  1.757145E+05 -1.215812E+04  9.321216E+03  7.120270E+04  3.796678E+04  7.435096E+03
       272  21  2.023748E+05  4.087319E+04  5.727871E+04  3.069573E+04  5.478862E+04  1.854616E+04
       272  22  3.021187E+05  4.345385E+04  2.286772E+04  1.206200E+05  1.850379E+04 -4.138531E+02
       272  23  2.936517E+05  4.291339E+04  4.021777E+04  1.149579E+05  3.992603E+04  8.177555E+03
       272  24  3.122934E+05  1.145647E+05  9.282795E+04  9.370208E+04  5.993693E+04  2.049796E+04
       272  25  4.287157E+05  8.052665E+04  5.163420E+04  1.451305E+05  1.727351E+04 -8.797686E+02
       272  26  4.116020E+05  9.798786E+04  7.111292E+04  1.587212E+05  4.188567E+04  8.920248E+03
       272  27  4.222245E+05  1.882659E+05  1.283757E+05  1.567199E+05  6.508614E+04  2.245077E+04
       273   1 -6.163126E+04 -4.543276E+05 -6.683751E+04  2.603040E+04 -1.533743E+03 -2.801089E+04
       273   2 -2.723318E+04 -4.333628E+05 -4.206338E+04  1.352577E+04 -4.934639E+03 -1.583146E+04
       273   3 -2.184401E+04 -4.211834E+05 -3.247059E+04  7.688888E+03 -4.916791E+03 -3.640776E+03
       273   4 -2.967835E+04 -3.262496E+05 -3.574362E+04  1.158698E+04 -1.547513E+03 -2.339008E+04
       273   5  3.572870E+01 -3.221249E+05 -1.719285E+04  8.300876E+03 -4.939100E+03 -1.432534E+04
       273   6  1.284451E+03 -3.262435E+05 -1.165765E+04  1.168293E+04 -4.911855E+03 -5.249779E+03
       273   7  2.274134E+03 -1.981562E+05 -4.650734E+03 -2.859421E+03 -1.561497E+03 -1.876833E+04
       273   8  2.730389E+04 -2.108755E+05  7.676929E+03  3.075047E+03 -4.943586E+03 -1.281896E+04
       273   9  2.441238E+04 -2.312952E+05  9.154768E+03  1.567760E+04 -4.906941E+03 -6.859025E+03
       273  10 -6.163148E+04 -4.543284E+05 -6.683899E+04  2.603037E+04  4.112575E-10 -3.770765E-09
       273  11 -2.723327E+04 -4.333631E+05 -4.206389E+04  1.352570E+04 -1.033680E-09 -5.275614E-09
       273  12 -2.184404E+04 -4.211834E+05 -3.247066E+04  7.688873E+03 -3.456675E-09 -4.288452E-09
       273  13 -2.967850E+04 -3.262502E+05 -3.574466E+04  1.158695E+04 -1.237739E-10 -2.423813E-09
       273  14  3.564739E+01 -3.221252E+05 -1.719328E+04  8.300819E+03 -3.367808E-09  9.892891E-09
       273  15  1.284418E+03 -3.262436E+05 -1.165774E+04  1.168291E+04 -1.503417E-09 -1.275936E-08
       273  16  2.274037E+03 -1.981565E+05 -4.651400E+03 -2.859444E+03 -2.028965E-09  3.779216E-09
       273  17  2.730382E+04 -2.108757E+05  7.676574E+03  3.074996E+03 -2.605759E-09  1.582229E-08
       273  18  2.441234E+04 -2.312952E+05  9.154634E+03  1.567757E+04 -2.004214E-09 -6.913638E-10
       273  19 -6.163126E+04 -4.543276E+05 -6.683751E+04  2.603040E+04  1.533743E+03  2.801089E+04
       273  20 -2.723318E+04 -4.333628E+05 -4.206338E+04  1.352577E+04  4.934639E+03  1.583146E+04
       273  21 -2.184401E+04 -4.211834E+05 -3.247059E+04  7.688888E+03  4.916791E+03  3.640776E+03
       273  22 -2.967835E+04 -3.262496E+05 -3.574362E+04  1.158698E+04  1.547513E+03  2.339008E+04
       273  23  3.572870E+01 -3.221249E+05 -1.719285E+04  8.300876E+03  4.939100E+03  1.432534E+04
       273  24  1.284451E+03 -3.262435E+05 -1.165765E+04  1.168293E+04  4.911855E+03  5.249779E+03
       273  25  2.274134E+03 -1.981562E+05 -4.650734E+03 -2.859421E+03  1.561497E+03  1.876833E+04
       273  26  2.730389E+04 -2.108755E+05  7.676929E+03  3.075047E+03  4.943586E+03  1.281896E+04
       273  27  2.441238E+04 -2.312952E+05  9.154768E+03  1.567760E+04  4.906941E+03  6.859025E+03
       274   1 -2.141604E+04 -4.059972E+05 -2.836819E+04  1.286523E+04 -4.070326E+03 -2.837457E+03
       274   2 -1.569504E+04 -3.885997E+05 -2.347767E+04  8.369081E+03 -3.334521E+03  1.966463E+03
       274   3 -1.380765E+04 -3.727323E+05 -2.266227E+04  1.076323E+04 -2.451574E+03  6.770879E+03
       274   4 -1.571382E+03 -3.247470E+05 -1.046737E+04  1.170650E+04 -4.068412E+03 -3.454678E+03
       274   5  6.805398E+01 -3.239932E+05 -9.295794E+03  8.260562E+03 -3.332233E+03  1.215577E+03
       274   6 -2.102657E+03 -3.247465E+05 -1.210615E+04  1.170490E+04 -2.448905E+03  5.886202E+03
       274   7  1.827284E+04 -2.434906E+05  7.433039E+03  1.054763E+04 -4.066495E+03 -4.071979E+03
       274   8  1.583087E+04 -2.593829E+05  4.885834E+03  8.152034E+03 -3.329945E+03  4.646134E+02
       274   9  9.602188E+03 -2.767586E+05 -1.550171E+03  1.264665E+04 -2.446239E+03  5.001458E+03
       274  10 -2.141606E+04 -4.059972E+05 -2.836824E+04  1.286522E+04 -1.722205E-09  1.433251E-11
       274  11 -1.569505E+04 -3.885997E+05 -2.347770E+04  8.369086E+03  4.628340E-09 -2.973366E-09
       274  12 -1.380767E+04 -3.727324E+05 -2.266236E+04  1.076324E+04 -2.847192E-09 -7.419928E-09
       274  13 -1.571403E+03 -3.247470E+05 -1.046743E+04  1.170649E+04 -1.344587E-09 -4.407786E-09
       274  14  6.804166E+01 -3.239932E+05 -9.295818E+03  8.260565E+03  2.967549E-09  7.615773E-09
       274  15 -2.102673E+03 -3.247466E+05 -1.210623E+04  1.170492E+04 -1.657695E-10 -1.915473E-08
       274  16  1.827281E+04 -2.434906E+05  7.432977E+03  1.054761E+04 -1.426675E-09  1.082550E-09
       274  17  1.583086E+04 -2.593829E+05  4.885813E+03  8.152036E+03 -3.567980E-09  1.166150E-08
       274  18  9.602175E+03 -2.767586E+05 -1.550229E+03  1.264666E+04  2.364294E-09 -8.202650E-10
       274  19 -2.141604E+04 -4.059972E+05 -2.836819E+04  1.286523E+04  4.070326E+03  2.837457E+03
       274  20 -1.569504E+04 -3.885997E+05 -2.347767E+04  8.369081E+03  3.334521E+03 -1.966463E+03
       274  21 -1.380765E+04 -3.727323E+05 -2.266227E+04  1.076323E+04  2.451574E+03 -6.770879E+03
       274  22 -1.571382E+03 -3.247470E+05 -1.046737E+04  1.170650E+04  4.068412E+03  3.454678E+03
       274  23  6.805398E+01 -3.239932E+05 -9.295794E+03  8.260562E+03  3.332233E+03 -1.215577E+03
       274  24 -2.102657E+03 -3.247465E+05 -1.210615E+04  1.170490E+04  2.448905E+03 -5.886202E+03
       274  25  1.827284E+04 -2.434906E+05  7.433039E+03  1.054763E+04  4.066495E+03  4.071979E+03
       274  26  1.583087E+04 -2.593829E+05  4.885834E+03  8.152034E+03  3.329945E+03 -4.646134E+02
       274  27  9.602188E+03 -2.767586E+05 -1.550171E+03  1.264665E+04  2.446239E+03 -5.001458E+03
       275   1 -6.646405E+03 -3.611382E+05 -2.158202E+04  1.734911E+04 -1.881157E+03  8.874022E+03
       275   2 -4.220174E+03 -3.391783E+05 -2.584763E+04  1.812362E+03 -1.016247E+03  2.037154E+04
       275   3 -3.900654E+04 -3.279682E+05 -4.689230E+04 -6.897360E+03 -2.906501E+02  3.186876E+04
       275   4  1.761815E+03 -3.268040E+05 -1.408802E+04  1.172461E+04 -1.878597E+03  7.990945E+03
       275   5  5.914337E+01 -3.214211E+05 -2.198360E+04  8.250491E+03 -1.013781E+03  1.961531E+04
       275   6 -3.887820E+04 -3.268104E+05 -4.674629E+04  1.160339E+04 -2.878306E+02  3.123910E+04
       275   7  1.017008E+04 -2.924687E+05 -6.594067E+03  6.099795E+03 -1.876021E+03  7.107820E+03
       275   8  4.338597E+03 -3.036635E+05 -1.811956E+04  1.468881E+04 -1.011331E+03  1.885907E+04
       275   9 -3.874856E+04 -3.256519E+05 -4.660009E+04  3.010417E+04 -2.850487E+02  3.060944E+04
       275  10 -6.646430E+03 -3.611383E+05 -2.158217E+04  1.734912E+04 -1.305829E-09  3.372847E-09
       275  11 -4.220287E+03 -3.391787E+05 -2.584841E+04  1.812379E+03  7.513804E-09  1.927638E-09
       275  12 -3.900682E+04 -3.279693E+05 -4.689421E+04 -6.897352E+03  2.859699E-09 -4.717585E-09
       275  13  1.761794E+03 -3.268041E+05 -1.408814E+04  1.172462E+04  2.300317E-09 -2.125536E-09
       275  14  5.903891E+01 -3.214215E+05 -2.198432E+04  8.250507E+03  3.012500E-09  7.531193E-09
       275  15 -3.887846E+04 -3.268115E+05 -4.674813E+04  1.160339E+04  7.535785E-10 -1.606832E-08
       275  16  1.017006E+04 -2.924688E+05 -6.594169E+03  6.099806E+03  1.414607E-09 -2.022631E-10
       275  17  4.338500E+03 -3.036639E+05 -1.812023E+04  1.468882E+04 -1.017064E-09  2.443175E-09
       275  18 -3.874881E+04 -3.256530E+05 -4.660185E+04  3.010417E+04 -1.935986E-09  1.436423E-10
       275  19 -6.646405E+03 -3.611382E+05 -2.158202E+04  1.734911E+04  1.881157E+03 -8.874022E+03
       275  20 -4.220174E+03 -3.391783E+05 -2.584763E+04  1.812362E+03  1.016247E+03 -2.037154E+04
       275  21 -3.900654E+04 -3.279682E+05 -4.689230E+04 -6.897360E+03  2.906501E+02 -3.186876E+04
       275  22  1.761815E+03 -3.268040E+05 -1.408802E+04  1.172461E+04  1.878597E+03 -7.990945E+03
       275  23  5.914337E+01 -3.214211E+05 -2.198360E+04  8.250491E+03  1.013781E+03 -1.961531E+04
       275  24 -3.887820E+04 -3.268104E+05 -4.674629E+04  1.160339E+04  2.878306E+02 -3.123910E+04
       275  25  1.017008E+04 -2.924687E+05 -6.594067E+03  6.099795E+03  1.876021E+03 -7.107820E+03
       275  26  4.338597E+03 -3.036635E+05 -1.811956E+04  1.468881E+04  1.011331E+03 -1.885907E+04
       275  27 -3.874856E+04 -3.256519E+05 -4.660009E+04  3.010417E+04  2.850487E+02 -3.060944E+04
       276   1 -2.606608E+05 -1.339722E+05 -1.205116E+05 -1.886185E+04  9.717631E+03  9.416396E+03
       276   2 -2.032078E+05 -1.602947E+05 -1.216981E+05 -2.002302E+04  1.397496E+04  2.959860E+04
       276   3 -1.362009E+05 -1.470220E+05 -1.157262E+05 -4.610644E+04  1.825295E+04  3.096953E+04
       276   4  4.574486E+05  4.436669E+04  5.340439E+04 -3.947551E+04  3.671778E+04  9.443104E+03
       276   5  4.512075E+05 -2.370615E+02  2.431615E+04 -2.699534E+04  2.381520E+04  2.960426E+04
       276   6  4.574821E+05 -2.290443E+03  1.429063E+04 -3.943488E+04  1.093295E+04  3.096322E+04
       276   7  1.176032E+06  2.226698E+05  2.272863E+05 -6.011320E+04  6.374906E+04  9.468004E+03
       276   8  1.106022E+06  1.597917E+05  1.703039E+05 -3.397515E+04  3.366569E+04  2.960969E+04
       276   9  1.051495E+06  1.424178E+05  1.442863E+05 -3.275689E+04  3.606033E+03  3.095675E+04
       276  10 -2.606610E+05 -1.339723E+05 -1.205120E+05 -1.886192E+04  2.891594E-10 -3.255963E-11
       276  11 -2.032082E+05 -1.602957E+05 -1.217001E+05 -2.002336E+04 -4.380165E-10 -5.474920E-12
       276  12 -1.362015E+05 -1.470231E+05 -1.157286E+05 -4.610690E+04 -3.494115E-10  2.521299E-10
       276  13  4.574471E+05  4.436623E+04  5.340169E+04 -3.947579E+04  1.262656E-10 -2.907266E-11
       276  14  4.512066E+05 -2.381550E+02  2.431344E+04 -2.699590E+04  2.718391E-10 -1.684035E-11
       276  15  4.574817E+05 -2.291505E+03  1.428860E+04 -3.943515E+04  2.709349E-12  1.386666E-10
       276  16  1.176027E+06  2.226686E+05  2.272785E+05 -6.011368E+04 -5.332656E-10 -3.947268E-11
       276  17  1.106021E+06  1.597905E+05  1.703001E+05 -3.397595E+04 -3.301333E-10 -6.546795E-11
       276  18  1.051495E+06  1.424168E+05  1.442844E+05 -3.275698E+04  1.340532E-10  4.446580E-11
       276  19 -2.606608E+05 -1.339722E+05 -1.205116E+05 -1.886185E+04 -9.717631E+03 -9.416396E+03
       276  20 -2.032078E+05 -1.602947E+05 -1.216981E+05 -2.002302E+04 -1.397496E+04 -2.959860E+04
       276  21 -1.362009E+05 -1.470220E+05 -1.157262E+05 -4.610644E+04 -1.825295E+04 -3.096953E+04
       276  22  4.574486E+05  4.436669E+04  5.340439E+04 -3.947551E+04 -3.671778E+04 -9.443104E+03
       276  23  4.512075E+05 -2.370615E+02  2.431615E+04 -2.699534E+04 -2.381520E+04 -2.960426E+04
       276  24  4.574821E+05 -2.290443E+03  1.429063E+04 -3.943488E+04 -1.093295E+04 -3.096322E+04
       276  25  1.176032E+06  2.226698E+05  2.272863E+05 -6.011320E+04 -6.374906E+04 -9.468004E+03
       276  26  1.106022E+06  1.597917E+05  1.703039E+05 -3.397515E+04 -3.366569E+04 -2.960969E+04
       276  27  1.051495E+06  1.424178E+05  1.442863E+05 -3.275689E+04 -3.606033E+03 -3.095675E+04
       277   1 -8.783459E+04 -1.300938E+05 -1.081217E+05 -3.894200E+04  1.074697E+04  2.727716E+04
       277   2 -2.669596E+04 -1.174446E+05 -9.936303E+04 -2.675351E+04  8.428198E+03  2.483388E+04
       277   3  3.543265E+04 -1.024833E+05 -8.849212E+04 -4.009554E+04  6.107619E+03  2.155574E+04
       277   4  4.549605E+05  2.340816E+03  1.135874E+04 -3.958116E+04  8.905892E+03  2.727453E+04
       277   5  4.544108E+05 -1.428568E+02  6.143508E+03 -2.681609E+04  5.823319E+03  2.483161E+04
       277   6  4.549791E+05 -1.829247E+02  3.569323E+03 -3.958028E+04  2.739167E+03  2.155414E+04
       277   7  9.980310E+05  1.347557E+05  1.308212E+05 -4.022091E+04  7.063221E+03  2.727189E+04
       277   8  9.357341E+05  1.171434E+05  1.116360E+05 -2.687873E+04  3.216446E+03  2.482934E+04
       277   9  8.746902E+05  1.021057E+05  9.562010E+04 -3.906466E+04 -6.315332E+02  2.155253E+04
       277  10 -8.783491E+04 -1.300947E+05 -1.081233E+05 -3.894224E+04  8.716182E-14  2.168006E-10
       277  11 -2.669621E+04 -1.174452E+05 -9.936432E+04 -2.675368E+04 -4.135647E-10 -1.249792E-10
       277  12  3.543248E+04 -1.024838E+05 -8.849306E+04 -4.009565E+04 -1.273298E-10 -2.305628E-12
       277  13  4.549602E+05  2.339996E+03  1.135720E+04 -3.958136E+04 -1.453236E-11  9.044357E-11
       277  14  4.544106E+05 -1.435282E+02  6.142286E+03 -2.681620E+04 -1.602216E-10 -1.363378E-10
       277  15  4.549789E+05 -1.834257E+02  3.568436E+03 -3.958032E+04  3.669190E-10 -2.536233E-11
       277  16  9.980307E+05  1.347549E+05  1.308197E+05 -4.022106E+04 -2.563638E-10  9.501568E-11
       277  17  9.357339E+05  1.171427E+05  1.116348E+05 -2.687880E+04 -8.638072E-11  5.330909E-11
       277  18  8.746900E+05  1.021052E+05  9.561922E+04 -3.906465E+04  1.600135E-10 -3.121735E-11
       277  19 -8.783459E+04 -1.300938E+05 -1.081217E+05 -3.894200E+04 -1.074697E+04 -2.727716E+04
       277  20 -2.669596E+04 -1.174446E+05 -9.936303E+04 -2.675351E+04 -8.428198E+03 -2.483388E+04
       277  21  3.543265E+04 -1.024833E+05 -8.849212E+04 -4.009554E+04 -6.107619E+03 -2.155574E+04
       277  22  4.549605E+05  2.340816E+03  1.135874E+04 -3.958116E+04 -8.905892E+03 -2.727453E+04
       277  23  4.544108E+05 -1.428568E+02  6.143508E+03 -2.681609E+04 -5.823319E+03 -2.483161E+04
       277  24  4.549791E+05 -1.829247E+02  3.569323E+03 -3.958028E+04 -2.739167E+03 -2.155414E+04
       277  25  9.980310E+05  1.347557E+05  1.308212E+05 -4.022091E+04 -7.063221E+03 -2.727189E+04
       277  26  9.357341E+05  1.171434E+05  1.116360E+05 -2.687873E+04 -3.216446E+03 -2.482934E+04
       277  27  8.746902E+05  1.021057E+05  9.562010E+04 -3.906466E+04  6.315332E+02 -2.155253E+04
       278   1  8.544355E+04 -8.992401E+04 -7.801354E+04 -3.963489E+04  5.302339E+03  1.945097E+04
       278   2  1.467102E+05 -7.511296E+04 -6.587826E+04 -2.688765E+04  4.548314E+03  1.601336E+04
       278   3  2.081492E+05 -6.016270E+04 -5.320912E+04 -3.958726E+04  3.792865E+03  1.254232E+04
       278   4  4.547784E+05  7.357291E+01  2.744851E+03 -3.956204E+04  2.183053E+03  1.944986E+04
       278   5  4.546966E+05 -4.281104E+01  1.585413E+03 -2.683901E+04  1.397992E+03  1.601281E+04
       278   6  4.547897E+05 -1.422363E+01  9.814796E+02 -3.956206E+04  6.115804E+02  1.254235E+04
       278   7  8.242410E+05  9.006207E+04  8.349503E+04 -3.948915E+04 -9.380653E+02  1.944875E+04
       278   8  7.627717E+05  7.502101E+04  6.904337E+04 -2.679034E+04 -1.753873E+03  1.601225E+04
       278   9  7.014871E+05  6.013018E+04  5.516840E+04 -3.953684E+04 -2.570953E+03  1.254237E+04
       278  10  8.544342E+04 -8.992442E+04 -7.801431E+04 -3.963497E+04 -1.457353E-10  1.282564E-12
       278  11  1.467101E+05 -7.511324E+04 -6.587879E+04 -2.688771E+04  3.487532E-10 -2.082192E-10
       278  12  2.081492E+05 -6.016287E+04 -5.320944E+04 -3.958730E+04  3.332934E-10 -1.389541E-10
       278  13  4.547783E+05  7.316531E+01  2.744131E+03 -3.956208E+04  5.156975E-10  7.265919E-12
       278  14  4.546965E+05 -4.308696E+01  1.584928E+03 -2.683903E+04  1.346494E-10 -6.131321E-11
       278  15  4.547897E+05 -1.439269E+01  9.811833E+02 -3.956206E+04 -9.902127E-11 -1.610507E-10
       278  16  8.242409E+05  9.006167E+04  8.349432E+04 -3.948914E+04 -4.463622E-11 -1.440287E-11
       278  17  7.627716E+05  7.502074E+04  6.904289E+04 -2.679032E+04 -5.055625E-11  8.601352E-11
       278  18  7.014871E+05  6.013001E+04  5.516809E+04 -3.953682E+04 -7.952866E-11 -1.381875E-10
       278  19  8.544355E+04 -8.992401E+04 -7.801354E+04 -3.963489E+04 -5.302339E+03 -1.945097E+04
       278  20  1.467102E+05 -7.511296E+04 -6.587826E+04 -2.688765E+04 -4.548314E+03 -1.601336E+04
       278  21  2.081492E+05 -6.016270E+04 -5.320912E+04 -3.958726E+04 -3.792865E+03 -1.254232E+04
       278  22  4.547784E+05  7.357291E+01  2.744851E+03 -3.956204E+04 -2.183053E+03 -1.944986E+04
       278  23  4.546966E+05 -4.281104E+01  1.585413E+03 -2.683901E+04 -1.397992E+03 -1.601281E+04
       278  24  4.547897E+05 -1.422363E+01  9.814796E+02 -3.956206E+04 -6.115804E+02 -1.254235E+04
       278  25  8.242410E+05  9.006207E+04  8.349503E+04 -3.948915E+04  9.380653E+02 -1.944875E+04
       278  26  7.627717E+05  7.502101E+04  6.904337E+04 -2.679034E+04  1.753873E+03 -1.601225E+04
       278  27  7.014871E+05  6.013018E+04  5.516840E+04 -3.953684E+04  2.570953E+03 -1.254237E+04
       279   1  2.581492E+05 -4.788654E+04 -4.209157E+04 -3.954929E+04  3.618230E+03  1.051548E+04
       279   2  3.193277E+05 -3.300703E+04 -2.904961E+04 -2.684452E+04  3.317309E+03  7.043131E+03
       279   3  3.805519E+05 -1.811038E+04 -1.580819E+04 -3.952639E+04  3.015753E+03  3.571016E+03
       279   4  4.547650E+05 -5.738983E-01  7.992105E+02 -3.954877E+04  4.503693E+02  1.051576E+04
       279   5  4.547468E+05 -3.168420E+00  6.084205E+02 -2.685562E+04  1.494223E+02  7.043652E+03
       279   6  4.547699E+05  1.136148E+01  6.169232E+02 -3.954877E+04 -1.521311E+02  3.571794E+03
       279   7  6.514170E+05  4.788282E+04  4.368770E+04 -3.954826E+04 -2.718481E+03  1.051604E+04
       279   8  5.901831E+05  3.299947E+04  3.026537E+04 -2.686672E+04 -3.019147E+03  7.044172E+03
       279   9  5.289930E+05  1.813274E+04  1.704174E+04 -3.957116E+04 -3.320390E+03  3.572572E+03
       279  10  2.581492E+05 -4.788666E+04 -4.209180E+04 -3.954932E+04 -1.647638E-10  6.786762E-12
       279  11  3.193277E+05 -3.300709E+04 -2.904972E+04 -2.684454E+04 -1.392142E-10  3.159797E-10
       279  12  3.805519E+05 -1.811040E+04 -1.580823E+04 -3.952640E+04  6.637156E-10  2.559150E-11
       279  13  4.547650E+05 -6.927234E-01  7.990023E+02 -3.954878E+04  1.632190E-11 -8.377003E-11
       279  14  4.547468E+05 -3.221713E+00  6.083272E+02 -2.685562E+04 -1.630200E-11  2.793285E-10
       279  15  4.547699E+05  1.134777E+01  6.168991E+02 -3.954877E+04  6.580099E-10  3.935894E-11
       279  16  6.514169E+05  4.788270E+04  4.368748E+04 -3.954823E+04  3.412753E-10 -1.275778E-10
       279  17  5.901831E+05  3.299942E+04  3.026526E+04 -2.686671E+04  9.081275E-11  1.344793E-10
       279  18  5.289930E+05  1.813272E+04  1.704169E+04 -3.957115E+04 -3.175553E-10 -8.123780E-11
       279  19  2.581492E+05 -4.788654E+04 -4.209157E+04 -3.954929E+04 -3.618230E+03 -1.051548E+04
       279  20  3.193277E+05 -3.300703E+04 -2.904961E+04 -2.684452E+04 -3.317309E+03 -7.043131E+03
       279  21  3.805519E+05 -1.811038E+04 -1.580819E+04 -3.952639E+04 -3.015753E+03 -3.571016E+03
       279  22  4.547650E+05 -5.738983E-01  7.992105E+02 -3.954877E+04 -4.503693E+02 -1.051576E+04
       279  23  4.547468E+05 -3.168420E+00  6.084205E+02 -2.685562E+04 -1.494223E+02 -7.043652E+03
       279  24  4.547699E+05  1.136148E+01  6.169232E+02 -3.954877E+04  1.521311E+02 -3.571794E+03
       279  25  6.514170E+05  4.788282E+04  4.368770E+04 -3.954826E+04  2.718481E+03 -1.051604E+04
       279  26  5.901831E+05  3.299947E+04  3.026537E+04 -2.686672E+04  3.019147E+03 -7.044172E+03
       279  27  5.289930E+05  1.813274E+04  1.704174E+04 -3.957116E+04  3.320390E+03 -3.572572E+03
       280   1  4.305103E+05 -5.867306E+03 -4.452093E+03 -3.952816E+04  2.895933E+03  1.550605E+03
       280   2  4.916514E+05  8.990751E+03  9.088535E+03 -2.683006E+04  2.397004E+03 -1.919889E+03
       280   3  5.528576E+05  2.387863E+04  2.295811E+04 -3.950276E+04  1.898190E+03 -5.389493E+03
       280   4  4.547755E+05  1.176458E+01  6.900523E+02 -3.954535E+04 -2.714153E+02  1.551439E+03
       280   5  4.547440E+05 -3.254075E+00  1.006181E+03 -2.685990E+04 -7.696474E+02 -1.919130E+03
       280   6  4.547740E+05  1.165597E+01  1.650927E+03 -3.954534E+04 -1.267716E+03 -5.388795E+03
       280   7  4.790412E+05  5.890803E+03  5.832202E+03 -3.956255E+04 -3.438885E+03  1.552273E+03
       280   8  4.178380E+05 -8.997345E+03 -7.076217E+03 -2.688973E+04 -3.936112E+03 -1.918372E+03
       280   9  3.566995E+05 -2.385595E+04 -1.965680E+04 -3.958791E+04 -4.433128E+03 -5.388098E+03
       280  10  4.305103E+05 -5.867311E+03 -4.452114E+03 -3.952816E+04 -2.712044E-10  2.322688E-12
       280  11  4.916514E+05  8.990746E+03  9.088517E+03 -2.683005E+04  2.571738E-10  2.402802E-10
       280  12  5.528576E+05  2.387859E+04  2.295805E+04 -3.950276E+04  4.498728E-10  5.653547E-11
       280  13  4.547755E+05  1.176197E+01  6.900477E+02 -3.954535E+04  2.450574E-10  4.940408E-12
       280  14  4.547440E+05 -3.258190E+00  1.006173E+03 -2.685990E+04  2.487913E-10  2.446622E-10
       280  15  4.547740E+05  1.162435E+01  1.650869E+03 -3.954535E+04  2.398483E-10  6.714377E-11
       280  16  4.790412E+05  5.890797E+03  5.832175E+03 -3.956254E+04  6.213027E-10 -1.722231E-10
       280  17  4.178379E+05 -8.997353E+03 -7.076253E+03 -2.688974E+04  5.857675E-11  9.627592E-11
       280  18  3.566995E+05 -2.385598E+04 -1.965689E+04 -3.958793E+04 -1.864231E-11  3.676928E-11
       280  19  4.305103E+05 -5.867306E+03 -4.452093E+03 -3.952816E+04 -2.895933E+03 -1.550605E+03
       280  20  4.916514E+05  8.990751E+03  9.088535E+03 -2.683006E+04 -2.397004E+03  1.919889E+03
       280  21  5.528576E+05  2.387863E+04  2.295811E+04 -3.950276E+04 -1.898190E+03  5.389493E+03
       280  22  4.547755E+05  1.176458E+01  6.900523E+02 -3.954535E+04  2.714153E+02 -1.551439E+03
       280  23  4.547440E+05 -3.254075E+00  1.006181E+03 -2.685990E+04  7.696474E+02  1.919130E+03
       280  24  4.547740E+05  1.165597E+01  1.650927E+03 -3.954534E+04  1.267716E+03  5.388795E+03
       280  25  4.790412E+05  5.890803E+03  5.832202E+03 -3.956255E+04  3.438885E+03 -1.552273E+03
       280  26  4.178380E+05 -8.997345E+03 -7.076217E+03 -2.688973E+04  3.936112E+03  1.918372E+03
       280  27  3.566995E+05 -2.385595E+04 -1.965680E+04 -3.958791E+04  4.433128E+03  5.388098E+03
       281   1  6.028985E+05  3.609697E+04  3.473774E+04 -3.945871E+04  1.566012E+03 -7.413127E+03
       281   2  6.639944E+05  5.095293E+04  4.951955E+04 -2.675748E+04 -2.863998E+02 -1.087897E+04
       281   3  7.254325E+05  6.616086E+04  6.559580E+04 -3.946295E+04 -2.138039E+03 -1.431517E+04
       281   4  4.548320E+05 -1.719633E+01  2.144641E+03 -3.955343E+04 -1.610875E+03 -7.412569E+03
       281   5  4.546605E+05 -5.540361E+01  3.678838E+03 -2.684978E+04 -3.435785E+03 -1.087881E+04
       281   6  4.548240E+05  2.541943E+02  6.489141E+03 -3.955335E+04 -5.259743E+03 -1.431539E+04
       281   7  3.067860E+05 -3.613282E+04 -3.044976E+04 -3.964812E+04 -4.787014E+03 -7.412010E+03
       281   8  2.453676E+05 -5.106665E+04 -4.216450E+04 -2.694204E+04 -6.584121E+03 -1.087865E+04
       281   9  1.842840E+05 -6.565734E+04 -5.262190E+04 -3.964371E+04 -8.380105E+03 -1.431560E+04
       281  10  6.028985E+05  3.609691E+04  3.473763E+04 -3.945870E+04  1.707917E-10 -2.064680E-10
       281  11  6.639944E+05  5.095280E+04  4.951933E+04 -2.675748E+04 -1.780866E-10 -2.806789E-10
       281  12  7.254324E+05  6.616064E+04  6.559540E+04 -3.946297E+04 -4.950542E-10 -4.010179E-11
       281  13  4.548320E+05 -1.725604E+01  2.144532E+03 -3.955343E+04  2.892436E-10 -2.085070E-10
       281  14  4.546605E+05 -5.553389E+01  3.678593E+03 -2.684981E+04  1.756418E-10 -2.071852E-10
       281  15  4.548239E+05  2.539667E+02  6.488704E+03 -3.955341E+04  2.087326E-10  2.485440E-11
       281  16  3.067860E+05 -3.613289E+04 -3.044991E+04 -3.964814E+04  5.308284E-11 -1.051821E-10
       281  17  2.453675E+05 -5.106679E+04 -4.216480E+04 -2.694210E+04  2.351292E-10 -1.426495E-10
       281  18  1.842839E+05 -6.565758E+04 -5.262242E+04 -3.964381E+04  1.073899E-10  4.627389E-11
       281  19  6.028985E+05  3.609697E+04  3.473774E+04 -3.945871E+04 -1.566012E+03  7.413127E+03
       281  20  6.639944E+05  5.095293E+04  4.951955E+04 -2.675748E+04  2.863998E+02  1.087897E+04
       281  21  7.254325E+05  6.616086E+04  6.559580E+04 -3.946295E+04  2.138039E+03  1.431517E+04
       281  22  4.548320E+05 -1.719633E+01  2.144641E+03 -3.955343E+04  1.610875E+03  7.412569E+03
       281  23  4.546605E+05 -5.540361E+01  3.678838E+03 -2.684978E+04  3.435785E+03  1.087881E+04
       281  24  4.548240E+05  2.541943E+02  6.489141E+03 -3.955335E+04  5.259743E+03  1.431539E+04
       281  25  3.067860E+05 -3.613282E+04 -3.044976E+04 -3.964812E+04  4.787014E+03  7.412010E+03
       281  26  2.453676E+05 -5.106665E+04 -4.216450E+04 -2.694204E+04  6.584121E+03  1.087865E+04
       281  27  1.842840E+05 -6.565734E+04 -5.262190E+04 -3.964371E+04  8.380105E+03  1.431560E+04
       282   1  7.760313E+05  7.782734E+04  7.885491E+04 -3.846404E+04 -3.240889E+03 -1.640454E+04
       282   2  8.362217E+05  9.291423E+04  9.842965E+04 -2.725420E+04 -1.126209E+04 -1.970160E+04
       282   3  8.990102E+05  1.139589E+05  1.247243E+05 -4.150229E+04 -1.928285E+04 -2.227685E+04
       282   4  4.552943E+05 -3.525142E+02  8.467597E+03 -3.956457E+04 -6.577742E+03 -1.640509E+04
       282   5  4.540455E+05 -2.197024E+02  1.465406E+04 -2.683561E+04 -1.393599E+04 -1.970281E+04
       282   6  4.552777E+05  5.758228E+03  2.710338E+04 -3.956537E+04 -2.129300E+04 -2.227854E+04
       282   7  1.346534E+05 -7.853923E+04 -6.192593E+04 -4.066452E+04 -9.912893E+03 -1.640562E+04
       282   8  7.200591E+04 -9.336338E+04 -6.913037E+04 -2.641728E+04 -1.660825E+04 -1.970403E+04
       282   9  1.172903E+04 -1.024556E+05 -7.052954E+04 -3.762986E+04 -2.330172E+04 -2.228025E+04
       282  10  7.760312E+05  7.782705E+04  7.885438E+04 -3.846408E+04  2.972504E-10  9.646743E-11
       282  11  8.362214E+05  9.291378E+04  9.842868E+04 -2.725438E+04  1.188742E-10  1.377186E-10
       282  12  8.990097E+05  1.139583E+05  1.247227E+05 -4.150263E+04  1.190672E-10 -1.394965E-11
       282  13  4.552941E+05 -3.528149E+02  8.467010E+03 -3.956466E+04  2.369492E-10  1.177293E-10
       282  14  4.540452E+05 -2.201715E+02  1.465297E+04 -2.683583E+04  1.508026E-10  1.174725E-10
       282  15  4.552771E+05  5.757573E+03  2.710160E+04 -3.956575E+04  2.492787E-10 -8.155159E-13
       282  16  1.346532E+05 -7.853955E+04 -6.192662E+04 -4.066465E+04 -2.667932E-10  1.303930E-10
       282  17  7.200551E+04 -9.336387E+04 -6.913162E+04 -2.641754E+04 -2.711238E-10 -5.405147E-11
       282  18  1.172832E+04 -1.024563E+05 -7.053150E+04 -3.763028E+04 -3.304102E-10  1.015343E-10
       282  19  7.760313E+05  7.782734E+04  7.885491E+04 -3.846404E+04  3.240889E+03  1.640454E+04
       282  20  8.362217E+05  9.291423E+04  9.842965E+04 -2.725420E+04  1.126209E+04  1.970160E+04
       282  21  8.990102E+05  1.139589E+05  1.247243E+05 -4.150229E+04  1.928285E+04  2.227685E+04
       282  22  4.552943E+05 -3.525142E+02  8.467597E+03 -3.956457E+04  6.577742E+03  1.640509E+04
       282  23  4.540455E+05 -2.197024E+02  1.465406E+04 -2.683561E+04  1.393599E+04  1.970281E+04
       282  24  4.552777E+05  5.758228E+03  2.710338E+04 -3.956537E+04  2.129300E+04  2.227854E+04
       282  25  1.346534E+05 -7.853923E+04 -6.192593E+04 -4.066452E+04  9.912893E+03  1.640562E+04
       282  26  7.200591E+04 -9.336338E+04 -6.913037E+04 -2.641728E+04  1.660825E+04  1.970403E+04
       282  27  1.172903E+04 -1.024556E+05 -7.052954E+04 -3.762986E+04  2.330172E+04  2.228025E+04
       283   1  9.557100E+05  1.151871E+05  1.423317E+05 -2.402995E+04 -1.938006E+04 -2.573582E+04
       283   2  1.001671E+06  1.353450E+05  1.819081E+05 -4.440158E+04 -6.501991E+04 -2.503367E+04
       283   3  1.079705E+06  2.595350E+05  2.772040E+05 -8.972772E+04 -1.106774E+05 -8.071779E+03
       283   4  4.612797E+05 -5.278085E+03  3.410111E+04 -3.943610E+04 -2.613205E+04 -2.573905E+04
       283   5  4.464989E+05 -3.406461E+02  5.808286E+04 -2.699204E+04 -5.690338E+04 -2.503288E+04
       283   6  4.612366E+05  1.060967E+05  1.274955E+05 -3.949938E+04 -8.768671E+04 -8.065281E+03
       283   7 -3.292142E+04 -1.257587E+05 -7.414401E+04 -5.482985E+04 -3.287874E+04 -2.574194E+04
       283   8 -1.083852E+05 -1.360460E+05 -6.576129E+04 -9.598237E+03 -4.879401E+04 -2.503164E+04
       283   9 -1.568764E+05 -4.735977E+04 -2.223717E+04  1.067879E+04 -6.471877E+04 -8.055067E+03
       283  10  9.557094E+05  1.151863E+05  1.423298E+05 -2.403035E+04 -5.803265E-11  6.914334E-11
       283  11  1.001666E+06  1.353432E+05  1.818990E+05 -4.440289E+04 -3.189976E-10  7.140877E-11
       283  12  1.079692E+06  2.595316E+05  2.771809E+05 -8.972844E+04  2.488953E-10 -1.219753E-10
       283  13  4.612788E+05 -5.278980E+03  3.409858E+04 -3.943664E+04 -3.061098E-14  7.246607E-11
       283  14  4.464952E+05 -3.421876E+02  5.807560E+04 -2.699319E+04  5.105265E-10  6.902664E-11
       283  15  4.612283E+05  1.060946E+05  1.274809E+05 -3.949995E+04 -9.369712E-10  2.490597E-11
       283  16 -3.292275E+04 -1.257597E+05 -7.414729E+04 -5.483053E+04 -8.127960E-11  1.728549E-10
       283  17 -1.083879E+05 -1.360473E+05 -6.576694E+04 -9.599221E+03 -2.456659E-10  3.521213E-10
       283  18 -1.568810E+05 -4.736097E+04 -2.224517E+04  1.067837E+04 -4.885868E-10 -2.455484E-11
       283  19  9.557100E+05  1.151871E+05  1.423317E+05 -2.402995E+04  1.938006E+04  2.573582E+04
       283  20  1.001671E+06  1.353450E+05  1.819081E+05 -4.440158E+04  6.501991E+04  2.503367E+04
       283  21  1.079705E+06  2.595350E+05  2.772040E+05 -8.972772E+04  1.106774E+05  8.071779E+03
       283  22  4.612797E+05 -5.278085E+03  3.410111E+04 -3.943610E+04  2.613205E+04  2.573905E+04
       283  23  4.464989E+05 -3.406461E+02  5.808286E+04 -2.699204E+04  5.690338E+04  2.503288E+04
       283  24  4.612366E+05  1.060967E+05  1.274955E+05 -3.949938E+04  8.768671E+04  8.065281E+03
       283  25 -3.292142E+04 -1.257587E+05 -7.414401E+04 -5.482985E+04  3.287874E+04  2.574194E+04
       283  26 -1.083852E+05 -1.360460E+05 -6.576129E+04 -9.598237E+03  4.879401E+04  2.503164E+04
       283  27 -1.568764E+05 -4.735977E+04 -2.223717E+04  1.067879E+04  6.471877E+04  8.055067E+03
       284   1  1.680220E+05  9.801913E+05  1.773997E+05 -1.111456E+05  4.636599E+03  6.310999E+04
       284   2  7.509737E+04  8.441429E+05  1.010562E+05 -6.657108E+04  1.298608E+04  3.484020E+04
       284   3  4.130077E+04  7.264224E+05  5.785397E+04 -7.398074E+04  9.068320E+03  6.560104E+03
       284   4  5.994817E+04  5.456456E+05  7.164580E+04 -8.230694E+04  4.657356E+03  4.990309E+04
       284   5  2.814026E+00  5.374732E+05  3.218338E+04 -5.635851E+04  1.298992E+04  3.284471E+04
       284   6 -2.741042E+03  5.456846E+05  1.809904E+04 -8.239197E+04  9.054224E+03  1.577013E+04
       284   7 -4.813634E+04  1.112741E+05 -3.412075E+04 -5.348847E+04  4.676898E+03  3.670539E+04
       284   8 -7.509779E+04  2.308911E+05 -3.669530E+04 -4.615100E+04  1.299370E+04  3.085019E+04
       284   9 -4.678472E+04  3.649776E+05 -2.165753E+04 -9.080072E+04  9.039876E+03  2.497751E+04
       284  10  1.680209E+05  9.801871E+05  1.773922E+05 -1.111458E+05  4.460736E-11 -1.174940E-10
       284  11  7.509687E+04  8.441416E+05  1.010536E+05 -6.657144E+04 -2.214665E-10  7.538328E-11
       284  12  4.130067E+04  7.264223E+05  5.785373E+04 -7.398079E+04  8.386321E-10  1.317397E-10
       284  13  5.994748E+04  5.456430E+05  7.164108E+04 -8.230712E+04  5.845966E-10 -5.977541E-11
       284  14  2.343439E+00  5.374720E+05  3.218104E+04 -5.635885E+04 -1.816991E-09  2.563402E-10
       284  15 -2.741197E+03  5.456843E+05  1.809842E+04 -8.239209E+04  2.894251E-10  4.120698E-11
       284  16 -4.813672E+04  1.112726E+05 -3.412333E+04 -5.348860E+04 -1.574003E-10  1.072656E-10
       284  17 -7.509822E+04  2.308900E+05 -3.669741E+04 -4.615132E+04 -6.052233E-10  3.978898E-11
       284  18 -4.678498E+04  3.649769E+05 -2.165886E+04 -9.080090E+04  2.126435E-11 -2.057889E-10
       284  19  1.680220E+05  9.801913E+05  1.773997E+05 -1.111456E+05 -4.636599E+03 -6.310999E+04
       284  20  7.509737E+04  8.441429E+05  1.010562E+05 -6.657108E+04 -1.298608E+04 -3.484020E+04
       284  21  4.130077E+04  7.264224E+05  5.785397E+04 -7.398074E+04 -9.068320E+03 -6.560104E+03
       284  22  5.994817E+04  5.456456E+05  7.164580E+04 -8.230694E+04 -4.657356E+03 -4.990309E+04
       284  23  2.814026E+00  5.374732E+05  3.218338E+04 -5.635851E+04 -1.298992E+04 -3.284471E+04
       284  24 -2.741042E+03  5.456846E+05  1.809904E+04 -8.239197E+04 -9.054224E+03 -1.577013E+04
       284  25 -4.813634E+04  1.112741E+05 -3.412075E+04 -5.348847E+04 -4.676898E+03 -3.670539E+04
       284  26 -7.509779E+04  2.308911E+05 -3.669530E+04 -4.615100E+04 -1.299370E+04 -3.085019E+04
       284  27 -4.678472E+04  3.649776E+05 -2.165753E+04 -9.080072E+04 -9.039876E+03 -2.497751E+04
       285   1  2.235344E+04  6.191558E+05  3.076145E+04 -8.350383E+04  3.749477E+03  7.443208E+03
       285   2 -1.203206E+04  4.920663E+05 -5.316284E+03 -5.651648E+04 -2.568571E+03  4.724554E+03
       285   3 -4.402849E+04  3.657585E+05 -3.907371E+04 -8.201485E+04 -8.775154E+03  2.007029E+03
       285   4  3.575274E+03  5.422214E+05  1.377320E+04 -8.247881E+04  3.740402E+03  1.326368E+04
       285   5  9.593695E+01  5.418282E+05  5.596118E+03 -5.623962E+04 -2.577298E+03  1.044354E+04
       285   6 -9.753557E+02  5.422203E+05 -1.883783E+02 -8.248576E+04 -8.783587E+03  7.623991E+03
       285   7 -1.520327E+04  4.652926E+05 -3.215297E+03 -8.145392E+04  3.731347E+03  1.908344E+04
       285   8  1.222379E+04  5.915925E+05  1.650849E+04 -5.596275E+04 -2.586019E+03  1.616297E+04
       285   9  4.207571E+04  7.187114E+05  3.869517E+04 -8.295678E+04 -8.792028E+03  1.324253E+04
       285  10  2.235341E+04  6.191558E+05  3.076132E+04 -8.350385E+04  4.323482E-10 -6.617648E-10
       285  11 -1.203208E+04  4.920663E+05 -5.316339E+03 -5.651647E+04  3.945076E-10 -4.553245E-10
       285  12 -4.402858E+04  3.657584E+05 -3.907387E+04 -8.201484E+04 -7.568275E-10 -2.331396E-10
       285  13  3.575211E+03  5.422212E+05  1.377284E+04 -8.247885E+04  3.454088E-10  1.309579E-11
       285  14  9.590058E+01  5.418281E+05  5.595900E+03 -5.623960E+04  9.203556E-10 -1.291164E-10
       285  15 -9.754542E+02  5.422203E+05 -1.886325E+02 -8.248570E+04  9.540814E-10 -1.031738E-10
       285  16 -1.520338E+04  4.652922E+05 -3.216007E+03 -8.145398E+04  1.930908E-10  7.341598E-10
       285  17  1.222371E+04  5.915922E+05  1.650799E+04 -5.596271E+04 -7.756451E-10  4.410432E-10
       285  18  4.207558E+04  7.187112E+05  3.869469E+04 -8.295669E+04 -3.845809E-10  3.288698E-10
       285  19  2.235344E+04  6.191558E+05  3.076145E+04 -8.350383E+04 -3.749477E+03 -7.443208E+03
       285  20 -1.203206E+04  4.920663E+05 -5.316284E+03 -5.651648E+04  2.568571E+03 -4.724554E+03
       285  21 -4.402849E+04  3.657585E+05 -3.907371E+04 -8.201485E+04  8.775154E+03 -2.007029E+03
       285  22  3.575274E+03  5.422214E+05  1.377320E+04 -8.247881E+04 -3.740402E+03 -1.326368E+04
       285  23  9.593695E+01  5.418282E+05  5.596118E+03 -5.623962E+04  2.577298E+03 -1.044354E+04
       285  24 -9.753557E+02  5.422203E+05 -1.883783E+02 -8.248576E+04  8.783587E+03 -7.623991E+03
       285  25 -1.520327E+04  4.652926E+05 -3.215297E+03 -8.145392E+04 -3.731347E+03 -1.908344E+04
       285  26  1.222379E+04  5.915925E+05  1.650849E+04 -5.596275E+04  2.586019E+03 -1.616297E+04
       285  27  4.207571E+04  7.187114E+05  3.869517E+04 -8.295678E+04  8.792028E+03 -1.324253E+04
       286   1 -6.706558E+04  2.606197E+05 -6.415460E+04 -7.931084E+04 -1.430013E+04 -2.012981E+03
       286   2 -9.926138E+04  1.373004E+05 -9.967026E+04 -5.899642E+04 -1.763744E+04  1.611662E+04
       286   3 -1.512382E+05  6.591716E+03 -1.519563E+05 -9.064720E+04 -6.166772E+03  3.425956E+04
       286   4  1.288584E+03  5.409104E+05 -2.602806E+03 -8.236131E+04 -1.431420E+04  7.764339E+03
       286   5  1.323905E+02  5.434270E+05 -8.636279E+03 -5.639160E+04 -1.763157E+04  1.239007E+04
       286   6 -1.845349E+04  5.408861E+05 -2.206110E+04 -8.238633E+04 -6.144955E+03  1.703321E+04
       286   7  6.963757E+04  8.212747E+05  5.894457E+04 -8.541315E+04 -1.432837E+04  1.754602E+04
       286   8  9.951495E+04  9.497071E+05  8.238733E+04 -5.378500E+04 -1.762574E+04  8.661098E+03
       286   9  1.143107E+05  1.075442E+06  1.078146E+05 -7.411823E+04 -6.123608E+03 -2.079231E+02
       286  10 -6.706580E+04  2.606196E+05 -6.415500E+04 -7.931086E+04  3.866788E-11 -2.551363E-11
       286  11 -9.926178E+04  1.373001E+05 -9.967133E+04 -5.899619E+04  3.540715E-10  5.170407E-11
       286  12 -1.512386E+05  6.590445E+03 -1.519586E+05 -9.064703E+04 -1.518713E-10  3.279041E-11
       286  13  1.288347E+03  5.409102E+05 -2.603304E+03 -8.236122E+04 -1.018810E-09  1.314577E-10
       286  14  1.320155E+02  5.434268E+05 -8.637151E+03 -5.639142E+04  6.133985E-10 -1.108259E-10
       286  15 -1.845361E+04  5.408858E+05 -2.206171E+04 -8.238624E+04 -2.333921E-10 -4.759930E-14
       286  16  6.963727E+04  8.212743E+05  5.894360E+04 -8.541294E+04  2.735810E-10 -2.836441E-11
       286  17  9.951460E+04  9.497069E+05  8.238660E+04 -5.378488E+04  1.279932E-10 -1.703193E-10
       286  18  1.143106E+05  1.075442E+06  1.078145E+05 -7.411823E+04 -4.059132E-10  9.200881E-12
       286  19 -6.706558E+04  2.606197E+05 -6.415460E+04 -7.931084E+04  1.430013E+04  2.012981E+03
       286  20 -9.926138E+04  1.373004E+05 -9.967026E+04 -5.899642E+04  1.763744E+04 -1.611662E+04
       286  21 -1.512382E+05  6.591716E+03 -1.519563E+05 -9.064720E+04  6.166772E+03 -3.425956E+04
       286  22  1.288584E+03  5.409104E+05 -2.602806E+03 -8.236131E+04  1.431420E+04 -7.764339E+03
       286  23  1.323905E+02  5.434270E+05 -8.636279E+03 -5.639160E+04  1.763157E+04 -1.239007E+04
       286  24 -1.845349E+04  5.408861E+05 -2.206110E+04 -8.238633E+04  6.144955E+03 -1.703321E+04
       286  25  6.963757E+04  8.212747E+05  5.894457E+04 -8.541315E+04  1.432837E+04 -1.754602E+04
       286  26  9.951495E+04  9.497071E+05  8.238733E+04 -5.378500E+04  1.762574E+04 -8.661098E+03
       286  27  1.143107E+05  1.075442E+06  1.078146E+05 -7.411823E+04  6.123608E+03  2.079231E+02
       287   1 -8.609668E+05 -3.897928E+05 -2.659249E+05 -3.086703E+05 -1.126304E+05 -3.510902E+04
       287   2 -8.262008E+05 -2.356696E+05 -1.654475E+05 -3.024530E+05 -7.296970E+04 -4.599002E+03
       287   3 -8.296933E+05 -2.038173E+05 -1.290545E+05 -2.791030E+05 -2.852696E+04  1.321394E+04
       287   4 -4.485320E+05 -1.840954E+05 -1.460817E+05 -1.444252E+05 -9.560511E+04 -2.871519E+04
       287   5 -4.225437E+05 -6.799627E+04 -6.328776E+04 -1.740622E+05 -6.675586E+04 -2.265787E+03
       287   6 -4.326417E+05 -7.198446E+04 -3.597628E+04 -1.865764E+05 -3.312756E+04  1.148425E+04
       287   7 -3.592816E+04  2.165252E+04 -2.625433E+04  1.993003E+04 -7.856759E+04 -2.231326E+04
       287   8 -1.872553E+04  9.969903E+04  3.885881E+04 -4.559184E+04 -6.053762E+04  6.951418E+01
       287   9 -3.543294E+04  5.985220E+04  5.709157E+04 -9.399920E+04 -3.773139E+04  9.753645E+03
       287  10 -8.609808E+05 -3.897975E+05 -2.659511E+05 -3.086735E+05 -1.256254E-11 -9.363439E-11
       287  11 -8.262065E+05 -2.356711E+05 -1.654575E+05 -3.024533E+05 -6.397614E-10 -2.554206E-10
       287  12 -8.296942E+05 -2.038177E+05 -1.290563E+05 -2.791027E+05  5.352556E-10 -1.330198E-10
       287  13 -4.485421E+05 -1.840988E+05 -1.461004E+05 -1.444275E+05 -2.578654E-10 -2.216811E-11
       287  14 -4.225485E+05 -6.799747E+04 -6.329615E+04 -1.740623E+05 -1.037328E-09 -1.156369E-10
       287  15 -4.326429E+05 -7.198490E+04 -3.597859E+04 -1.865761E+05 -5.836531E-10 -2.502582E-10
       287  16 -3.593493E+04  2.165033E+04 -2.626687E+04  1.992862E+04 -2.772679E-10  5.809904E-11
       287  17 -1.872946E+04  9.969804E+04  3.885193E+04 -4.559184E+04  5.837550E-11 -6.265715E-13
       287  18 -3.543450E+04  5.985171E+04  5.708872E+04 -9.399891E+04 -4.114875E-10 -3.299659E-10
       287  19 -8.609668E+05 -3.897928E+05 -2.659249E+05 -3.086703E+05  1.126304E+05  3.510902E+04
       287  20 -8.262008E+05 -2.356696E+05 -1.654475E+05 -3.024530E+05  7.296970E+04  4.599002E+03
       287  21 -8.296933E+05 -2.038173E+05 -1.290545E+05 -2.791030E+05  2.852696E+04 -1.321394E+04
       287  22 -4.485320E+05 -1.840954E+05 -1.460817E+05 -1.444252E+05  9.560511E+04  2.871519E+04
       287  23 -4.225437E+05 -6.799627E+04 -6.328776E+04 -1.740622E+05  6.675586E+04  2.265787E+03
       287  24 -4.326417E+05 -7.198446E+04 -3.597628E+04 -1.865764E+05  3.312756E+04 -1.148425E+04
       287  25 -3.592816E+04  2.165252E+04 -2.625433E+04  1.993003E+04  7.856759E+04  2.231326E+04
       287  26 -1.872553E+04  9.969903E+04  3.885881E+04 -4.559184E+04  6.053762E+04 -6.951418E+01
       287  27 -3.543294E+04  5.985220E+04  5.709157E+04 -9.399920E+04  3.773139E+04 -9.753645E+03
       288   1 -7.843815E+05 -2.182598E+05 -1.155738E+05 -2.801432E+05 -2.686626E+04  1.116653E+04
       288   2 -7.566430E+05 -1.930106E+05 -9.361880E+04 -2.660858E+05 -1.849424E+04  1.295241E+04
       288   3 -7.222592E+05 -1.850763E+05 -7.945241E+04 -2.622255E+05 -9.905976E+03  1.416167E+04
       288   4 -4.279292E+05 -8.311239E+04 -2.853373E+04 -1.798669E+05 -2.764524E+04  1.087274E+04
       288   5 -4.308179E+05 -7.111242E+04 -1.463540E+04 -1.760404E+05 -1.976083E+04  1.247580E+04
       288   6 -4.269634E+05 -7.632809E+04 -8.135610E+03 -1.824117E+05 -1.166063E+04  1.350219E+04
       288   7 -7.135295E+04  5.204431E+04  5.849632E+04 -7.953827E+04 -2.842469E+04  1.057877E+04
       288   8 -1.048878E+05  5.079337E+04  6.434012E+04 -8.595197E+04 -2.102815E+04  1.199891E+04
       288   9 -1.315800E+05  3.242626E+04  6.317517E+04 -1.025631E+05 -1.341619E+04  1.284237E+04
       288  10 -7.843823E+05 -2.182601E+05 -1.155754E+05 -2.801429E+05  1.277058E-10 -1.362985E-10
       288  11 -7.566434E+05 -1.930108E+05 -9.361975E+04 -2.660856E+05 -2.600932E-11 -3.304773E-11
       288  12 -7.222593E+05 -1.850766E+05 -7.945297E+04 -2.622254E+05  3.930939E-10  2.513994E-11
       288  13 -4.279300E+05 -8.311273E+04 -2.853539E+04 -1.798667E+05  7.925856E-11 -2.613630E-10
       288  14 -4.308184E+05 -7.111270E+04 -1.463642E+04 -1.760402E+05 -7.142956E-10 -1.304380E-10
       288  15 -4.269636E+05 -7.632832E+04 -8.136208E+03 -1.824115E+05 -1.700008E-10  1.131729E-10
       288  16 -7.135385E+04  5.204398E+04  5.849459E+04 -7.953803E+04  2.804998E-10 -3.058927E-10
       288  17 -1.048883E+05  5.079310E+04  6.433902E+04 -8.595177E+04 -6.737489E-11 -1.932465E-10
       288  18 -1.315802E+05  3.242603E+04  6.317453E+04 -1.025629E+05  3.787916E-11  7.360733E-11
       288  19 -7.843815E+05 -2.182598E+05 -1.155738E+05 -2.801432E+05  2.686626E+04 -1.116653E+04
       288  20 -7.566430E+05 -1.930106E+05 -9.361880E+04 -2.660858E+05  1.849424E+04 -1.295241E+04
       288  21 -7.222592E+05 -1.850763E+05 -7.945241E+04 -2.622255E+05  9.905976E+03 -1.416167E+04
       288  22 -4.279292E+05 -8.311239E+04 -2.853373E+04 -1.798669E+05  2.764524E+04 -1.087274E+04
       288  23 -4.308179E+05 -7.111242E+04 -1.463540E+04 -1.760404E+05  1.976083E+04 -1.247580E+04
       288  24 -4.269634E+05 -7.632809E+04 -8.135610E+03 -1.824117E+05  1.166063E+04 -1.350219E+04
       288  25 -7.135295E+04  5.204431E+04  5.849632E+04 -7.953827E+04  2.842469E+04 -1.057877E+04
       288  26 -1.048878E+05  5.079337E+04  6.434012E+04 -8.595197E+04  2.102815E+04 -1.199891E+04
       288  27 -1.315800E+05  3.242626E+04  6.317517E+04 -1.025631E+05  1.341619E+04 -1.284237E+04
       289   1 -6.937709E+05 -1.763919E+05 -7.073308E+04 -2.552783E+05 -8.490841E+03  1.336738E+04
       289   2 -6.666496E+05 -1.588225E+05 -6.022675E+04 -2.405904E+05 -6.077576E+03  1.213578E+04
       289   3 -6.295486E+05 -1.520463E+05 -5.110273E+04 -2.376881E+05 -3.653683E+03  1.087400E+04
       289   4 -4.265338E+05 -7.698673E+04 -6.194905E+03 -1.819789E+05 -1.007762E+04  1.277114E+04
       289   5 -4.314956E+05 -7.139853E+04 -3.367204E+03 -1.761579E+05 -7.689302E+03  1.153047E+04
       289   6 -4.264738E+05 -7.659794E+04 -1.901484E+03 -1.821224E+05 -5.290465E+03  1.025959E+04
       289   7 -1.592261E+05  2.242335E+04  5.833800E+04 -1.086507E+05 -1.166513E+04  1.217463E+04
       289   8 -1.962875E+05  1.602903E+04  5.348810E+04 -1.117034E+05 -9.301690E+03  1.092491E+04
       289   9 -2.233592E+05 -1.147178E+03  4.729643E+04 -1.265406E+05 -6.927823E+03  9.644974E+03
       289  10 -6.937710E+05 -1.763921E+05 -7.073355E+04 -2.552782E+05  4.978945E-11  1.360544E-10
       289  11 -6.666497E+05 -1.588227E+05 -6.022710E+04 -2.405904E+05  6.443848E-11  5.136646E-11
       289  12 -6.295487E+05 -1.520464E+05 -5.110298E+04 -2.376881E+05 -1.011126E-10 -1.280412E-10
       289  13 -4.265339E+05 -7.698693E+04 -6.195402E+03 -1.819787E+05  2.508460E-10  1.034651E-10
       289  14 -4.314957E+05 -7.139869E+04 -3.367565E+03 -1.761578E+05  2.923217E-10  5.470833E-11
       289  15 -4.264738E+05 -7.659806E+04 -1.901735E+03 -1.821224E+05  1.259396E-10 -1.840660E-11
       289  16 -1.592262E+05  2.242315E+04  5.833747E+04 -1.086506E+05 -1.587187E-10  2.179858E-11
       289  17 -1.962877E+05  1.602888E+04  5.348771E+04 -1.117033E+05 -2.482450E-10  5.007171E-12
       289  18 -2.233592E+05 -1.147291E+03  4.729616E+04 -1.265405E+05 -1.396175E-10 -3.384433E-11
       289  19 -6.937709E+05 -1.763919E+05 -7.073308E+04 -2.552783E+05  8.490841E+03 -1.336738E+04
       289  20 -6.666496E+05 -1.588225E+05 -6.022675E+04 -2.405904E+05  6.077576E+03 -1.213578E+04
       289  21 -6.295486E+05 -1.520463E+05 -5.110273E+04 -2.376881E+05  3.653683E+03 -1.087400E+04
       289  22 -4.265338E+05 -7.698673E+04 -6.194905E+03 -1.819789E+05  1.007762E+04 -1.277114E+04
       289  23 -4.314956E+05 -7.139853E+04 -3.367204E+03 -1.761579E+05  7.689302E+03 -1.153047E+04
       289  24 -4.264738E+05 -7.659794E+04 -1.901484E+03 -1.821224E+05  5.290465E+03 -1.025959E+04
       289  25 -1.592261E+05  2.242335E+04  5.833800E+04 -1.086507E+05  1.166513E+04 -1.217463E+04
       289  26 -1.962875E+05  1.602903E+04  5.348810E+04 -1.117034E+05  9.301690E+03 -1.092491E+04
       289  27 -2.233592E+05 -1.147178E+03  4.729643E+04 -1.265406E+05  6.927823E+03 -9.644974E+03
       290   1 -6.020277E+05 -1.419026E+05 -4.381459E+04 -2.302248E+05 -2.962041E+03  9.860590E+03
       290   2 -5.748855E+05 -1.246935E+05 -3.556365E+04 -2.154208E+05 -1.784867E+03  8.118513E+03
       290   3 -5.374144E+05 -1.179079E+05 -2.765911E+04 -2.125252E+05 -6.067193E+02  6.372648E+03
       290   4 -4.264126E+05 -7.663978E+04 -1.468058E+03 -1.821029E+05 -4.593881E+03  9.248191E+03
       290   5 -4.315732E+05 -7.141626E+04 -9.149792E+02 -1.761523E+05 -3.419805E+03  7.505129E+03
       290   6 -4.264061E+05 -7.661575E+04 -7.059695E+02 -1.821105E+05 -2.244785E+03  5.758276E+03
       290   7 -2.507661E+05 -1.137449E+04  4.087647E+04 -1.339683E+05 -6.226234E+03  8.635600E+03
       290   8 -2.882402E+05 -1.813746E+04  3.373229E+04 -1.368754E+05 -5.055159E+03  6.891589E+03
       290   9 -3.153856E+05 -3.532274E+04  2.624627E+04 -1.516909E+05 -3.883170E+03  5.143784E+03
       290  10 -6.020277E+05 -1.419027E+05 -4.381479E+04 -2.302248E+05 -1.493849E-10 -7.535806E-11
       290  11 -5.748855E+05 -1.246936E+05 -3.556378E+04 -2.154208E+05 -6.047913E-10 -6.382305E-11
       290  12 -5.374144E+05 -1.179079E+05 -2.765919E+04 -2.125252E+05 -2.944790E-10 -9.025053E-11
       290  13 -4.264127E+05 -7.663987E+04 -1.468258E+03 -1.821028E+05 -9.777873E-11 -7.996395E-11
       290  14 -4.315732E+05 -7.141632E+04 -9.151070E+02 -1.761523E+05  2.789250E-10 -1.893467E-10
       290  15 -4.264061E+05 -7.661578E+04 -7.060413E+02 -1.821105E+05 -1.576961E-10 -9.038362E-11
       290  16 -2.507662E+05 -1.137458E+04  4.087625E+04 -1.339682E+05  1.038386E-10 -1.698666E-10
       290  17 -2.882402E+05 -1.813751E+04  3.373215E+04 -1.368754E+05  3.241827E-10 -2.018053E-10
       290  18 -3.153856E+05 -3.532277E+04  2.624620E+04 -1.516909E+05  2.974422E-10 -5.084784E-11
       290  19 -6.020277E+05 -1.419026E+05 -4.381459E+04 -2.302248E+05  2.962041E+03 -9.860590E+03
       290  20 -5.748855E+05 -1.246935E+05 -3.556365E+04 -2.154208E+05  1.784867E+03 -8.118513E+03
       290  21 -5.374144E+05 -1.179079E+05 -2.765911E+04 -2.125252E+05  6.067193E+02 -6.372648E+03
       290  22 -4.264126E+05 -7.663978E+04 -1.468058E+03 -1.821029E+05  4.593881E+03 -9.248191E+03
       290  23 -4.315732E+05 -7.141626E+04 -9.149792E+02 -1.761523E+05  3.419805E+03 -7.505129E+03
       290  24 -4.264061E+05 -7.661575E+04 -7.059695E+02 -1.821105E+05  2.244785E+03 -5.758276E+03
       290  25 -2.507661E+05 -1.137449E+04  4.087647E+04 -1.339683E+05  6.226234E+03 -8.635600E+03
       290  26 -2.882402E+05 -1.813746E+04  3.373229E+04 -1.368754E+05  5.055159E+03 -6.891589E+03
       290  27 -3.153856E+05 -3.532274E+04  2.624627E+04 -1.516909E+05  3.883170E+03 -5.143784E+03
       291   1 -5.098850E+05 -1.076488E+05 -2.077154E+04 -2.050129E+05 -6.932225E+01  5.299102E+03
       291   2 -4.826593E+05 -9.041623E+04 -1.323055E+04 -1.901662E+05  1.088188E+03  3.541553E+03
       291   3 -4.450857E+05 -8.363183E+04 -6.021612E+03 -1.872633E+05  2.245666E+03  1.783644E+03
       291   4 -4.264005E+05 -7.662171E+04 -6.998924E+02 -1.821176E+05 -1.708766E+03  4.684293E+03
       291   5 -4.315742E+05 -7.140206E+04 -8.763663E+02 -1.761437E+05 -5.515468E+02  2.926701E+03
       291   6 -4.264010E+05 -7.663058E+04 -1.384635E+03 -1.821140E+05  6.056165E+02  1.168740E+03
       291   7 -3.429095E+05 -4.559430E+04  1.937115E+04 -1.592197E+05 -3.348442E+03  4.069398E+03
       291   8 -3.804865E+05 -5.238770E+04  1.147763E+04 -1.621201E+05 -2.191429E+03  2.311794E+03
       291   9 -4.077158E+05 -6.962927E+04  3.252352E+03 -1.769645E+05 -1.034494E+03  5.538122E+02
       291  10 -5.098850E+05 -1.076488E+05 -2.077160E+04 -2.050129E+05 -3.812532E-11 -5.102332E-11
       291  11 -4.826593E+05 -9.041624E+04 -1.323057E+04 -1.901662E+05  2.313000E-10  3.432959E-11
       291  12 -4.450857E+05 -8.363184E+04 -6.021628E+03 -1.872633E+05  3.479091E-10 -7.751879E-11
       291  13 -4.264005E+05 -7.662174E+04 -6.999391E+02 -1.821176E+05  9.768109E-11  3.899258E-12
       291  14 -4.315742E+05 -7.140207E+04 -8.763830E+02 -1.761437E+05  4.333941E-10 -5.489312E-11
       291  15 -4.264010E+05 -7.663058E+04 -1.384638E+03 -1.821140E+05 -3.034396E-10 -1.050577E-10
       291  16 -3.429096E+05 -4.559432E+04  1.937110E+04 -1.592197E+05  2.026325E-10  9.720276E-11
       291  17 -3.804865E+05 -5.238771E+04  1.147762E+04 -1.621201E+05 -1.590301E-10  1.667407E-11
       291  18 -4.077158E+05 -6.962927E+04  3.252349E+03 -1.769645E+05 -4.089317E-10 -1.387487E-10
       291  19 -5.098850E+05 -1.076488E+05 -2.077154E+04 -2.050129E+05  6.932225E+01 -5.299102E+03
       291  20 -4.826593E+05 -9.041623E+04 -1.323055E+04 -1.901662E+05 -1.088188E+03 -3.541553E+03
       291  21 -4.450857E+05 -8.363183E+04 -6.021612E+03 -1.872633E+05 -2.245666E+03 -1.783644E+03
       291  22 -4.264005E+05 -7.662171E+04 -6.998924E+02 -1.821176E+05  1.708766E+03 -4.684293E+03
       291  23 -4.315742E+05 -7.140206E+04 -8.763663E+02 -1.761437E+05  5.515468E+02 -2.926701E+03
       291  24 -4.264010E+05 -7.663058E+04 -1.384635E+03 -1.821140E+05 -6.056165E+02 -1.168740E+03
       291  25 -3.429095E+05 -4.559430E+04  1.937115E+04 -1.592197E+05  3.348442E+03 -4.069398E+03
       291  26 -3.804865E+05 -5.238770E+04  1.147763E+04 -1.621201E+05  2.191429E+03 -2.311794E+03
       291  27 -4.077158E+05 -6.962927E+04  3.252352E+03 -1.769645E+05  1.034494E+03 -5.538122E+02
       292   1 -4.175251E+05 -7.336938E+04  4.644400E+02 -1.798160E+05  2.932294E+03  7.628513E+02
       292   2 -3.902128E+05 -5.606976E+04  6.820342E+03 -1.648820E+05  5.216117E+03 -5.698403E+02
       292   3 -3.528415E+05 -4.961159E+04  1.190372E+04 -1.618472E+05  7.494230E+03 -1.886822E+03
       292   4 -4.264494E+05 -7.660348E+04 -1.788717E+03 -1.821472E+05  1.287641E+03  1.462235E+02
       292   5 -4.315025E+05 -7.135670E+04 -3.151934E+03 -1.761319E+05  3.584698E+03 -1.181560E+03
       292   6 -4.265001E+05 -7.695410E+04 -5.798181E+03 -1.820163E+05  5.875950E+03 -2.493661E+03
       292   7 -4.353736E+05 -7.983756E+04 -4.041869E+03 -1.844782E+05 -3.569868E+02 -4.703951E+02
       292   8 -4.727905E+05 -8.664348E+04 -1.312429E+04 -1.873812E+05  1.953401E+03 -1.793234E+03
       292   9 -5.001531E+05 -1.042961E+05 -2.350036E+04 -2.021832E+05  4.257888E+03 -3.100419E+03
       292  10 -4.175251E+05 -7.336939E+04  4.644227E+02 -1.798160E+05 -9.611324E-11 -2.039294E-10
       292  11 -3.902128E+05 -5.606977E+04  6.820290E+03 -1.648820E+05 -1.873124E-10  9.140383E-11
       292  12 -3.528415E+05 -4.961161E+04  1.190361E+04 -1.618472E+05 -1.967619E-10  1.226200E-10
       292  13 -4.264494E+05 -7.660348E+04 -1.788720E+03 -1.821472E+05 -4.415751E-10 -1.304034E-10
       292  14 -4.315025E+05 -7.135670E+04 -3.151960E+03 -1.761319E+05 -1.078349E-10  1.336867E-10
       292  15 -4.265002E+05 -7.695411E+04 -5.798258E+03 -1.820163E+05 -2.144031E-11  9.744552E-11
       292  16 -4.353736E+05 -7.983756E+04 -4.041869E+03 -1.844782E+05 -1.838501E-10  1.193666E-11
       292  17 -4.727905E+05 -8.664348E+04 -1.312431E+04 -1.873812E+05 -3.303147E-10 -1.036336E-10
       292  18 -5.001531E+05 -1.042961E+05 -2.350042E+04 -2.021832E+05 -1.770201E-11  2.766938E-11
       292  19 -4.175251E+05 -7.336938E+04  4.644400E+02 -1.798160E+05 -2.932294E+03 -7.628513E+02
       292  20 -3.902128E+05 -5.606976E+04  6.820342E+03 -1.648820E+05 -5.216117E+03  5.698403E+02
       292  21 -3.528415E+05 -4.961159E+04  1.190372E+04 -1.618472E+05 -7.494230E+03  1.886822E+03
       292  22 -4.264494E+05 -7.660348E+04 -1.788717E+03 -1.821472E+05 -1.287641E+03 -1.462235E+02
       292  23 -4.315025E+05 -7.135670E+04 -3.151934E+03 -1.761319E+05 -3.584698E+03  1.181560E+03
       292  24 -4.265001E+05 -7.695410E+04 -5.798181E+03 -1.820163E+05 -5.875950E+03  2.493661E+03
       292  25 -4.353736E+05 -7.983756E+04 -4.041869E+03 -1.844782E+05  3.569868E+02  4.703951E+02
       292  26 -4.727905E+05 -8.664348E+04 -1.312429E+04 -1.873812E+05 -1.953401E+03  1.793234E+03
       292  27 -5.001531E+05 -1.042961E+05 -2.350036E+04 -2.021832E+05 -4.257888E+03  3.100419E+03
       293   1 -3.249145E+05 -3.951050E+04  1.695288E+04 -1.556229E+05  9.099252E+03 -2.597503E+03
       293   2 -2.977962E+05 -2.102508E+04  1.861809E+04 -1.389582E+05  1.646128E+04 -1.939329E+03
       293   3 -2.635586E+05 -1.939387E+04  1.357907E+04 -1.327772E+05  2.369765E+04 -9.437422E+02
       293   4 -4.268918E+05 -7.634929E+04 -7.614171E+03 -1.824349E+05  7.381193E+03 -3.241812E+03
       293   5 -4.308703E+05 -7.106179E+04 -1.368835E+04 -1.760052E+05  1.502946E+04 -2.476498E+03
       293   6 -4.277889E+05 -8.268699E+04 -2.669509E+04 -1.800602E+05  2.255167E+04 -1.373909E+03
       293   7 -5.288593E+05 -1.131877E+05 -3.218212E+04 -2.092431E+05  5.663434E+03 -3.886017E+03
       293   8 -5.639274E+05 -1.210973E+05 -4.599621E+04 -2.130451E+05  1.359797E+04 -3.013539E+03
       293   9 -5.919925E+05 -1.459777E+05 -6.697129E+04 -2.273317E+05  2.140603E+04 -1.803943E+03
       293  10 -3.249146E+05 -3.951053E+04  1.695272E+04 -1.556228E+05 -1.756789E-10  6.571013E-11
       293  11 -2.977964E+05 -2.102515E+04  1.861757E+04 -1.389582E+05 -5.928680E-11 -9.269446E-11
       293  12 -2.635592E+05 -1.939402E+04  1.357801E+04 -1.327772E+05 -1.874777E-10  1.029263E-10
       293  13 -4.268918E+05 -7.634931E+04 -7.614293E+03 -1.824348E+05 -6.639641E-11  7.080667E-11
       293  14 -4.308706E+05 -7.106186E+04 -1.368879E+04 -1.760052E+05  1.220712E-10 -1.489643E-11
       293  15 -4.277894E+05 -8.268713E+04 -2.669605E+04 -1.800602E+05  2.484012E-11  4.905777E-11
       293  16 -5.288593E+05 -1.131877E+05 -3.218221E+04 -2.092430E+05  1.519577E-10 -2.121317E-11
       293  17 -5.639276E+05 -1.210974E+05 -4.599657E+04 -2.130451E+05  2.336234E-10  4.137533E-11
       293  18 -5.919930E+05 -1.459779E+05 -6.697216E+04 -2.273316E+05  2.991580E-10 -2.618422E-11
       293  19 -3.249145E+05 -3.951050E+04  1.695288E+04 -1.556229E+05 -9.099252E+03  2.597503E+03
       293  20 -2.977962E+05 -2.102508E+04  1.861809E+04 -1.389582E+05 -1.646128E+04  1.939329E+03
       293  21 -2.635586E+05 -1.939387E+04  1.357907E+04 -1.327772E+05 -2.369765E+04  9.437422E+02
       293  22 -4.268918E+05 -7.634929E+04 -7.614171E+03 -1.824349E+05 -7.381193E+03  3.241812E+03
       293  23 -4.308703E+05 -7.106179E+04 -1.368835E+04 -1.760052E+05 -1.502946E+04  2.476498E+03
       293  24 -4.277889E+05 -8.268699E+04 -2.669509E+04 -1.800602E+05 -2.255167E+04  1.373909E+03
       293  25 -5.288593E+05 -1.131877E+05 -3.218212E+04 -2.092431E+05 -5.663434E+03  3.886017E+03
       293  26 -5.639274E+05 -1.210973E+05 -4.599621E+04 -2.130451E+05 -1.359797E+04  3.013539E+03
       293  27 -5.919925E+05 -1.459777E+05 -6.697129E+04 -2.273317E+05 -2.140603E+04  1.803943E+03
       294   1 -2.278451E+05 -1.130030E+04  1.305512E+04 -1.458336E+05  3.094423E+04 -3.312620E+02
       294   2 -2.096767E+05  2.738308E+04 -3.908636E+03 -9.914544E+04  5.648269E+04  8.980907E+03
       294   3 -2.230408E+05 -4.604219E+04 -6.774570E+04 -3.764116E+04  7.922343E+04  2.575337E+04
       294   4 -4.321659E+05 -7.230833E+04 -3.365873E+04 -1.863768E+05  2.755150E+04 -1.603544E+03
       294   5 -4.231660E+05 -6.808445E+04 -5.920180E+04 -1.740995E+05  5.944614E+04  1.009092E+04
       294   6 -4.469763E+05 -1.772566E+05 -1.366689E+05 -1.470040E+05  8.854163E+04  2.924339E+04
       294   7 -6.364451E+05 -1.333165E+05 -8.037509E+04 -2.269095E+05  2.415998E+04 -2.875575E+03
       294   8 -6.366078E+05 -1.635421E+05 -1.144982E+05 -2.490274E+05  6.240845E+04  1.120032E+04
       294   9 -6.708538E+05 -3.084400E+05 -2.055952E+05 -2.563226E+05  9.785602E+04  3.273021E+04
       294  10 -2.278461E+05 -1.130056E+04  1.305332E+04 -1.458336E+05 -1.050529E-10  1.500463E-10
       294  11 -2.096802E+05  2.738214E+04 -3.914785E+03 -9.914585E+04  5.294327E-11  1.540240E-10
       294  12 -2.230478E+05 -4.604459E+04 -6.775875E+04 -3.764281E+04  1.564672E-10 -1.653800E-11
       294  13 -4.321667E+05 -7.230853E+04 -3.366016E+04 -1.863768E+05 -7.567170E-11  1.188378E-10
       294  14 -4.231698E+05 -6.808551E+04 -5.920864E+04 -1.740999E+05  3.587344E-10  7.442413E-11
       294  15 -4.469849E+05 -1.772596E+05 -1.366853E+05 -1.470061E+05  2.429957E-11 -2.751761E-12
       294  16 -6.364457E+05 -1.333167E+05 -8.037620E+04 -2.269094E+05  3.665108E-10  9.144404E-12
       294  17 -6.366120E+05 -1.635432E+05 -1.145057E+05 -2.490280E+05  5.538600E-11  2.245632E-10
       294  18 -6.708644E+05 -3.084437E+05 -2.056153E+05 -2.563252E+05 -3.431978E-11 -2.963806E-11
       294  19 -2.278451E+05 -1.130030E+04  1.305512E+04 -1.458336E+05 -3.094423E+04  3.312620E+02
       294  20 -2.096767E+05  2.738308E+04 -3.908636E+03 -9.914544E+04 -5.648269E+04 -8.980907E+03
       294  21 -2.230408E+05 -4.604219E+04 -6.774570E+04 -3.764116E+04 -7.922343E+04 -2.575337E+04
       294  22 -4.321659E+05 -7.230833E+04 -3.365873E+04 -1.863768E+05 -2.755150E+04  1.603544E+03
       294  23 -4.231660E+05 -6.808445E+04 -5.920180E+04 -1.740995E+05 -5.944614E+04 -1.009092E+04
       294  24 -4.469763E+05 -1.772566E+05 -1.366689E+05 -1.470040E+05 -8.854163E+04 -2.924339E+04
       294  25 -6.364451E+05 -1.333165E+05 -8.037509E+04 -2.269095E+05 -2.415998E+04  2.875575E+03
       294  26 -6.366078E+05 -1.635421E+05 -1.144982E+05 -2.490274E+05 -6.240845E+04 -1.120032E+04
       294  27 -6.708538E+05 -3.084400E+05 -2.055952E+05 -2.563226E+05 -9.785602E+04 -3.273021E+04
       295   1 -5.460166E+05 -1.390939E+05 -1.142414E+05 -1.547866E+04  4.319191E+04  1.221675E+04
       295   2 -4.634206E+05 -2.070311E+05 -1.368045E+05 -2.568232E+04  3.836163E+04  3.808937E+04
       295   3 -3.582098E+05 -1.882677E+05 -1.344885E+05 -7.366973E+04  3.354700E+04  3.920048E+04
       295   4  3.943934E+05  9.450718E+04  1.136360E+05 -6.005020E+04  7.814020E+04  1.223450E+04
       295   5  3.811777E+05 -4.000567E+02  5.174917E+04 -4.113939E+04  5.071023E+04  3.808919E+04
       295   6  3.944568E+05 -4.750324E+03  3.040339E+04 -6.000687E+04  2.329811E+04  3.919703E+04
       295   7  1.335618E+06  3.280516E+05  3.414553E+05 -1.046896E+05  1.131412E+05  1.224722E+04
       295   8  1.226442E+06  2.061835E+05  2.402588E+05 -5.661777E+04  6.307542E+04  3.808840E+04
       295   9  1.147654E+06  1.787300E+05  1.952614E+05 -4.632721E+04  1.303692E+04  3.919313E+04
       295  10 -5.460186E+05 -1.390946E+05 -1.142452E+05 -1.547909E+04  5.016136E-10  4.145764E-11
       295  11 -4.634226E+05 -2.070330E+05 -1.368100E+05 -2.568350E+04  1.307180E-10 -3.596552E-10
       295  12 -3.582115E+05 -1.882697E+05 -1.344936E+05 -7.367079E+04  8.469727E-11 -5.699890E-10
       295  13  3.943868E+05  9.450538E+04  1.136242E+05 -6.005097E+04 -5.847057E-10 -1.720470E-10
       295  14  3.811746E+05 -4.023048E+02  5.174161E+04 -4.114095E+04 -2.671512E-10 -4.065788E-11
       295  15  3.944558E+05 -4.752119E+03  3.039948E+04 -6.000760E+04  7.616796E-11 -3.618421E-10
       295  16  1.335605E+06  3.280480E+05  3.414310E+05 -1.046907E+05 -2.935109E-10  3.135798E-10
       295  17  1.226437E+06  2.061809E+05  2.402486E+05 -5.661970E+04 -3.784293E-10 -1.373657E-12
       295  18  1.147654E+06  1.787283E+05  1.952582E+05 -4.632762E+04 -3.259058E-10 -3.176814E-10
       295  19 -5.460166E+05 -1.390939E+05 -1.142414E+05 -1.547866E+04 -4.319191E+04 -1.221675E+04
       295  20 -4.634206E+05 -2.070311E+05 -1.368045E+05 -2.568232E+04 -3.836163E+04 -3.808937E+04
       295  21 -3.582098E+05 -1.882677E+05 -1.344885E+05 -7.366973E+04 -3.354700E+04 -3.920048E+04
       295  22  3.943934E+05  9.450718E+04  1.136360E+05 -6.005020E+04 -7.814020E+04 -1.223450E+04
       295  23  3.811777E+05 -4.000567E+02  5.174917E+04 -4.113939E+04 -5.071023E+04 -3.808919E+04
       295  24  3.944568E+05 -4.750324E+03  3.040339E+04 -6.000687E+04 -2.329811E+04 -3.919703E+04
       295  25  1.335618E+06  3.280516E+05  3.414553E+05 -1.046896E+05 -1.131412E+05 -1.224722E+04
       295  26  1.226442E+06  2.061835E+05  2.402588E+05 -5.661777E+04 -6.307542E+04 -3.808840E+04
       295  27  1.147654E+06  1.787300E+05  1.952614E+05 -4.632721E+04 -1.303692E+04 -3.919313E+04
       296   1 -2.867463E+05 -1.598243E+05 -1.246328E+05 -5.838853E+04  2.202349E+04  3.394615E+04
       296   2 -1.945712E+05 -1.422718E+05 -1.147133E+05 -4.038937E+04  1.647275E+04  3.004461E+04
       296   3 -1.002906E+05 -1.196477E+05 -9.988609E+04 -6.102609E+04  1.091743E+04  2.504272E+04
       296   4  3.890945E+05  5.100012E+03  2.416423E+04 -6.020700E+04  1.898149E+04  3.394360E+04
       296   5  3.879773E+05 -2.145831E+02  1.306927E+04 -4.089091E+04  1.242085E+04  3.004354E+04
       296   6  3.891284E+05 -2.854138E+02  7.578673E+03 -6.020824E+04  5.856429E+03  2.504362E+04
       296   7  1.065362E+06  1.699937E+05  1.729334E+05 -6.202745E+04  1.593620E+04  3.394108E+04
       296   8  9.708434E+05  1.418199E+05  1.408313E+05 -4.139289E+04  8.365182E+03  3.004248E+04
       296   9  8.787716E+05  1.190609E+05  1.150289E+05 -5.938970E+04  7.914820E+02  2.504450E+04
       296  10 -2.867472E+05 -1.598257E+05 -1.246359E+05 -5.838913E+04 -3.451197E-10 -1.940378E-10
       296  11 -1.945718E+05 -1.422728E+05 -1.147155E+05 -4.038977E+04  2.175954E-10  1.863846E-10
       296  12 -1.002909E+05 -1.196484E+05 -9.988750E+04 -6.102631E+04  2.550346E-10  1.976098E-10
       296  13  3.890938E+05  5.098677E+03  2.416139E+04 -6.020752E+04 -5.277608E-11 -2.620250E-10
       296  14  3.879769E+05 -2.155939E+02  1.306728E+04 -4.089121E+04  5.432159E-10 -2.727073E-10
       296  15  3.891282E+05 -2.860966E+02  7.577430E+03 -6.020836E+04  2.516869E-10  3.972421E-11
       296  16  1.065362E+06  1.699924E+05  1.729307E+05 -6.202789E+04  6.049473E-10 -2.919898E-10
       296  17  9.708431E+05  1.418189E+05  1.408295E+05 -4.139309E+04  3.255950E-10 -1.736141E-10
       296  18  8.787714E+05  1.190602E+05  1.150278E+05 -5.938972E+04  9.427740E-11 -1.771878E-10
       296  19 -2.867463E+05 -1.598243E+05 -1.246328E+05 -5.838853E+04 -2.202349E+04 -3.394615E+04
       296  20 -1.945712E+05 -1.422718E+05 -1.147133E+05 -4.038937E+04 -1.647275E+04 -3.004461E+04
       296  21 -1.002906E+05 -1.196477E+05 -9.988609E+04 -6.102609E+04 -1.091743E+04 -2.504272E+04
       296  22  3.890945E+05  5.100012E+03  2.416423E+04 -6.020700E+04 -1.898149E+04 -3.394360E+04
       296  23  3.879773E+05 -2.145831E+02  1.306927E+04 -4.089091E+04 -1.242085E+04 -3.004354E+04
       296  24  3.891284E+05 -2.854138E+02  7.578673E+03 -6.020824E+04 -5.856429E+03 -2.504362E+04
       296  25  1.065362E+06  1.699937E+05  1.729334E+05 -6.202745E+04 -1.593620E+04 -3.394108E+04
       296  26  9.708434E+05  1.418199E+05  1.408313E+05 -4.139289E+04 -8.365182E+03 -3.004248E+04
       296  27  8.787716E+05  1.190609E+05  1.150289E+05 -5.938970E+04 -7.914820E+02 -2.504450E+04
       297   1 -2.469335E+04 -1.004733E+05 -8.451980E+04 -6.012361E+04  9.409110E+03  2.187099E+04
       297   2  6.812487E+04 -7.813282E+04 -6.685748E+04 -4.086174E+04  7.793358E+03  1.665478E+04
       297   3  1.612310E+05 -5.544998E+04 -4.806195E+04 -6.016416E+04  6.175195E+03  1.139278E+04
       297   4  3.887035E+05  2.589777E+02  5.820876E+03 -6.019222E+04  4.674060E+03  2.187250E+04
       297   5  3.885690E+05 -1.949626E+01  3.342269E+03 -4.091078E+04  3.015216E+03  1.665720E+04
       297   6  3.887214E+05  5.217719E+01  2.026342E+03 -6.019241E+04  1.354196E+03  1.139615E+04
       297   7  8.022605E+05  1.009798E+05  9.615131E+04 -6.026085E+04 -6.410327E+01  2.187402E+04
       297   8  7.091093E+05  7.808698E+04  7.353587E+04 -4.095983E+04 -1.765363E+03  1.665961E+04
       297   9  6.162602E+05  5.555088E+04  5.211155E+04 -6.022066E+04 -3.468548E+03  1.139951E+04
       297  10 -2.469357E+04 -1.004738E+05 -8.452086E+04 -6.012378E+04 -5.670746E-11 -1.351109E-10
       297  11  6.812473E+04 -7.813313E+04 -6.685811E+04 -4.086185E+04  2.630112E-10 -2.658848E-11
       297  12  1.612309E+05 -5.545013E+04 -4.806227E+04 -6.016421E+04  2.397814E-10 -5.036404E-10
       297  13  3.887034E+05  2.584580E+02  5.819936E+03 -6.019230E+04  5.553898E-10 -4.253454E-11
       297  14  3.885689E+05 -1.979670E+01  3.341730E+03 -4.091082E+04  7.027861E-10  3.472545E-10
       297  15  3.887214E+05  5.203721E+01  2.026095E+03 -6.019242E+04  1.228410E-10  3.384852E-10
       297  16  8.022603E+05  1.009793E+05  9.615041E+04 -6.026085E+04  2.152131E-10 -8.477586E-11
       297  17  7.091092E+05  7.808668E+04  7.353534E+04 -4.095980E+04  8.592772E-11 -2.703878E-10
       297  18  6.162602E+05  5.555074E+04  5.211129E+04 -6.022063E+04 -7.792988E-10 -3.622497E-10
       297  19 -2.469335E+04 -1.004733E+05 -8.451980E+04 -6.012361E+04 -9.409110E+03 -2.187099E+04
       297  20  6.812487E+04 -7.813282E+04 -6.685748E+04 -4.086174E+04 -7.793358E+03 -1.665478E+04
       297  21  1.612310E+05 -5.544998E+04 -4.806195E+04 -6.016416E+04 -6.175195E+03 -1.139278E+04
       297  22  3.887035E+05  2.589777E+02  5.820876E+03 -6.019222E+04 -4.674060E+03 -2.187250E+04
       297  23  3.885690E+05 -1.949626E+01  3.342269E+03 -4.091078E+04 -3.015216E+03 -1.665720E+04
       297  24  3.887214E+05  5.217719E+01  2.026342E+03 -6.019241E+04 -1.354196E+03 -1.139615E+04
       297  25  8.022605E+05  1.009798E+05  9.615131E+04 -6.026085E+04  6.410327E+01 -2.187402E+04
       297  26  7.091093E+05  7.808698E+04  7.353587E+04 -4.095983E+04  1.765363E+03 -1.665961E+04
       297  27  6.162602E+05  5.555088E+04  5.211155E+04 -6.022066E+04  3.468548E+03 -1.139951E+04
       298   1  2.370359E+05 -3.682725E+04 -3.133203E+04 -6.014327E+04  5.827292E+03  8.320234E+03
       298   2  3.298819E+05 -1.428034E+04 -1.171806E+04 -4.090992E+04  5.254396E+03  3.052799E+03
       298   3  4.227604E+05  8.338067E+03  8.269623E+03 -6.019352E+04  4.681028E+03 -2.216124E+03
       298   4  3.886699E+05  7.964586E+01  1.620476E+03 -6.018206E+04  1.022186E+03  8.323914E+03
       298   5  3.886586E+05  4.493285E+01  1.155079E+03 -4.092370E+04  4.475332E+02  3.056628E+03
       298   6  3.886732E+05  8.285355E+01  1.065179E+03 -6.018207E+04 -1.275081E+02 -2.212112E+03
       298   7  5.403256E+05  3.698503E+04  3.457169E+04 -6.022086E+04 -3.784078E+03  8.327594E+03
       298   8  4.474385E+05  1.436998E+04  1.402810E+04 -4.093748E+04 -4.359779E+03  3.060458E+03
       298   9  3.545871E+05 -8.172422E+03 -6.139243E+03 -6.017062E+04 -4.935784E+03 -2.208101E+03
       298  10  2.370358E+05 -3.682733E+04 -3.133222E+04 -6.014331E+04 -3.666131E-11 -2.156924E-10
       298  11  3.298819E+05 -1.428035E+04 -1.171813E+04 -4.090994E+04  3.101615E-10  1.800154E-10
       298  12  4.227604E+05  8.338056E+03  8.269573E+03 -6.019351E+04 -4.559682E-10  3.090441E-10
       298  13  3.886699E+05  7.957116E+01  1.620344E+03 -6.018207E+04  7.407311E-11 -7.244661E-10
       298  14  3.886586E+05  4.492276E+01  1.155061E+03 -4.092370E+04  6.457114E-11  3.633717E-10
       298  15  3.886732E+05  8.284829E+01  1.065170E+03 -6.018207E+04  4.321682E-11 -9.124421E-11
       298  16  5.403256E+05  3.698495E+04  3.457153E+04 -6.022083E+04  4.193446E-10 -3.285799E-12
       298  17  4.474385E+05  1.436997E+04  1.402805E+04 -4.093747E+04 -5.931639E-11  1.132274E-10
       298  18  3.545871E+05 -8.172434E+03 -6.139298E+03 -6.017063E+04  2.778381E-10 -4.280231E-10
       298  19  2.370359E+05 -3.682725E+04 -3.133203E+04 -6.014327E+04 -5.827292E+03 -8.320234E+03
       298  20  3.298819E+05 -1.428034E+04 -1.171806E+04 -4.090992E+04 -5.254396E+03 -3.052799E+03
       298  21  4.227604E+05  8.338067E+03  8.269623E+03 -6.019352E+04 -4.681028E+03  2.216124E+03
       298  22  3.886699E+05  7.964586E+01  1.620476E+03 -6.018206E+04 -1.022186E+03 -8.323914E+03
       298  23  3.886586E+05  4.493285E+01  1.155079E+03 -4.092370E+04 -4.475332E+02 -3.056628E+03
       298  24  3.886732E+05  8.285355E+01  1.065179E+03 -6.018207E+04  1.275081E+02  2.212112E+03
       298  25  5.403256E+05  3.698503E+04  3.457169E+04 -6.022086E+04  3.784078E+03 -8.327594E+03
       298  26  4.474385E+05  1.436998E+04  1.402810E+04 -4.093748E+04  4.359779E+03 -3.060458E+03
       298  27  3.545871E+05 -8.172422E+03 -6.139243E+03 -6.017062E+04  4.935784E+03  2.208101E+03
       299   1  4.986151E+05  2.692489E+04  2.547860E+04 -6.023781E+04  4.478767E+03 -5.283216E+03
       299   2  5.914950E+05  4.945899E+04  4.599385E+04 -4.097409E+04  3.697440E+03 -1.055285E+04
       299   3  6.844585E+05  7.207508E+04  6.702529E+04 -6.024321E+04  2.917356E+03 -1.582241E+04
       299   4  3.886814E+05  8.215509E+01  1.143659E+03 -6.018582E+04 -3.308739E+02 -5.279330E+03
       299   5  3.886387E+05  2.603088E+01  1.572214E+03 -4.091901E+04 -1.112276E+03 -1.054955E+04
       299   6  3.886703E+05  5.210066E+01  2.517057E+03 -6.018581E+04 -1.892322E+03 -1.581966E+04
       299   7  2.787591E+05 -2.676138E+04 -2.319195E+04 -6.013385E+04 -5.139673E+03 -5.275443E+03
       299   8  1.858210E+05 -4.940966E+04 -4.285183E+04 -4.086395E+04 -5.920442E+03 -1.054625E+04
       299   9  9.296395E+04 -7.197668E+04 -6.199636E+04 -6.012843E+04 -6.699740E+03 -1.581691E+04
       299  10  4.986151E+05  2.692485E+04  2.547851E+04 -6.023779E+04 -8.883129E-10  7.474267E-10
       299  11  5.914949E+05  4.945886E+04  4.599362E+04 -4.097406E+04 -7.074956E-11  8.676626E-10
       299  12  6.844584E+05  7.207480E+04  6.702480E+04 -6.024317E+04  2.786072E-10 -7.427724E-10
       299  13  3.886814E+05  8.212513E+01  1.143606E+03 -6.018582E+04 -2.649867E-10  1.161669E-10
       299  14  3.886387E+05  2.591102E+01  1.572002E+03 -4.091902E+04 -2.988353E-10 -3.897523E-10
       299  15  3.886702E+05  5.183091E+01  2.516580E+03 -6.018584E+04  1.110071E-10 -1.727209E-10
       299  16  2.787591E+05 -2.676142E+04 -2.319205E+04 -6.013387E+04  7.437950E-10 -1.082369E-10
       299  17  1.858210E+05 -4.940979E+04 -4.285211E+04 -4.086400E+04  6.139652E-10 -5.001876E-10
       299  18  9.296383E+04 -7.197696E+04 -6.199691E+04 -6.012851E+04 -3.956458E-10 -1.945028E-10
       299  19  4.986151E+05  2.692489E+04  2.547860E+04 -6.023781E+04 -4.478767E+03  5.283216E+03
       299  20  5.914950E+05  4.945899E+04  4.599385E+04 -4.097409E+04 -3.697440E+03  1.055285E+04
       299  21  6.844585E+05  7.207508E+04  6.702529E+04 -6.024321E+04 -2.917356E+03  1.582241E+04
       299  22  3.886814E+05  8.215509E+01  1.143659E+03 -6.018582E+04  3.308739E+02  5.279330E+03
       299  23  3.886387E+05  2.603088E+01  1.572214E+03 -4.091901E+04  1.112276E+03  1.054955E+04
       299  24  3.886703E+05  5.210066E+01  2.517057E+03 -6.018581E+04  1.892322E+03  1.581966E+04
       299  25  2.787591E+05 -2.676138E+04 -2.319195E+04 -6.013385E+04  5.139673E+03  5.275443E+03
       299  26  1.858210E+05 -4.940966E+04 -4.285183E+04 -4.086395E+04  5.920442E+03  1.054625E+04
       299  27  9.296395E+04 -7.197668E+04 -6.199636E+04 -6.012843E+04  6.699740E+03  1.581691E+04
       300   1  7.605144E+05  9.063919E+04  8.491124E+04 -6.019829E+04  2.414243E+03 -1.889757E+04
       300   2  8.533775E+05  1.131825E+05  1.073372E+05 -4.087462E+04 -3.853772E+02 -2.416187E+04
       300   3  9.467932E+05  1.362855E+05  1.317309E+05 -6.016629E+04 -3.182273E+03 -2.937503E+04
       300   4  3.887616E+05  6.320498E+00  3.254028E+03 -6.020443E+04 -2.415391E+03 -1.889540E+04
       300   5  3.884802E+05 -8.933048E+01  5.542588E+03 -4.089575E+04 -5.166790E+03 -2.416103E+04
       300   6  3.887355E+05  3.673032E+02  9.766958E+03 -6.020418E+04 -7.915055E+03 -2.937548E+04
       300   7  1.713795E+04 -9.063578E+04 -7.841153E+04 -6.021054E+04 -7.242171E+03 -1.889322E+04
       300   8 -7.621500E+04 -1.133756E+05 -9.626504E+04 -4.091684E+04 -9.944670E+03 -2.416020E+04
       300   9 -1.690309E+05 -1.355717E+05 -1.122158E+05 -6.024199E+04 -1.264364E+04 -2.937594E+04
       300  10  7.605143E+05  9.063880E+04  8.491056E+04 -6.019825E+04 -6.372566E-10 -7.238903E-10
       300  11  8.533773E+05  1.131819E+05  1.073361E+05 -4.087463E+04 -2.920911E-10  1.600048E-10
       300  12  9.467930E+05  1.362846E+05  1.317293E+05 -6.016636E+04 -5.219440E-10 -1.360264E-11
       300  13  3.887615E+05  5.935463E+00  3.253346E+03 -6.020446E+04 -7.437735E-11 -5.180812E-11
       300  14  3.884800E+05 -8.996462E+01  5.541440E+03 -4.089585E+04  7.418091E-11 -4.985446E-11
       300  15  3.887352E+05  3.663596E+02  9.765218E+03 -6.020436E+04 -4.087186E-10 -1.159093E-10
       300  16  1.713779E+04 -9.063618E+04 -7.841230E+04 -6.021065E+04  5.363445E-10 -6.913455E-11
       300  17 -7.621526E+04 -1.133762E+05 -9.626632E+04 -4.091703E+04  9.126405E-10  5.638618E-10
       300  18 -1.690313E+05 -1.355726E+05 -1.122177E+05 -6.024229E+04  3.734957E-10  1.082265E-10
       300  19  7.605144E+05  9.063919E+04  8.491124E+04 -6.019829E+04 -2.414243E+03  1.889757E+04
       300  20  8.533775E+05  1.131825E+05  1.073372E+05 -4.087462E+04  3.853772E+02  2.416187E+04
       300  21  9.467932E+05  1.362855E+05  1.317309E+05 -6.016629E+04  3.182273E+03  2.937503E+04
       300  22  3.887616E+05  6.320498E+00  3.254028E+03 -6.020443E+04  2.415391E+03  1.889540E+04
       300  23  3.884802E+05 -8.933048E+01  5.542588E+03 -4.089575E+04  5.166790E+03  2.416103E+04
       300  24  3.887355E+05  3.673032E+02  9.766958E+03 -6.020418E+04  7.915055E+03  2.937548E+04
       300  25  1.713795E+04 -9.063578E+04 -7.841153E+04 -6.021054E+04  7.242171E+03  1.889322E+04
       300  26 -7.621500E+04 -1.133756E+05 -9.626504E+04 -4.091684E+04  9.944670E+03  2.416020E+04
       300  27 -1.690309E+05 -1.355717E+05 -1.122158E+05 -6.024199E+04  1.264364E+04  2.937594E+04
       301   1  1.023750E+06  1.540282E+05  1.518516E+05 -5.865443E+04 -4.790559E+03 -3.256583E+04
       301   2  1.115250E+06  1.769294E+05  1.815190E+05 -4.150282E+04 -1.701596E+04 -3.753522E+04
       301   3  1.210795E+06  2.088382E+05  2.214301E+05 -6.306869E+04 -2.923894E+04 -4.124381E+04
       301   4  3.894498E+05 -5.490077E+02  1.274405E+04 -6.022687E+04 -9.898955E+03 -3.256724E+04
       301   5  3.875070E+05 -3.903100E+02  2.203020E+04 -4.086729E+04 -2.096132E+04 -3.753869E+04
       301   6  3.894065E+05  8.581817E+03  4.076253E+04 -6.022767E+04 -3.201947E+04 -4.124873E+04
       301   7 -2.444743E+05 -1.551531E+05 -1.263878E+05 -6.179766E+04 -1.500220E+04 -3.256863E+04
       301   8 -3.397410E+05 -1.777453E+05 -1.374907E+05 -4.023250E+04 -2.490211E+04 -3.754218E+04
       301   9 -4.313520E+05 -1.917197E+05 -1.399463E+05 -5.739046E+04 -3.479636E+04 -4.125368E+04
       301  10  1.023750E+06  1.540271E+05  1.518495E+05 -5.865455E+04 -6.457687E-10 -3.188478E-11
       301  11  1.115249E+06  1.769278E+05  1.815158E+05 -4.150333E+04 -2.500977E-10  1.576054E-10
       301  12  1.210794E+06  2.088361E+05  2.214253E+05 -6.306966E+04 -4.122626E-10  1.865658E-10
       301  13  3.894494E+05 -5.501732E+02  1.274187E+04 -6.022713E+04 -4.206639E-12  3.194808E-11
       301  14  3.875061E+05 -3.919414E+02  2.202672E+04 -4.086792E+04 -1.426674E-10 -7.579828E-11
       301  15  3.894050E+05  8.579714E+03  4.075740E+04 -6.022873E+04  3.745639E-10  1.534069E-10
       301  16 -2.444749E+05 -1.551543E+05 -1.263903E+05 -6.179805E+04  5.733610E-10  8.892993E-11
       301  17 -3.397420E+05 -1.777470E+05 -1.374945E+05 -4.023325E+04  9.497658E-10  8.594488E-11
       301  18 -4.313537E+05 -1.917218E+05 -1.399518E+05 -5.739162E+04  2.801123E-11  1.605518E-10
       301  19  1.023750E+06  1.540282E+05  1.518516E+05 -5.865443E+04  4.790559E+03  3.256583E+04
       301  20  1.115250E+06  1.769294E+05  1.815190E+05 -4.150282E+04  1.701596E+04  3.753522E+04
       301  21  1.210795E+06  2.088382E+05  2.214301E+05 -6.306869E+04  2.923894E+04  4.124381E+04
       301  22  3.894498E+05 -5.490077E+02  1.274405E+04 -6.022687E+04  9.898955E+03  3.256724E+04
       301  23  3.875070E+05 -3.903100E+02  2.203020E+04 -4.086729E+04  2.096132E+04  3.753869E+04
       301  24  3.894065E+05  8.581817E+03  4.076253E+04 -6.022767E+04  3.201947E+04  4.124873E+04
       301  25 -2.444743E+05 -1.551531E+05 -1.263878E+05 -6.179766E+04  1.500220E+04  3.256863E+04
       301  26 -3.397410E+05 -1.777453E+05 -1.374907E+05 -4.023250E+04  2.490211E+04  3.754218E+04
       301  27 -4.313520E+05 -1.917197E+05 -1.399463E+05 -5.739046E+04  3.479636E+04  4.125368E+04
       302   1  1.297041E+06  2.108669E+05  2.479210E+05 -3.667384E+04 -2.822931E+04 -4.682860E+04
       302   2  1.366879E+06  2.414363E+05  3.081942E+05 -6.707249E+04 -1.005066E+05 -4.482090E+04
       302   3  1.485792E+06  4.291316E+05  4.548271E+05 -1.353045E+05 -1.728331E+05 -1.439889E+04
       302   4  3.984455E+05 -8.029944E+03  5.129098E+04 -5.999151E+04 -3.929849E+04 -4.683756E+04
       302   5  3.760916E+05 -6.429925E+02  8.733400E+04 -4.115208E+04 -8.555840E+04 -4.481833E+04
       302   6  3.983635E+05  1.594845E+05  1.917621E+05 -6.013858E+04 -1.318532E+05 -1.437591E+04
       302   7 -4.993941E+05 -2.269785E+05 -1.453872E+05 -8.327511E+04 -5.035185E+04 -4.684570E+04
       302   8 -6.137803E+05 -2.427861E+05 -1.335865E+05 -1.527355E+04 -7.063368E+04 -4.481452E+04
       302   9 -6.879705E+05 -1.102267E+05 -7.137841E+04  1.489527E+04 -9.094451E+04 -1.434302E+04
       302  10  1.297040E+06  2.108643E+05  2.479153E+05 -3.667491E+04  4.712187E-10  4.266285E-10
       302  11  1.366868E+06  2.414314E+05  3.081715E+05 -6.707612E+04 -5.675178E-10  8.020223E-11
       302  12  1.485760E+06  4.291234E+05  4.547707E+05 -1.353065E+05  2.613505E-10 -2.948032E-10
       302  13  3.984433E+05 -8.032714E+03  5.128396E+04 -5.999299E+04 -1.296457E-10  7.022073E-10
       302  14  3.760832E+05 -6.471136E+02  8.731648E+04 -4.115517E+04  1.832942E-10  1.359394E-09
       302  15  3.983448E+05  1.594797E+05  1.917291E+05 -6.014011E+04 -4.715497E-10 -1.501804E-10
       302  16 -4.993974E+05 -2.269816E+05 -1.453961E+05 -8.327701E+04 -7.423067E-10  4.228617E-10
       302  17 -6.137862E+05 -2.427896E+05 -1.335996E+05 -1.527610E+04  1.442582E-10  1.272915E-10
       302  18 -6.879794E+05 -1.102292E+05 -7.139435E+04  1.489422E+04 -2.761560E-10 -4.201418E-10
       302  19  1.297041E+06  2.108669E+05  2.479210E+05 -3.667384E+04  2.822931E+04  4.682860E+04
       302  20  1.366879E+06  2.414363E+05  3.081942E+05 -6.707249E+04  1.005066E+05  4.482090E+04
       302  21  1.485792E+06  4.291316E+05  4.548271E+05 -1.353045E+05  1.728331E+05  1.439889E+04
       302  22  3.984455E+05 -8.029944E+03  5.129098E+04 -5.999151E+04  3.929849E+04  4.683756E+04
       302  23  3.760916E+05 -6.429925E+02  8.733400E+04 -4.115208E+04  8.555840E+04  4.481833E+04
       302  24  3.983635E+05  1.594845E+05  1.917621E+05 -6.013858E+04  1.318532E+05  1.437591E+04
       302  25 -4.993941E+05 -2.269785E+05 -1.453872E+05 -8.327511E+04  5.035185E+04  4.684570E+04
       302  26 -6.137803E+05 -2.427861E+05 -1.335865E+05 -1.527355E+04  7.063368E+04  4.481452E+04
       302  27 -6.879705E+05 -1.102267E+05 -7.137841E+04  1.489527E+04  9.094451E+04  1.434302E+04
       303   1  2.334526E+05  8.918650E+05  2.419942E+05 -1.753739E+05  7.174449E+03  7.055234E+04
       303   2  1.136387E+05  6.557385E+05  1.379981E+05 -1.098867E+05  1.938826E+04  3.467668E+04
       303   3  5.572107E+04  4.396258E+05  7.277282E+04 -1.371805E+05  1.183657E+04 -1.206660E+03
       303   4  6.148341E+04  2.004049E+05  7.353670E+04 -1.456558E+05  7.200965E+03  5.038796E+04
       303   5  3.954551E+01  1.920086E+05  3.365670E+04 -9.930293E+04  1.939247E+04  3.257593E+04
       303   6 -2.610145E+03  2.004715E+05  2.003943E+04 -1.457285E+05  1.181404E+04  1.474303E+04
       303   7 -1.105175E+05 -4.906169E+05 -9.495353E+04 -1.159707E+05  7.225570E+03  3.024594E+04
       303   8 -1.135739E+05 -2.715213E+05 -7.069835E+04 -8.872706E+04  1.939660E+04  3.047674E+04
       303   9 -6.094478E+04 -3.862854E+04 -3.269648E+04 -1.542731E+05  1.179107E+04  3.068666E+04
       303  10  2.334512E+05  8.918596E+05  2.419847E+05 -1.753743E+05 -9.333354E-11 -2.541661E-10
       303  11  1.136380E+05  6.557371E+05  1.379952E+05 -1.098872E+05 -7.388796E-10  5.422604E-10
       303  12  5.572091E+04  4.396257E+05  7.277255E+04 -1.371805E+05  7.465138E-10  1.054877E-10
       303  13  6.148267E+04  2.004021E+05  7.353183E+04 -1.456561E+05  1.218866E-10 -2.665875E-10
       303  14  3.885673E+01  1.920073E+05  3.365400E+04 -9.930344E+04 -1.953209E-09  1.762577E-11
       303  15 -2.610354E+03  2.004713E+05  2.003875E+04 -1.457286E+05  5.520785E-10 -5.861917E-10
       303  16 -1.105178E+05 -4.906179E+05 -9.495535E+04 -1.159708E+05 -2.302672E-10  4.698155E-10
       303  17 -1.135746E+05 -2.715224E+05 -7.070080E+04 -8.872754E+04 -8.620229E-10 -8.202388E-10
       303  18 -6.094518E+04 -3.862958E+04 -3.269852E+04 -1.542733E+05 -7.531038E-11  2.926999E-11
       303  19  2.334526E+05  8.918650E+05  2.419942E+05 -1.753739E+05 -7.174449E+03 -7.055234E+04
       303  20  1.136387E+05  6.557385E+05  1.379981E+05 -1.098867E+05 -1.938826E+04 -3.467668E+04
       303  21  5.572107E+04  4.396258E+05  7.277282E+04 -1.371805E+05 -1.183657E+04  1.206660E+03
       303  22  6.148341E+04  2.004049E+05  7.353670E+04 -1.456558E+05 -7.200965E+03 -5.038796E+04
       303  23  3.954551E+01  1.920086E+05  3.365670E+04 -9.930293E+04 -1.939247E+04 -3.257593E+04
       303  24 -2.610145E+03  2.004715E+05  2.003943E+04 -1.457285E+05 -1.181404E+04 -1.474303E+04
       303  25 -1.105175E+05 -4.906169E+05 -9.495353E+04 -1.159707E+05 -7.225570E+03 -3.024594E+04
       303  26 -1.135739E+05 -2.715213E+05 -7.069835E+04 -8.872706E+04 -1.939660E+04 -3.047674E+04
       303  27 -6.094478E+04 -3.862854E+04 -3.269648E+04 -1.542731E+05 -1.179107E+04 -3.068666E+04
       304   1  1.695502E+04  2.511743E+05  2.816156E+04 -1.471760E+05  2.526737E+03  1.310264E+03
       304   2 -4.173761E+04  2.464476E+04 -2.833371E+04 -9.915909E+04 -8.837491E+03 -3.039826E+03
       304   3 -9.651218E+04 -2.005474E+05 -8.108650E+04 -1.447379E+05 -1.981431E+04 -7.385344E+03
       304   4  3.719865E+03  1.970366E+05  1.613151E+04 -1.458890E+05  2.511322E+03  1.185928E+04
       304   5  1.331471E+02  1.963496E+05  9.337551E+03 -9.909434E+04 -8.851260E+03  7.154652E+03
       304   6  5.292164E+02  1.970145E+05  6.535404E+03 -1.458933E+05 -1.982665E+04  2.453067E+03
       304   7 -9.515421E+03  1.429019E+05  4.101690E+03 -1.446021E+05  2.495950E+03  2.240739E+04
       304   8  4.200199E+04  3.680822E+05  4.700740E+04 -9.902955E+04 -8.865025E+03  1.735191E+04
       304   9  9.756006E+04  5.947243E+05  9.414797E+04 -1.470495E+05 -1.983901E+04  1.229770E+04
       304  10  1.695501E+04  2.511743E+05  2.816154E+04 -1.471760E+05  8.310493E-10 -9.146159E-09
       304  11 -4.173770E+04  2.464473E+04 -2.833387E+04 -9.915912E+04  1.242707E-09  3.545360E-10
       304  12 -9.651262E+04 -2.005476E+05 -8.108734E+04 -1.447380E+05 -7.051148E-11  9.389552E-09
       304  13  3.719821E+03  1.970364E+05  1.613123E+04 -1.458890E+05  6.613871E-10 -2.848632E-10
       304  14  1.330493E+02  1.963495E+05  9.337308E+03 -9.909429E+04  1.789082E-09  4.584464E-12
       304  15  5.287926E+02  1.970144E+05  6.534654E+03 -1.458933E+05  1.515878E-09 -7.776499E-10
       304  16 -9.515562E+03  1.429013E+05  4.100735E+03 -1.446022E+05  7.170855E-10  9.287445E-09
       304  17  4.200183E+04  3.680818E+05  4.700669E+04 -9.902943E+04  5.183421E-10 -8.603310E-10
       304  18  9.755959E+04  5.947241E+05  9.414694E+04 -1.470493E+05  2.150824E-10 -9.271287E-09
       304  19  1.695502E+04  2.511743E+05  2.816156E+04 -1.471760E+05 -2.526737E+03 -1.310264E+03
       304  20 -4.173761E+04  2.464476E+04 -2.833371E+04 -9.915909E+04  8.837491E+03  3.039826E+03
       304  21 -9.651218E+04 -2.005474E+05 -8.108650E+04 -1.447379E+05  1.981431E+04  7.385344E+03
       304  22  3.719865E+03  1.970366E+05  1.613151E+04 -1.458890E+05 -2.511322E+03 -1.185928E+04
       304  23  1.331471E+02  1.963496E+05  9.337551E+03 -9.909434E+04  8.851260E+03 -7.154652E+03
       304  24  5.292164E+02  1.970145E+05  6.535404E+03 -1.458933E+05  1.982665E+04 -2.453067E+03
       304  25 -9.515421E+03  1.429019E+05  4.101690E+03 -1.446021E+05 -2.495950E+03 -2.240739E+04
       304  26  4.200199E+04  3.680822E+05  4.700740E+04 -9.902955E+04  8.865025E+03 -1.735191E+04
       304  27  9.756006E+04  5.947243E+05  9.414797E+04 -1.470495E+05  1.983901E+04 -1.229770E+04
       305   1 -1.420647E+05 -3.854961E+05 -1.221373E+05 -1.461217E+05 -2.984158E+04 -1.649785E+04
       305   2 -1.975205E+05 -6.106122E+05 -1.751908E+05 -9.755495E+04 -3.523310E+04  6.578266E+03
       305   3 -2.499262E+05 -8.378605E+05 -2.425083E+05 -1.414605E+05 -1.210872E+04  2.966402E+04
       305   4  7.781458E+01  1.971912E+05  5.821674E+03 -1.456431E+05 -2.986197E+04  1.386609E+03
       305   5  2.855242E-01  1.959726E+05  5.593551E+03 -9.940784E+04 -3.522217E+04 -1.524293E+03
       305   6  7.485614E+03  1.970845E+05  9.154668E+03 -1.456370E+05 -1.208322E+04 -4.416659E+03
       305   7  1.421978E+05  7.801969E+05  1.337611E+05 -1.451639E+05 -2.988231E+04  1.928766E+04
       305   8  1.974767E+05  1.003164E+06  1.863370E+05 -1.012630E+05 -3.521120E+04 -9.637277E+03
       305   9  2.648193E+05  1.233010E+06  2.607445E+05 -1.498202E+05 -1.205728E+04 -3.855405E+04
       305  10 -1.420658E+05 -3.854966E+05 -1.221395E+05 -1.461221E+05 -2.211367E-10  6.458219E-10
       305  11 -1.975218E+05 -6.106126E+05 -1.751932E+05 -9.755476E+04 -6.168031E-10  6.704450E-10
       305  12 -2.499266E+05 -8.378615E+05 -2.425103E+05 -1.414602E+05 -3.447435E-10  1.000723E-09
       305  13  7.685643E+01  1.971910E+05  5.819995E+03 -1.456431E+05 -8.448388E-10 -1.759052E-10
       305  14 -1.047417E+00  1.959723E+05  5.591215E+03 -9.940788E+04 -4.322953E-10 -6.926619E-11
       305  15  7.485452E+03  1.970845E+05  9.154357E+03 -1.456371E+05 -5.015637E-10 -2.176860E-10
       305  16  1.421968E+05  7.801962E+05  1.337588E+05 -1.451634E+05  2.673746E-10 -5.728154E-10
       305  17  1.974753E+05  1.003163E+06  1.863345E+05 -1.012633E+05 -5.544120E-10 -1.209816E-09
       305  18  2.648187E+05  1.233009E+06  2.607414E+05 -1.498206E+05 -3.501578E-10 -8.339789E-10
       305  19 -1.420647E+05 -3.854961E+05 -1.221373E+05 -1.461217E+05  2.984158E+04  1.649785E+04
       305  20 -1.975205E+05 -6.106122E+05 -1.751908E+05 -9.755495E+04  3.523310E+04 -6.578266E+03
       305  21 -2.499262E+05 -8.378605E+05 -2.425083E+05 -1.414605E+05  1.210872E+04 -2.966402E+04
       305  22  7.781458E+01  1.971912E+05  5.821674E+03 -1.456431E+05  2.986197E+04 -1.386609E+03
       305  23  2.855242E-01  1.959726E+05  5.593551E+03 -9.940784E+04  3.522217E+04  1.524293E+03
       305  24  7.485614E+03  1.970845E+05  9.154668E+03 -1.456370E+05  1.208322E+04  4.416659E+03
       305  25  1.421978E+05  7.801969E+05  1.337611E+05 -1.451639E+05  2.988231E+04 -1.928766E+04
       305  26  1.974767E+05  1.003164E+06  1.863370E+05 -1.012630E+05  3.521120E+04  9.637277E+03
       305  27  2.648193E+05  1.233010E+06  2.607445E+05 -1.498202E+05  1.205728E+04  3.855405E+04
       306   1 -1.353330E+06 -5.055191E+05 -3.108715E+05 -4.980205E+05 -1.405041E+05 -4.549076E+04
       306   2 -1.313655E+06 -3.091799E+05 -1.847172E+05 -4.925429E+05 -9.056232E+04 -1.112032E+04
       306   3 -1.324919E+06 -2.692116E+05 -1.393599E+05 -4.627499E+05 -3.577451E+04  1.037059E+04
       306   4 -9.469927E+05 -2.872513E+05 -1.896915E+05 -3.201951E+05 -1.234082E+05 -3.908418E+04
       306   5 -9.123091E+05 -1.373620E+05 -8.216389E+04 -3.596867E+05 -8.442278E+04 -8.818942E+03
       306   6 -9.263543E+05 -1.416194E+05 -4.670401E+04 -3.748742E+05 -4.059455E+04  8.560860E+03
       306   7 -5.404825E+05 -6.891429E+04 -6.852557E+04 -1.422471E+05 -1.062999E+05 -3.266843E+04
       306   8 -5.108030E+05  3.448155E+04  2.037632E+04 -2.267473E+05 -7.827890E+04 -6.515383E+03
       306   9 -5.276347E+05 -1.402620E+04  4.594087E+04 -2.869519E+05 -4.541795E+04  6.750283E+03
       306  10 -1.353352E+06 -5.055267E+05 -3.109126E+05 -4.980257E+05 -1.738172E-10 -8.431220E-11
       306  11 -1.313664E+06 -3.091823E+05 -1.847329E+05 -4.925437E+05 -3.044981E-10  9.395079E-12
       306  12 -1.324920E+06 -2.692120E+05 -1.393625E+05 -4.627496E+05  7.393309E-10 -5.924461E-11
       306  13 -9.470095E+05 -2.872571E+05 -1.897231E+05 -3.201990E+05 -1.700960E-10 -1.851766E-10
       306  14 -9.123168E+05 -1.373640E+05 -8.217746E+04 -3.596873E+05  2.971982E-10  1.979956E-11
       306  15 -9.263561E+05 -1.416199E+05 -4.670725E+04 -3.748739E+05 -2.632645E-10 -1.722723E-10
       306  16 -5.404950E+05 -6.891847E+04 -6.854883E+04 -1.422499E+05  6.863331E-11  2.274510E-10
       306  17 -5.108096E+05  3.447986E+04  2.036471E+04 -2.267477E+05 -3.217495E-10  5.768100E-10
       306  18 -5.276369E+05 -1.402680E+04  4.593690E+04 -2.869517E+05  9.632152E-11 -3.118508E-10
       306  19 -1.353330E+06 -5.055191E+05 -3.108715E+05 -4.980205E+05  1.405041E+05  4.549076E+04
       306  20 -1.313655E+06 -3.091799E+05 -1.847172E+05 -4.925429E+05  9.056232E+04  1.112032E+04
       306  21 -1.324919E+06 -2.692116E+05 -1.393599E+05 -4.627499E+05  3.577451E+04 -1.037059E+04
       306  22 -9.469927E+05 -2.872513E+05 -1.896915E+05 -3.201951E+05  1.234082E+05  3.908418E+04
       306  23 -9.123091E+05 -1.373620E+05 -8.216389E+04 -3.596867E+05  8.442278E+04  8.818942E+03
       306  24 -9.263543E+05 -1.416194E+05 -4.670401E+04 -3.748742E+05  4.059455E+04 -8.560860E+03
       306  25 -5.404825E+05 -6.891429E+04 -6.852557E+04 -1.422471E+05  1.062999E+05  3.266843E+04
       306  26 -5.108030E+05  3.448155E+04  2.037632E+04 -2.267473E+05  7.827890E+04  6.515383E+03
       306  27 -5.276347E+05 -1.402620E+04  4.594087E+04 -2.869519E+05  4.541795E+04 -6.750283E+03
       307   1 -1.271194E+06 -2.898291E+05 -1.229062E+05 -4.655370E+05 -3.273835E+04  8.679974E+03
       307   2 -1.240048E+06 -2.601753E+05 -9.590605E+04 -4.499518E+05 -2.206501E+04  1.108938E+04
       307   3 -1.202139E+06 -2.511183E+05 -7.891855E+04 -4.454925E+05 -1.116995E+04  1.290814E+04
       307   4 -9.202404E+05 -1.560763E+05 -3.704142E+04 -3.661648E+05 -3.369046E+04  8.321468E+03
       307   5 -9.230437E+05 -1.414240E+05 -1.899188E+04 -3.622511E+05 -2.351531E+04  1.054436E+04
       307   6 -9.189839E+05 -1.472662E+05 -1.055540E+04 -3.694638E+05 -1.311915E+04  1.217643E+04
       307   7 -5.691636E+05 -2.231276E+04  4.881456E+04 -2.667403E+05 -3.464316E+04  7.962729E+03
       307   8 -6.059388E+05 -2.266499E+04  5.791504E+04 -2.745092E+05 -2.496643E+04  9.999028E+03
       307   9 -6.357490E+05 -4.340905E+04  5.780187E+04 -2.934038E+05 -1.506932E+04  1.144437E+04
       307  10 -1.271195E+06 -2.898294E+05 -1.229084E+05 -4.655368E+05 -2.780825E-10 -2.153669E-10
       307  11 -1.240049E+06 -2.601755E+05 -9.590720E+04 -4.499516E+05 -6.693676E-10 -3.521887E-11
       307  12 -1.202140E+06 -2.511185E+05 -7.891910E+04 -4.454923E+05 -7.273723E-10  7.910576E-12
       307  13 -9.202417E+05 -1.560767E+05 -3.704369E+04 -3.661645E+05  6.463695E-10 -1.045482E-10
       307  14 -9.230443E+05 -1.414242E+05 -1.899313E+04 -3.622509E+05 -1.767644E-10  9.604420E-11
       307  15 -9.189841E+05 -1.472664E+05 -1.055600E+04 -3.694637E+05 -4.315056E-10  2.103415E-11
       307  16 -5.691649E+05 -2.231315E+04  4.881218E+04 -2.667400E+05  3.634321E-10 -8.972970E-11
       307  17 -6.059395E+05 -2.266526E+04  5.791368E+04 -2.745090E+05 -6.539679E-11 -1.743383E-11
       307  18 -6.357493E+05 -4.340925E+04  5.780120E+04 -2.934036E+05 -3.054082E-10  8.224365E-11
       307  19 -1.271194E+06 -2.898291E+05 -1.229062E+05 -4.655370E+05  3.273835E+04 -8.679974E+03
       307  20 -1.240048E+06 -2.601753E+05 -9.590605E+04 -4.499518E+05  2.206501E+04 -1.108938E+04
       307  21 -1.202139E+06 -2.511183E+05 -7.891855E+04 -4.454925E+05  1.116995E+04 -1.290814E+04
       307  22 -9.202404E+05 -1.560763E+05 -3.704142E+04 -3.661648E+05  3.369046E+04 -8.321468E+03
       307  23 -9.230437E+05 -1.414240E+05 -1.899188E+04 -3.622511E+05  2.351531E+04 -1.054436E+04
       307  24 -9.189839E+05 -1.472662E+05 -1.055540E+04 -3.694638E+05  1.311915E+04 -1.217643E+04
       307  25 -5.691636E+05 -2.231276E+04  4.881456E+04 -2.667403E+05  3.464316E+04 -7.962729E+03
       307  26 -6.059388E+05 -2.266499E+04  5.791504E+04 -2.745092E+05  2.496643E+04 -9.999028E+03
       307  27 -6.357490E+05 -4.340905E+04  5.780187E+04 -2.934038E+05  1.506932E+04 -1.144437E+04
       308   1 -1.169978E+06 -2.416676E+05 -6.879489E+04 -4.378257E+05 -9.362770E+03  1.210749E+04
       308   2 -1.139471E+06 -2.218641E+05 -5.649147E+04 -4.213452E+05 -6.362971E+03  1.082929E+04
       308   3 -1.097836E+06 -2.142626E+05 -4.598010E+04 -4.181103E+05 -3.350924E+03  9.516677E+03
       308   4 -9.184132E+05 -1.481341E+05 -8.035010E+03 -3.689156E+05 -1.114594E+04  1.143828E+04
       308   5 -9.239417E+05 -1.417856E+05 -4.359142E+03 -3.623853E+05 -8.174563E+03  1.014972E+04
       308   6 -9.183372E+05 -1.476332E+05 -2.452171E+03 -3.691009E+05 -5.191069E+03  8.826716E+03
       308   7 -6.667870E+05 -5.459674E+04  5.271987E+04 -2.999804E+05 -1.292989E+04  1.076878E+04
       308   8 -7.083662E+05 -6.170394E+04  4.776976E+04 -3.034067E+05 -9.986841E+03  9.469899E+03
       308   9 -7.388056E+05 -8.100138E+04  4.107362E+04 -3.200784E+05 -7.031804E+03  8.136536E+03
       308  10 -1.169978E+06 -2.416678E+05 -6.879533E+04 -4.378256E+05  3.427490E-10  1.091860E-10
       308  11 -1.139471E+06 -2.218642E+05 -5.649176E+04 -4.213452E+05  1.861838E-10 -4.505510E-10
       308  12 -1.097836E+06 -2.142627E+05 -4.598029E+04 -4.181103E+05 -4.792681E-10 -3.080324E-10
       308  13 -9.184133E+05 -1.481343E+05 -8.035490E+03 -3.689155E+05 -1.053179E-10 -1.301647E-10
       308  14 -9.239418E+05 -1.417857E+05 -4.359461E+03 -3.623852E+05 -1.899988E-11 -3.054870E-10
       308  15 -9.183372E+05 -1.476333E+05 -2.452368E+03 -3.691009E+05  9.116603E-11  3.192313E-10
       308  16 -6.667872E+05 -5.459691E+04  5.271934E+04 -2.999803E+05 -8.187952E-11 -8.259270E-11
       308  17 -7.083663E+05 -6.170406E+04  4.776940E+04 -3.034066E+05 -1.150862E-10  2.554712E-11
       308  18 -7.388057E+05 -8.100146E+04  4.107340E+04 -3.200784E+05  5.553852E-10  1.629602E-10
       308  19 -1.169978E+06 -2.416676E+05 -6.879489E+04 -4.378257E+05  9.362770E+03 -1.210749E+04
       308  20 -1.139471E+06 -2.218641E+05 -5.649147E+04 -4.213452E+05  6.362971E+03 -1.082929E+04
       308  21 -1.097836E+06 -2.142626E+05 -4.598010E+04 -4.181103E+05  3.350924E+03 -9.516677E+03
       308  22 -9.184132E+05 -1.481341E+05 -8.035010E+03 -3.689156E+05  1.114594E+04 -1.143828E+04
       308  23 -9.239417E+05 -1.417856E+05 -4.359142E+03 -3.623853E+05  8.174563E+03 -1.014972E+04
       308  24 -9.183372E+05 -1.476332E+05 -2.452171E+03 -3.691009E+05  5.191069E+03 -8.826716E+03
       308  25 -6.667870E+05 -5.459674E+04  5.271987E+04 -2.999804E+05  1.292989E+04 -1.076878E+04
       308  26 -7.083662E+05 -6.170394E+04  4.776976E+04 -3.034067E+05  9.986841E+03 -9.469899E+03
       308  27 -7.388056E+05 -8.100138E+04  4.107362E+04 -3.200784E+05  7.031804E+03 -8.136536E+03
       309   1 -1.066827E+06 -2.028701E+05 -3.769205E+04 -4.097322E+05 -2.525454E+03  8.393455E+03
       309   2 -1.036227E+06 -1.834857E+05 -2.827868E+04 -3.930599E+05 -1.139742E+03  6.452411E+03
       309   3 -9.940108E+05 -1.758463E+05 -1.930311E+04 -3.898171E+05  2.476478E+02  4.505767E+03
       309   4 -9.182494E+05 -1.476928E+05 -1.883855E+03 -3.690805E+05 -4.362799E+03  7.704691E+03
       309   5 -9.240546E+05 -1.418076E+05 -1.149053E+03 -3.623700E+05 -2.981708E+03  5.762076E+03
       309   6 -9.182429E+05 -1.476662E+05 -8.482096E+02 -3.690893E+05 -1.598980E+03  3.813855E+03
       309   7 -7.696504E+05 -9.251399E+04  3.392272E+04 -3.284200E+05 -6.200623E+03  7.015748E+03
       309   8 -8.118697E+05 -1.001287E+05  2.597958E+04 -3.316752E+05 -4.824032E+03  5.071606E+03
       309   9 -8.424698E+05 -1.194859E+05  1.760617E+04 -3.483593E+05 -3.445845E+03  3.121855E+03
       309  10 -1.066827E+06 -2.028702E+05 -3.769219E+04 -4.097322E+05 -4.789844E-11 -5.183212E-11
       309  11 -1.036227E+06 -1.834857E+05 -2.827876E+04 -3.930599E+05  8.221104E-11  1.394947E-10
       309  12 -9.940108E+05 -1.758463E+05 -1.930315E+04 -3.898171E+05 -3.074140E-10 -7.954244E-11
       309  13 -9.182494E+05 -1.476929E+05 -1.884003E+03 -3.690805E+05 -1.154484E-10  1.128973E-10
       309  14 -9.240546E+05 -1.418076E+05 -1.149132E+03 -3.623700E+05 -2.259106E-10  1.366465E-10
       309  15 -9.182429E+05 -1.476662E+05 -8.482417E+02 -3.690893E+05 -2.144847E-10 -3.069520E-11
       309  16 -7.696505E+05 -9.251405E+04  3.392256E+04 -3.284200E+05 -8.019319E-11  1.552188E-10
       309  17 -8.118697E+05 -1.001287E+05  2.597949E+04 -3.316752E+05  4.982119E-11  1.958857E-10
       309  18 -8.424698E+05 -1.194859E+05  1.760613E+04 -3.483593E+05 -9.065836E-11  2.693313E-10
       309  19 -1.066827E+06 -2.028701E+05 -3.769205E+04 -4.097322E+05  2.525454E+03 -8.393455E+03
       309  20 -1.036227E+06 -1.834857E+05 -2.827868E+04 -3.930599E+05  1.139742E+03 -6.452411E+03
       309  21 -9.940108E+05 -1.758463E+05 -1.930311E+04 -3.898171E+05 -2.476478E+02 -4.505767E+03
       309  22 -9.182494E+05 -1.476928E+05 -1.883855E+03 -3.690805E+05  4.362799E+03 -7.704691E+03
       309  23 -9.240546E+05 -1.418076E+05 -1.149053E+03 -3.623700E+05  2.981708E+03 -5.762076E+03
       309  24 -9.182429E+05 -1.476662E+05 -8.482096E+02 -3.690893E+05  1.598980E+03 -3.813855E+03
       309  25 -7.696504E+05 -9.251399E+04  3.392272E+04 -3.284200E+05  6.200623E+03 -7.015748E+03
       309  26 -8.118697E+05 -1.001287E+05  2.597958E+04 -3.316752E+05  4.824032E+03 -5.071606E+03
       309  27 -8.424698E+05 -1.194859E+05  1.760617E+04 -3.483593E+05  3.445845E+03 -3.121855E+03
       310   1 -9.629451E+05 -1.642762E+05 -1.150441E+04 -3.813518E+05  8.603277E+02  3.297113E+03
       310   2 -9.322527E+05 -1.448586E+05 -2.956868E+03 -3.646211E+05  2.156536E+03  1.311312E+03
       310   3 -8.898998E+05 -1.372127E+05  5.222384E+03 -3.613632E+05  3.452520E+03 -6.739015E+02
       310   4 -9.182332E+05 -1.476743E+05 -8.174065E+02 -3.690980E+05 -9.881152E+02  2.604576E+03
       310   5 -9.240632E+05 -1.417949E+05 -9.727441E+02 -3.623587E+05  3.085347E+02  6.189446E+02
       310   6 -9.182349E+05 -1.476877E+05 -1.496899E+03 -3.690929E+05  1.604925E+03 -1.366103E+03
       310   7 -8.735190E+05 -1.310722E+05  9.869530E+03 -3.568434E+05 -2.836713E+03  1.911981E+03
       310   8 -9.158737E+05 -1.387312E+05  1.011395E+03 -3.600963E+05 -1.539498E+03 -7.343486E+01
       310   9 -9.465693E+05 -1.581627E+05 -8.216226E+03 -3.768223E+05 -2.425784E+02 -2.058271E+03
       310  10 -9.629451E+05 -1.642762E+05 -1.150443E+04 -3.813518E+05 -2.443316E-10  1.065433E-11
       310  11 -9.322527E+05 -1.448586E+05 -2.956880E+03 -3.646211E+05 -6.090145E-10 -3.537698E-10
       310  12 -8.898998E+05 -1.372127E+05  5.222360E+03 -3.613632E+05 -2.652024E-11  1.096385E-11
       310  13 -9.182332E+05 -1.476743E+05 -8.174211E+02 -3.690980E+05 -1.850215E-10 -1.559150E-10
       310  14 -9.240632E+05 -1.417949E+05 -9.727450E+02 -3.623587E+05  6.626929E-10  6.150067E-10
       310  15 -9.182350E+05 -1.476877E+05 -1.496908E+03 -3.690929E+05 -2.414795E-10 -1.101863E-10
       310  16 -8.735191E+05 -1.310722E+05  9.869508E+03 -3.568434E+05 -2.264814E-10  1.900331E-10
       310  17 -9.158737E+05 -1.387312E+05  1.011391E+03 -3.600963E+05  1.531654E-10  2.282653E-10
       310  18 -9.465693E+05 -1.581627E+05 -8.216234E+03 -3.768223E+05 -4.044280E-10 -1.859002E-10
       310  19 -9.629451E+05 -1.642762E+05 -1.150441E+04 -3.813518E+05 -8.603277E+02 -3.297113E+03
       310  20 -9.322527E+05 -1.448586E+05 -2.956868E+03 -3.646211E+05 -2.156536E+03 -1.311312E+03
       310  21 -8.898998E+05 -1.372127E+05  5.222384E+03 -3.613632E+05 -3.452520E+03  6.739015E+02
       310  22 -9.182332E+05 -1.476743E+05 -8.174065E+02 -3.690980E+05  9.881152E+02 -2.604576E+03
       310  23 -9.240632E+05 -1.417949E+05 -9.727441E+02 -3.623587E+05 -3.085347E+02 -6.189446E+02
       310  24 -9.182349E+05 -1.476877E+05 -1.496899E+03 -3.690929E+05 -1.604925E+03  1.366103E+03
       310  25 -8.735190E+05 -1.310722E+05  9.869530E+03 -3.568434E+05  2.836713E+03 -1.911981E+03
       310  26 -9.158737E+05 -1.387312E+05  1.011395E+03 -3.600963E+05  1.539498E+03  7.343486E+01
       310  27 -9.465693E+05 -1.581627E+05 -8.216226E+03 -3.768223E+05  2.425784E+02  2.058271E+03
       311   1 -8.588472E+05 -1.256421E+05  1.256548E+04 -3.529659E+05  4.212472E+03 -1.829759E+03
       311   2 -8.281390E+05 -1.061939E+05  1.980443E+04 -3.361769E+05  6.687497E+03 -3.365634E+03
       311   3 -7.860970E+05 -9.890909E+04  2.568843E+04 -3.327791E+05  9.154234E+03 -4.878226E+03
       311   4 -9.182918E+05 -1.476527E+05 -1.921621E+03 -3.691212E+05  2.360189E+03 -2.523754E+03
       311   5 -9.239842E+05 -1.417586E+05 -3.367548E+03 -3.623548E+05  4.854674E+03 -4.052477E+03
       311   6 -9.183480E+05 -1.480320E+05 -6.184010E+03 -3.689804E+05  7.340772E+03 -5.557951E+03
       311   7 -9.777326E+05 -1.696628E+05 -1.640889E+04 -3.852750E+05  5.081096E+02 -3.217675E+03
       311   8 -1.019820E+06 -1.773227E+05 -2.654020E+04 -3.885292E+05  3.022160E+03 -4.739205E+03
       311   9 -1.050582E+06 -1.971540E+05 -3.805790E+04 -4.051749E+05  5.527723E+03 -6.237522E+03
       311  10 -8.588472E+05 -1.256421E+05  1.256544E+04 -3.529659E+05 -6.189233E-11 -2.112537E-11
       311  11 -8.281391E+05 -1.061940E+05  1.980433E+04 -3.361768E+05 -2.594052E-10  1.384869E-10
       311  12 -7.860971E+05 -9.890913E+04  2.568822E+04 -3.327790E+05 -1.209231E-10 -8.581104E-11
       311  13 -9.182918E+05 -1.476527E+05 -1.921643E+03 -3.691212E+05  2.487330E-10  2.671280E-10
       311  14 -9.239842E+05 -1.417586E+05 -3.367623E+03 -3.623548E+05  3.173519E-11  1.481255E-10
       311  15 -9.183481E+05 -1.480321E+05 -6.184170E+03 -3.689804E+05 -3.209285E-10 -1.140596E-10
       311  16 -9.777326E+05 -1.696628E+05 -1.640891E+04 -3.852750E+05 -1.789218E-10  3.581580E-11
       311  17 -1.019820E+06 -1.773227E+05 -2.654025E+04 -3.885292E+05 -1.751026E-10  7.083368E-11
       311  18 -1.050582E+06 -1.971540E+05 -3.805803E+04 -4.051749E+05  3.169004E-10  8.824054E-12
       311  19 -8.588472E+05 -1.256421E+05  1.256548E+04 -3.529659E+05 -4.212472E+03  1.829759E+03
       311  20 -8.281390E+05 -1.061939E+05  1.980443E+04 -3.361769E+05 -6.687497E+03  3.365634E+03
       311  21 -7.860970E+05 -9.890909E+04  2.568843E+04 -3.327791E+05 -9.154234E+03  4.878226E+03
       311  22 -9.182918E+05 -1.476527E+05 -1.921621E+03 -3.691212E+05 -2.360189E+03  2.523754E+03
       311  23 -9.239842E+05 -1.417586E+05 -3.367548E+03 -3.623548E+05 -4.854674E+03  4.052477E+03
       311  24 -9.183480E+05 -1.480320E+05 -6.184010E+03 -3.689804E+05 -7.340772E+03  5.557951E+03
       311  25 -9.777326E+05 -1.696628E+05 -1.640889E+04 -3.852750E+05 -5.081096E+02  3.217675E+03
       311  26 -1.019820E+06 -1.773227E+05 -2.654020E+04 -3.885292E+05 -3.022160E+03  4.739205E+03
       311  27 -1.050582E+06 -1.971540E+05 -3.805790E+04 -4.051749E+05 -5.527723E+03  6.237522E+03
       312   1 -7.547866E+05 -8.754550E+04  3.146062E+04 -3.257066E+05  1.091171E+04 -5.699495E+03
       312   2 -7.244625E+05 -6.693455E+04  3.365413E+04 -3.071619E+05  1.872096E+04 -5.112355E+03
       312   3 -6.859863E+05 -6.482542E+04  2.875449E+04 -3.004233E+05  2.636505E+04 -4.082025E+03
       312   4 -9.187800E+05 -1.473727E+05 -8.117963E+03 -3.694103E+05  8.971462E+03 -6.426855E+03
       312   5 -9.232989E+05 -1.414669E+05 -1.459237E+04 -3.622408E+05  1.715618E+04 -5.699291E+03
       312   6 -9.197424E+05 -1.541394E+05 -2.845953E+04 -3.668784E+05  2.517526E+04 -4.528675E+03
       312   7 -1.082747E+06 -2.071982E+05 -4.769850E+04 -4.131036E+05  7.031774E+03 -7.154016E+03
       312   8 -1.122096E+06 -2.159961E+05 -6.284165E+04 -4.173036E+05  1.559195E+04 -6.286017E+03
       312   9 -1.153443E+06 -2.434484E+05 -8.567735E+04 -4.333101E+05  2.398597E+04 -4.975130E+03
       312  10 -7.547868E+05 -8.754557E+04  3.146034E+04 -3.257065E+05 -4.464655E-10 -2.270633E-10
       312  11 -7.244629E+05 -6.693467E+04  3.365342E+04 -3.071618E+05 -2.202886E-10 -3.211778E-10
       312  12 -6.859871E+05 -6.482563E+04  2.875315E+04 -3.004233E+05 -1.773048E-10 -1.786956E-10
       312  13 -9.187801E+05 -1.473727E+05 -8.118191E+03 -3.694102E+05  1.025289E-10  1.298667E-10
       312  14 -9.232992E+05 -1.414670E+05 -1.459298E+04 -3.622408E+05 -2.172634E-11 -1.143681E-11
       312  15 -9.197431E+05 -1.541396E+05 -2.846076E+04 -3.668783E+05 -3.874462E-10 -1.187475E-10
       312  16 -1.082747E+06 -2.071983E+05 -4.769869E+04 -4.131035E+05  2.615223E-10 -3.121604E-10
       312  17 -1.122096E+06 -2.159962E+05 -6.284218E+04 -4.173035E+05 -3.443002E-10 -8.357236E-11
       312  18 -1.153444E+06 -2.434486E+05 -8.567848E+04 -4.333100E+05  2.954083E-11 -1.681834E-10
       312  19 -7.547866E+05 -8.754550E+04  3.146062E+04 -3.257066E+05 -1.091171E+04  5.699495E+03
       312  20 -7.244625E+05 -6.693455E+04  3.365413E+04 -3.071619E+05 -1.872096E+04  5.112355E+03
       312  21 -6.859863E+05 -6.482542E+04  2.875449E+04 -3.004233E+05 -2.636505E+04  4.082025E+03
       312  22 -9.187800E+05 -1.473727E+05 -8.117963E+03 -3.694103E+05 -8.971462E+03  6.426855E+03
       312  23 -9.232989E+05 -1.414669E+05 -1.459237E+04 -3.622408E+05 -1.715618E+04  5.699291E+03
       312  24 -9.197424E+05 -1.541394E+05 -2.845953E+04 -3.668784E+05 -2.517526E+04  4.528675E+03
       312  25 -1.082747E+06 -2.071982E+05 -4.769850E+04 -4.131036E+05 -7.031774E+03  7.154016E+03
       312  26 -1.122096E+06 -2.159961E+05 -6.284165E+04 -4.173036E+05 -1.559195E+04  6.286017E+03
       312  27 -1.153443E+06 -2.434484E+05 -8.567735E+04 -4.333101E+05 -2.398597E+04  4.975130E+03
       313   1 -6.465655E+05 -5.564679E+04  2.844014E+04 -3.139156E+05  3.469391E+04 -3.461875E+03
       313   2 -6.261172E+05 -1.369897E+04  1.089624E+04 -2.635866E+05  6.031703E+04  6.207702E+03
       313   3 -6.385938E+05 -9.138749E+04 -5.545006E+04 -1.979074E+05  8.230053E+04  2.558404E+04
       313   4 -9.244394E+05 -1.430341E+05 -3.588268E+04 -3.735709E+05  3.058786E+04 -5.001367E+03
       313   5 -9.150554E+05 -1.383378E+05 -6.312148E+04 -3.602643E+05  6.447566E+04  7.765365E+03
       313   6 -9.402601E+05 -2.549562E+05 -1.457354E+05 -3.316050E+05  9.472180E+04  3.023727E+04
       313   7 -1.202239E+06 -2.304215E+05 -1.002110E+05 -4.332047E+05  2.648378E+04 -6.540385E+03
       313   8 -1.203910E+06 -2.629623E+05 -1.371457E+05 -4.568980E+05  6.863218E+04  9.321943E+03
       313   9 -1.241828E+06 -4.184835E+05 -2.360275E+05 -4.652327E+05  1.071363E+05  3.488544E+04
       313  10 -6.465668E+05 -5.564713E+04  2.843785E+04 -3.139155E+05 -4.540301E-10 -4.930008E-11
       313  11 -6.261212E+05 -1.369999E+04  1.088932E+04 -2.635869E+05 -1.629593E-10  2.199849E-10
       313  12 -6.386013E+05 -9.139001E+04 -5.546403E+04 -1.979091E+05  6.060941E-11  2.212210E-10
       313  13 -9.244404E+05 -1.430343E+05 -3.588449E+04 -3.735708E+05  9.541171E-11  6.139023E-11
       313  14 -9.150599E+05 -1.383389E+05 -6.312942E+04 -3.602647E+05 -4.584820E-11  2.515380E-10
       313  15 -9.402700E+05 -2.549596E+05 -1.457540E+05 -3.316073E+05 -9.811724E-11  1.048165E-10
       313  16 -1.202240E+06 -2.304218E+05 -1.002124E+05 -4.332046E+05  5.371851E-10  1.207094E-10
       313  17 -1.203915E+06 -2.629636E+05 -1.371548E+05 -4.568986E+05  3.432907E-10  3.642820E-10
       313  18 -1.241840E+06 -4.184879E+05 -2.360514E+05 -4.652357E+05 -1.089490E-10  5.034734E-11
       313  19 -6.465655E+05 -5.564679E+04  2.844014E+04 -3.139156E+05 -3.469391E+04  3.461875E+03
       313  20 -6.261172E+05 -1.369897E+04  1.089624E+04 -2.635866E+05 -6.031703E+04 -6.207702E+03
       313  21 -6.385938E+05 -9.138749E+04 -5.545006E+04 -1.979074E+05 -8.230053E+04 -2.558404E+04
       313  22 -9.244394E+05 -1.430341E+05 -3.588268E+04 -3.735709E+05 -3.058786E+04  5.001367E+03
       313  23 -9.150554E+05 -1.383378E+05 -6.312148E+04 -3.602643E+05 -6.447566E+04 -7.765365E+03
       313  24 -9.402601E+05 -2.549562E+05 -1.457354E+05 -3.316050E+05 -9.472180E+04 -3.023727E+04
       313  25 -1.202239E+06 -2.304215E+05 -1.002110E+05 -4.332047E+05 -2.648378E+04  6.540385E+03
       313  26 -1.203910E+06 -2.629623E+05 -1.371457E+05 -4.568980E+05 -6.863218E+04 -9.321943E+03
       313  27 -1.241828E+06 -4.184835E+05 -2.360275E+05 -4.652327E+05 -1.071363E+05 -3.488544E+04
       314   1  1.708156E+04  1.526456E+04  7.649174E+04  6.692590E+04  1.868426E+05  1.376956E+04
       314   2  7.950248E+04 -2.305104E+05 -6.003448E+04  2.476599E+03  1.325517E+05  4.248247E+04
       314   3  2.137179E+05 -2.191494E+05 -9.683654E+04 -1.015885E+05  7.827989E+04  4.396162E+04
       314   4  1.057002E+06  2.730741E+05  3.282145E+05 -6.222055E+04  2.257872E+05  1.377243E+04
       314   5  1.019106E+06 -8.713389E+02  1.495474E+05 -4.228862E+04  1.465330E+05  4.247964E+04
       314   6  1.057191E+06 -1.359039E+04  8.780675E+04 -6.196383E+04  6.731064E+04  4.395683E+04
       314   7  2.097949E+06  5.308684E+05  5.798744E+05 -1.915842E+05  2.647966E+05  1.375913E+04
       314   8  1.959535E+06  2.287156E+05  3.590757E+05 -8.712245E+04  1.605352E+05  4.247481E+04
       314   9  1.901333E+06  1.919271E+05  2.724082E+05 -2.228468E+04  5.632664E+04  4.395064E+04
       314  10  1.704402E+04  1.525499E+04  7.642579E+04  6.692383E+04  4.087199E-10  3.022135E-10
       314  11  7.948313E+04 -2.305171E+05 -6.007088E+04  2.472064E+03 -4.317138E-10 -4.614289E-10
       314  12  2.137108E+05 -2.191531E+05 -9.685169E+04 -1.015913E+05  5.529273E-10  1.002838E-10
       314  13  1.056947E+06  2.730603E+05  3.281185E+05 -6.222306E+04  8.341648E-12  6.271549E-11
       314  14  1.019082E+06 -8.790298E+02  1.495037E+05 -4.229364E+04 -8.051205E-10 -1.251301E-09
       314  15  1.057186E+06 -1.359368E+04  8.779461E+04 -6.196621E+04 -1.077460E-10  3.643113E-12
       314  16  2.097874E+06  5.308495E+05  5.797427E+05 -1.915871E+05 -8.119668E-11 -1.394404E-10
       314  17  1.959507E+06  2.287067E+05  3.590240E+05 -8.712794E+04 -8.019106E-10 -3.133825E-10
       314  18  1.901329E+06  1.919242E+05  2.723986E+05 -2.228667E+04 -5.601828E-10 -2.727753E-10
       314  19  1.708156E+04  1.526456E+04  7.649174E+04  6.692590E+04 -1.868426E+05 -1.376956E+04
       314  20  7.950248E+04 -2.305104E+05 -6.003448E+04  2.476599E+03 -1.325517E+05 -4.248247E+04
       314  21  2.137179E+05 -2.191494E+05 -9.683654E+04 -1.015885E+05 -7.827989E+04 -4.396162E+04
       314  22  1.057002E+06  2.730741E+05  3.282145E+05 -6.222055E+04 -2.257872E+05 -1.377243E+04
       314  23  1.019106E+06 -8.713389E+02  1.495474E+05 -4.228862E+04 -1.465330E+05 -4.247964E+04
       314  24  1.057191E+06 -1.359039E+04  8.780675E+04 -6.196383E+04 -6.731064E+04 -4.395683E+04
       314  25  2.097949E+06  5.308684E+05  5.798744E+05 -1.915842E+05 -2.647966E+05 -1.375913E+04
       314  26  1.959535E+06  2.287156E+05  3.590757E+05 -8.712245E+04 -1.605352E+05 -4.247481E+04
       314  27  1.901333E+06  1.919271E+05  2.724082E+05 -2.228468E+04 -5.632664E+04 -4.395064E+04
       315   1  2.781135E+05 -1.714037E+05 -9.820778E+04 -5.713031E+04  5.786165E+04  3.835791E+04
       315   2  3.716187E+05 -1.630973E+05 -1.084373E+05 -4.101555E+04  4.002014E+04  3.439433E+04
       315   3  4.713507E+05 -1.399267E+05 -1.032956E+05 -6.491281E+04  2.217268E+04  2.923462E+04
       315   4  1.041732E+06  1.480858E+04  6.979142E+04 -6.211940E+04  5.484170E+04  3.835299E+04
       315   5  1.038558E+06 -5.730771E+02  3.774863E+04 -4.211381E+04  3.588729E+04  3.439102E+04
       315   6  1.041787E+06 -9.072493E+02  2.183483E+04 -6.211703E+04  1.692969E+04  2.923333E+04
       315   7  1.805896E+06  2.009819E+05  2.377550E+05 -6.711471E+04  5.181805E+04  3.834811E+04
       315   8  1.705913E+06  1.619215E+05  1.839076E+05 -4.321328E+04  3.175005E+04  3.438773E+04
       315   9  1.612527E+06  1.380905E+05  1.469456E+05 -5.931863E+04  1.168193E+04  2.923200E+04
       315  10  2.781095E+05 -1.714062E+05 -9.821683E+04 -5.713210E+04 -3.210611E-10 -2.067225E-10
       315  11  3.716167E+05 -1.630991E+05 -1.084425E+05 -4.101665E+04  7.920846E-11 -2.548994E-11
       315  12  4.713500E+05 -1.399278E+05 -1.032981E+05 -6.491333E+04 -2.961562E-10  4.607583E-11
       315  13  1.041729E+06  1.480619E+04  6.978301E+04 -6.212109E+04 -5.387034E-10 -7.513132E-11
       315  14  1.038556E+06 -5.746929E+02  3.774399E+04 -4.211481E+04 -4.040189E-10 -1.051727E-10
       315  15  1.041786E+06 -9.082442E+02  2.183269E+04 -6.211742E+04 -1.184267E-09 -1.540942E-11
       315  16  1.805893E+06  2.009796E+05  2.377472E+05 -6.711631E+04  1.972641E-10  1.188934E-10
       315  17  1.705912E+06  1.619200E+05  1.839035E+05 -4.321416E+04 -1.158447E-09 -3.446132E-10
       315  18  1.612526E+06  1.380896E+05  1.469437E+05 -5.931890E+04  7.036236E-10 -2.150221E-10
       315  19  2.781135E+05 -1.714037E+05 -9.820778E+04 -5.713031E+04 -5.786165E+04 -3.835791E+04
       315  20  3.716187E+05 -1.630973E+05 -1.084373E+05 -4.101555E+04 -4.002014E+04 -3.439433E+04
       315  21  4.713507E+05 -1.399267E+05 -1.032956E+05 -6.491281E+04 -2.217268E+04 -2.923462E+04
       315  22  1.041732E+06  1.480858E+04  6.979142E+04 -6.211940E+04 -5.484170E+04 -3.835299E+04
       315  23  1.038558E+06 -5.730771E+02  3.774863E+04 -4.211381E+04 -3.588729E+04 -3.439102E+04
       315  24  1.041787E+06 -9.072493E+02  2.183483E+04 -6.211703E+04 -1.692969E+04 -2.923333E+04
       315  25  1.805896E+06  2.009819E+05  2.377550E+05 -6.711471E+04 -5.181805E+04 -3.834811E+04
       315  26  1.705913E+06  1.619215E+05  1.839076E+05 -4.321328E+04 -3.175005E+04 -3.438773E+04
       315  27  1.612527E+06  1.380905E+05  1.469456E+05 -5.931863E+04 -1.168193E+04 -2.923200E+04
       316   1  5.486145E+05 -1.191470E+05 -9.072186E+04 -6.224618E+04  1.840330E+04  2.595354E+04
       316   2  6.439338E+05 -9.666163E+04 -7.720062E+04 -4.239063E+04  1.371558E+04  2.058348E+04
       316   3  7.401304E+05 -7.327676E+04 -6.039692E+04 -6.224584E+04  9.024370E+03  1.517147E+04
       316   4  1.040576E+06  6.541175E+02  1.674831E+04 -6.205108E+04  1.352758E+04  2.595307E+04
       316   5  1.040152E+06 -1.436165E+02  9.537573E+03 -4.219666E+04  8.797765E+03  2.058414E+04
       316   6  1.040601E+06 -3.518811E+01  5.636066E+03 -6.205145E+04  4.065158E+03  1.517330E+04
       316   7  1.532764E+06  1.204392E+05  1.242040E+05 -6.185580E+04  8.648056E+03  2.595261E+04
       316   8  1.436517E+06  9.636395E+04  9.626634E+04 -4.200254E+04  3.876851E+03  2.058479E+04
       316   9  1.341157E+06  7.320036E+04  7.166364E+04 -6.185696E+04 -8.964236E+02  1.517513E+04
       316  10  5.486140E+05 -1.191479E+05 -9.072376E+04 -6.224657E+04 -2.458784E-10  1.746760E-10
       316  11  6.439334E+05 -9.666213E+04 -7.720177E+04 -4.239086E+04  5.395603E-10  2.068104E-10
       316  12  7.401303E+05 -7.327703E+04 -6.039751E+04 -6.224595E+04 -1.982964E-10  2.252788E-10
       316  13  1.040576E+06  6.533448E+02  1.674670E+04 -6.205136E+04 -8.416787E-12  9.670403E-11
       316  14  1.040152E+06 -1.440924E+02  9.536631E+03 -4.219680E+04  1.876156E-10  1.282854E-10
       316  15  1.040601E+06 -3.543989E+01  5.635602E+03 -6.205150E+04  1.088556E-10 -1.167258E-10
       316  16  1.532764E+06  1.204384E+05  1.242026E+05 -6.185598E+04  2.236352E-10 -1.601462E-11
       316  17  1.436517E+06  9.636349E+04  9.626552E+04 -4.200261E+04 -7.669620E-11  1.738459E-10
       316  18  1.341157E+06  7.320012E+04  7.166320E+04 -6.185695E+04 -4.469271E-10  2.704880E-10
       316  19  5.486145E+05 -1.191470E+05 -9.072186E+04 -6.224618E+04 -1.840330E+04 -2.595354E+04
       316  20  6.439338E+05 -9.666163E+04 -7.720062E+04 -4.239063E+04 -1.371558E+04 -2.058348E+04
       316  21  7.401304E+05 -7.327676E+04 -6.039692E+04 -6.224584E+04 -9.024370E+03 -1.517147E+04
       316  22  1.040576E+06  6.541175E+02  1.674831E+04 -6.205108E+04 -1.352758E+04 -2.595307E+04
       316  23  1.040152E+06 -1.436165E+02  9.537573E+03 -4.219666E+04 -8.797765E+03 -2.058414E+04
       316  24  1.040601E+06 -3.518811E+01  5.636066E+03 -6.205145E+04 -4.065158E+03 -1.517330E+04
       316  25  1.532764E+06  1.204392E+05  1.242040E+05 -6.185580E+04 -8.648056E+03 -2.595261E+04
       316  26  1.436517E+06  9.636395E+04  9.626634E+04 -4.200254E+04 -3.876851E+03 -2.058479E+04
       316  27  1.341157E+06  7.320036E+04  7.166364E+04 -6.185696E+04  8.964236E+02 -1.517513E+04
       317   1  8.179266E+05 -5.410704E+04 -4.403890E+04 -6.207551E+04  8.093883E+03  1.201465E+04
       317   2  9.131894E+05 -3.097801E+04 -2.498895E+04 -4.227728E+04  6.683292E+03  6.607710E+03
       317   3  1.008628E+06 -7.756833E+03 -5.008650E+03 -6.201236E+04  5.271611E+03  1.202329E+03
       317   4  1.040454E+06  4.008933E+01  4.399137E+03 -6.201218E+04  3.156990E+03  1.201694E+04
       317   5  1.040374E+06 -1.556947E+00  2.847035E+03 -4.224578E+04  1.747039E+03  6.610342E+03
       317   6  1.040461E+06  4.927836E+01  2.224780E+03 -6.201222E+04  3.362101E+02  1.205343E+03
       317   7  1.263027E+06  5.418395E+04  5.283429E+04 -6.194882E+04 -1.781648E+03  1.201922E+04
       317   8  1.167574E+06  3.097383E+04  3.068213E+04 -4.221428E+04 -3.190211E+03  6.612974E+03
       317   9  1.072296E+06  7.855333E+03  9.458236E+03 -6.201208E+04 -4.599441E+03  1.208356E+03
       317  10  8.179265E+05 -5.410721E+04 -4.403929E+04 -6.207559E+04 -6.902011E-10  1.661280E-10
       317  11  9.131893E+05 -3.097807E+04 -2.498911E+04 -4.227731E+04 -6.681550E-10  7.491230E-10
       317  12  1.008628E+06 -7.756842E+03 -5.008705E+03 -6.201237E+04 -7.896355E-10  2.207549E-10
       317  13  1.040454E+06  3.993151E+01  4.398847E+03 -6.201221E+04 -5.776076E-10  4.459240E-10
       317  14  1.040374E+06 -1.604711E+00  2.846947E+03 -4.224579E+04 -3.508913E-10 -2.111416E-10
       317  15  1.040461E+06  4.927677E+01  2.224777E+03 -6.201222E+04 -4.515451E-10 -2.925796E-10
       317  16  1.263027E+06  5.418379E+04  5.283401E+04 -6.194881E+04  1.515399E-09 -6.976172E-10
       317  17  1.167574E+06  3.097378E+04  3.068203E+04 -4.221427E+04 -1.895601E-10  3.623961E-11
       317  18  1.072296E+06  7.855326E+03  9.458194E+03 -6.201207E+04  5.692069E-10 -4.161179E-10
       317  19  8.179266E+05 -5.410704E+04 -4.403890E+04 -6.207551E+04 -8.093883E+03 -1.201465E+04
       317  20  9.131894E+05 -3.097801E+04 -2.498895E+04 -4.227728E+04 -6.683292E+03 -6.607710E+03
       317  21  1.008628E+06 -7.756833E+03 -5.008650E+03 -6.201236E+04 -5.271611E+03 -1.202329E+03
       317  22  1.040454E+06  4.008933E+01  4.399137E+03 -6.201218E+04 -3.156990E+03 -1.201694E+04
       317  23  1.040374E+06 -1.556947E+00  2.847035E+03 -4.224578E+04 -1.747039E+03 -6.610342E+03
       317  24  1.040461E+06  4.927836E+01  2.224780E+03 -6.201222E+04 -3.362101E+02 -1.205343E+03
       317  25  1.263027E+06  5.418395E+04  5.283429E+04 -6.194882E+04  1.781648E+03 -1.201922E+04
       317  26  1.167574E+06  3.097383E+04  3.068213E+04 -4.221428E+04  3.190211E+03 -6.612974E+03
       317  27  1.072296E+06  7.855333E+03  9.458236E+03 -6.201208E+04  4.599441E+03 -1.208356E+03
       318   1  1.086418E+06  1.129515E+04  1.250262E+04 -6.203341E+04  4.870115E+03 -1.942964E+03
       318   2  1.181716E+06  3.441893E+04  3.352317E+04 -4.223630E+04  3.586192E+03 -7.347994E+03
       318   3  1.277173E+06  5.762628E+04  5.538865E+04 -6.197708E+04  2.303071E+03 -1.275510E+04
       318   4  1.040458E+06  4.916346E+01  2.178112E+03 -6.201346E+04 -6.581663E+01 -1.939962E+03
       318   5  1.040378E+06  8.580718E-01  2.594452E+03 -4.224423E+04 -1.351719E+03 -7.345415E+03
       318   6  1.040449E+06  3.740908E+01  3.857909E+03 -6.201343E+04 -2.636626E+03 -1.275291E+04
       318   7  9.944996E+05 -1.119695E+04 -8.146436E+03 -6.199352E+04 -5.001387E+03 -1.936961E+03
       318   8  8.990584E+05 -3.441853E+04 -2.833539E+04 -4.225216E+04 -6.288521E+03 -7.342835E+03
       318   9  8.037784E+05 -5.755517E+04 -4.767610E+04 -6.204977E+04 -7.574467E+03 -1.275072E+04
       318  10  1.086418E+06  1.129514E+04  1.250257E+04 -6.203340E+04 -8.201219E-10 -2.048528E-10
       318  11  1.181716E+06  3.441887E+04  3.352305E+04 -4.223628E+04 -8.119018E-11  5.585206E-11
       318  12  1.277172E+06  5.762611E+04  5.538833E+04 -6.197705E+04 -1.725291E-10 -2.334281E-10
       318  13  1.040458E+06  4.915941E+01  2.178105E+03 -6.201346E+04 -1.133170E-09  5.621151E-10
       318  14  1.040378E+06  7.996147E-01  2.594347E+03 -4.224424E+04 -9.143105E-10  5.811208E-10
       318  15  1.040449E+06  3.723248E+01  3.857590E+03 -6.201346E+04  6.454267E-10 -1.011288E-09
       318  16  9.944996E+05 -1.119697E+04 -8.146490E+03 -6.199353E+04  4.140797E-10  1.450899E-10
       318  17  8.990584E+05 -3.441860E+04 -2.833556E+04 -4.225220E+04 -5.904120E-10  3.755876E-10
       318  18  8.037783E+05 -5.755536E+04 -4.767651E+04 -6.204984E+04 -1.023970E-10 -6.002699E-10
       318  19  1.086418E+06  1.129515E+04  1.250262E+04 -6.203341E+04 -4.870115E+03  1.942964E+03
       318  20  1.181716E+06  3.441893E+04  3.352317E+04 -4.223630E+04 -3.586192E+03  7.347994E+03
       318  21  1.277173E+06  5.762628E+04  5.538865E+04 -6.197708E+04 -2.303071E+03  1.275510E+04
       318  22  1.040458E+06  4.916346E+01  2.178112E+03 -6.201346E+04  6.581663E+01  1.939962E+03
       318  23  1.040378E+06  8.580718E-01  2.594452E+03 -4.224423E+04  1.351719E+03  7.345415E+03
       318  24  1.040449E+06  3.740908E+01  3.857909E+03 -6.201343E+04  2.636626E+03  1.275291E+04
       318  25  9.944996E+05 -1.119695E+04 -8.146436E+03 -6.199352E+04  5.001387E+03  1.936961E+03
       318  26  8.990584E+05 -3.441853E+04 -2.833539E+04 -4.225216E+04  6.288521E+03  7.342835E+03
       318  27  8.037784E+05 -5.755517E+04 -4.767610E+04 -6.204977E+04  7.574467E+03  1.275072E+04
       319   1  1.355301E+06  7.665740E+04  7.402407E+04 -6.190606E+04  1.534077E+03 -1.591188E+04
       319   2  1.450753E+06  9.983713E+04  9.804425E+04 -4.203952E+04 -2.579518E+03 -2.132337E+04
       319   3  1.546982E+06  1.238021E+05  1.249408E+05 -6.188799E+04 -6.690969E+03 -2.669263E+04
       319   4  1.040575E+06 -2.794019E+01  4.896553E+03 -6.205309E+04 -3.429230E+03 -1.591018E+04
       319   5  1.040181E+06 -1.285261E+02  8.207944E+03 -4.219463E+04 -7.502195E+03 -2.132287E+04
       319   6  1.040549E+06  5.497922E+02  1.436907E+04 -6.205278E+04 -1.157240E+04 -2.669330E+04
       319   7  7.259419E+05 -7.671988E+04 -6.423691E+04 -6.220003E+04 -8.390057E+03 -1.590846E+04
       319   8  6.297677E+05 -1.001054E+05 -8.163848E+04 -4.234962E+04 -1.242166E+04 -2.132237E+04
       319   9  5.343562E+05 -1.227195E+05 -9.621805E+04 -6.221742E+04 -1.644990E+04 -2.669396E+04
       319  10  1.355301E+06  7.665712E+04  7.402359E+04 -6.190604E+04 -8.329118E-10  2.442290E-10
       319  11  1.450753E+06  9.983664E+04  9.804338E+04 -4.203956E+04  3.822013E-10  1.250105E-10
       319  12  1.546982E+06  1.238013E+05  1.249394E+05 -6.188813E+04 -6.892080E-11  4.397769E-10
       319  13  1.040575E+06 -2.821530E+01  4.896054E+03 -6.205313E+04 -7.190801E-10 -6.518151E-10
       319  14  1.040181E+06 -1.290297E+02  8.206983E+03 -4.219476E+04  5.628893E-10 -1.995345E-10
       319  15  1.040549E+06  5.489908E+02  1.436748E+04 -6.205303E+04  5.150015E-10  1.522991E-10
       319  16  7.259417E+05 -7.672017E+04 -6.423752E+04 -6.220013E+04  4.248789E-10 -3.643519E-11
       319  17  6.297674E+05 -1.001059E+05 -8.163962E+04 -4.234983E+04  2.991405E-10 -4.807573E-11
       319  18  5.343557E+05 -1.227204E+05 -9.621990E+04 -6.221778E+04  3.506929E-10 -2.129876E-11
       319  19  1.355301E+06  7.665740E+04  7.402407E+04 -6.190606E+04 -1.534077E+03  1.591188E+04
       319  20  1.450753E+06  9.983713E+04  9.804425E+04 -4.203952E+04  2.579518E+03  2.132337E+04
       319  21  1.546982E+06  1.238021E+05  1.249408E+05 -6.188799E+04  6.690969E+03  2.669263E+04
       319  22  1.040575E+06 -2.794019E+01  4.896553E+03 -6.205309E+04  3.429230E+03  1.591018E+04
       319  23  1.040181E+06 -1.285261E+02  8.207944E+03 -4.219463E+04  7.502195E+03  2.132287E+04
       319  24  1.040549E+06  5.497922E+02  1.436907E+04 -6.205278E+04  1.157240E+04  2.669330E+04
       319  25  7.259419E+05 -7.671988E+04 -6.423691E+04 -6.220003E+04  8.390057E+03  1.590846E+04
       319  26  6.297677E+05 -1.001054E+05 -8.163848E+04 -4.234962E+04  1.242166E+04  2.132237E+04
       319  27  5.343562E+05 -1.227195E+05 -9.621805E+04 -6.221742E+04  1.644990E+04  2.669396E+04
       320   1  1.626610E+06  1.416847E+05  1.469559E+05 -5.972210E+04 -9.235000E+03 -2.997497E+04
       320   2  1.720496E+06  1.654717E+05  1.816392E+05 -4.301787E+04 -2.660132E+04 -3.512935E+04
       320   3  1.820098E+06  2.023342E+05  2.309155E+05 -6.634894E+04 -4.396664E+04 -3.907167E+04
       320   4  1.041588E+06 -7.889623E+02  1.872193E+04 -6.212344E+04 -1.449011E+04 -2.997655E+04
       320   5  1.038801E+06 -5.126435E+02  3.234223E+04 -4.210591E+04 -3.073284E+04 -3.513287E+04
       320   6  1.041535E+06  1.265413E+04  5.978876E+04 -6.212589E+04 -4.697192E+04 -3.907665E+04
       320   7  4.568861E+05 -1.432854E+05 -1.095327E+05 -6.452248E+04 -1.974033E+04 -2.997809E+04
       320   8  3.575406E+05 -1.665279E+05 -1.169829E+05 -4.119496E+04 -3.485987E+04 -3.513639E+04
       320   9  2.635377E+05 -1.770664E+05 -1.113750E+05 -5.790822E+04 -4.997346E+04 -3.908168E+04
       320  10  1.626610E+06  1.416837E+05  1.469540E+05 -5.972232E+04  9.157917E-10  9.296451E-11
       320  11  1.720495E+06  1.654701E+05  1.816356E+05 -4.301862E+04 -3.587882E-10 -3.940357E-10
       320  12  1.820096E+06  2.023320E+05  2.309090E+05 -6.635032E+04 -3.621904E-10 -5.534893E-10
       320  13  1.041588E+06 -7.899840E+02  1.871985E+04 -6.212379E+04  3.030539E-10 -1.589236E-10
       320  14  1.038800E+06 -5.142227E+02  3.233813E+04 -4.210678E+04  1.264066E-09 -3.703938E-10
       320  15  1.041533E+06  1.265190E+04  5.978175E+04 -6.212737E+04  3.184483E-10 -3.687000E-10
       320  16  4.568854E+05 -1.432865E+05 -1.095351E+05 -6.452295E+04  2.416248E-10 -3.309366E-10
       320  17  3.575390E+05 -1.665296E+05 -1.169875E+05 -4.119595E+04  2.059169E-10 -4.634457E-10
       320  18  2.635346E+05 -1.770687E+05 -1.113825E+05 -5.790979E+04 -1.825015E-10  5.618377E-10
       320  19  1.626610E+06  1.416847E+05  1.469559E+05 -5.972210E+04  9.235000E+03  2.997497E+04
       320  20  1.720496E+06  1.654717E+05  1.816392E+05 -4.301787E+04  2.660132E+04  3.512935E+04
       320  21  1.820098E+06  2.023342E+05  2.309155E+05 -6.634894E+04  4.396664E+04  3.907167E+04
       320  22  1.041588E+06 -7.889623E+02  1.872193E+04 -6.212344E+04  1.449011E+04  2.997655E+04
       320  23  1.038801E+06 -5.126435E+02  3.234223E+04 -4.210591E+04  3.073284E+04  3.513287E+04
       320  24  1.041535E+06  1.265413E+04  5.978876E+04 -6.212589E+04  4.697192E+04  3.907665E+04
       320  25  4.568861E+05 -1.432854E+05 -1.095327E+05 -6.452248E+04  1.974033E+04  2.997809E+04
       320  26  3.575406E+05 -1.665279E+05 -1.169829E+05 -4.119496E+04  3.485987E+04  3.513639E+04
       320  27  2.635377E+05 -1.770664E+05 -1.113750E+05 -5.790822E+04  4.997346E+04  3.908168E+04
       321   1  1.913401E+06  1.973568E+05  2.629828E+05 -2.789915E+04 -4.657596E+04 -4.470681E+04
       321   2  1.977060E+06  2.323439E+05  3.408476E+05 -8.056595E+04 -1.397555E+05 -4.313548E+04
       321   3  2.110179E+06  4.953372E+05  5.363371E+05 -1.728494E+05 -2.329864E+05 -1.395282E+04
       321   4  1.054782E+06 -1.167756E+04  7.522027E+04 -6.196994E+04 -5.765314E+04 -4.471466E+04
       321   5  1.022114E+06 -7.920299E+02  1.280929E+05 -4.228292E+04 -1.255135E+05 -4.313667E+04
       321   6  1.054610E+06  2.338835E+05  2.811416E+05 -6.220056E+04 -1.934068E+05 -1.395001E+04
       321   7  1.968532E+05 -2.207566E+05 -1.125858E+05 -9.599320E+04 -6.871518E+04 -4.472130E+04
       321   8  6.801974E+04 -2.339841E+05 -8.471725E+04 -4.059395E+03 -1.112930E+05 -4.313612E+04
       321   9  8.511974E+01 -2.760451E+04  2.587878E+04  4.825993E+04 -1.538939E+05 -1.393314E+04
       321  10  1.913398E+06  1.973541E+05  2.629750E+05 -2.790083E+04  3.344861E-10 -1.918009E-10
       321  11  1.977039E+06  2.323367E+05  3.408076E+05 -8.057080E+04 -2.180724E-10  4.983751E-10
       321  12  2.110121E+06  4.953225E+05  5.362350E+05 -1.728521E+05  1.231154E-09  7.725791E-10
       321  13  1.054777E+06 -1.168060E+04  7.521027E+04 -6.197201E+04 -1.266664E-09 -1.019695E-09
       321  14  1.022097E+06 -7.982494E+02  1.280599E+05 -4.228728E+04 -8.085185E-10  3.199609E-10
       321  15  1.054569E+06  2.338733E+05  2.810711E+05 -6.220273E+04  3.058693E-10 -3.793031E-10
       321  16  1.968476E+05 -2.207600E+05 -1.125984E+05 -9.599568E+04 -8.430440E-10  4.115283E-10
       321  17  6.800595E+04 -2.339894E+05 -8.474402E+04 -4.063262E+03 -2.323826E-10 -4.412519E-10
       321  18  5.963721E+01 -2.761108E+04  2.583391E+04  4.825821E+04 -6.721200E-10  9.890307E-10
       321  19  1.913401E+06  1.973568E+05  2.629828E+05 -2.789915E+04  4.657596E+04  4.470681E+04
       321  20  1.977060E+06  2.323439E+05  3.408476E+05 -8.056595E+04  1.397555E+05  4.313548E+04
       321  21  2.110179E+06  4.953372E+05  5.363371E+05 -1.728494E+05  2.329864E+05  1.395282E+04
       321  22  1.054782E+06 -1.167756E+04  7.522027E+04 -6.196994E+04  5.765314E+04  4.471466E+04
       321  23  1.022114E+06 -7.920299E+02  1.280929E+05 -4.228292E+04  1.255135E+05  4.313667E+04
       321  24  1.054610E+06  2.338835E+05  2.811416E+05 -6.220056E+04  1.934068E+05  1.395001E+04
       321  25  1.968532E+05 -2.207566E+05 -1.125858E+05 -9.599320E+04  6.871518E+04  4.472130E+04
       321  26  6.801974E+04 -2.339841E+05 -8.471725E+04 -4.059395E+03  1.112930E+05  4.313612E+04
       321  27  8.511974E+01 -2.760451E+04  2.587878E+04  4.825993E+04  1.538939E+05  1.393314E+04
       322   1  2.628395E+05  8.100105E+05  2.932666E+05 -2.106176E+05  3.302540E+03  1.378320E+05
       322   2  4.989406E+04  5.796187E+05  1.370910E+05 -1.183432E+05  7.490802E+03  7.843306E+04
       322   3 -7.779029E+03  3.955012E+05  5.830529E+04 -1.113381E+05 -8.267079E+02  1.903489E+04
       322   4  1.600955E+05  3.982550E+05  1.924506E+05 -1.339057E+05  3.334531E+03  1.283578E+05
       322   5 -1.507397E+02  3.761381E+05  9.075620E+04 -9.140618E+04  7.491183E+03  8.039644E+04
       322   6 -7.077810E+03  3.983073E+05  5.855271E+04 -1.341594E+05 -8.503241E+02  3.241604E+04
       322   7  5.736107E+04 -1.333351E+04  9.162561E+04 -5.724459E+04  3.364198E+03  1.188898E+05
       322   8 -5.019570E+04  1.726973E+05  4.441908E+04 -6.447802E+04  7.491734E+03  8.235917E+04
       322   9 -6.374538E+03  4.011149E+05  5.880109E+04 -1.569809E+05 -8.749233E+02  4.579725E+04
       322  10  2.628344E+05  8.099902E+05  2.932309E+05 -2.106180E+05  5.893948E-11  4.215805E-10
       322  11  4.989235E+04  5.796121E+05  1.370794E+05 -1.183437E+05 -2.020597E-10  4.599489E-11
       322  12 -7.779127E+03  3.955008E+05  5.830461E+04 -1.113381E+05  7.569322E-10  1.664513E-09
       322  13  1.600911E+05  3.982373E+05  1.924196E+05 -1.339060E+05  7.495754E-10  6.570216E-10
       322  14 -1.525338E+02  3.761311E+05  9.074395E+04 -9.140667E+04 -8.252234E-10  8.083390E-10
       322  15 -7.078092E+03  3.983061E+05  5.855074E+04 -1.341594E+05  6.028736E-10  3.875664E-10
       322  16  5.735726E+04 -1.334869E+04  9.159902E+04 -5.724492E+04  1.801392E-10 -4.511536E-10
       322  17 -5.019758E+04  1.726900E+05  4.440623E+04 -6.447852E+04  1.871389E-10 -1.019745E-09
       322  18 -6.375101E+03  4.011126E+05  5.879715E+04 -1.569809E+05  4.656850E-10 -1.791275E-09
       322  19  2.628395E+05  8.100105E+05  2.932666E+05 -2.106176E+05 -3.302540E+03 -1.378320E+05
       322  20  4.989406E+04  5.796187E+05  1.370910E+05 -1.183432E+05 -7.490802E+03 -7.843306E+04
       322  21 -7.779029E+03  3.955012E+05  5.830529E+04 -1.113381E+05  8.267079E+02 -1.903489E+04
       322  22  1.600955E+05  3.982550E+05  1.924506E+05 -1.339057E+05 -3.334531E+03 -1.283578E+05
       322  23 -1.507397E+02  3.761381E+05  9.075620E+04 -9.140618E+04 -7.491183E+03 -8.039644E+04
       322  24 -7.077810E+03  3.983073E+05  5.855271E+04 -1.341594E+05  8.503241E+02 -3.241604E+04
       322  25  5.736107E+04 -1.333351E+04  9.162561E+04 -5.724459E+04 -3.364198E+03 -1.188898E+05
       322  26 -5.019570E+04  1.726973E+05  4.441908E+04 -6.447802E+04 -7.491734E+03 -8.235917E+04
       322  27 -6.374538E+03  4.011149E+05  5.880109E+04 -1.569809E+05  8.749233E+02 -4.579725E+04
       323   1 -3.326304E+04  2.174264E+05  1.275597E+04 -1.384334E+05 -8.884977E+03  1.347839E+04
       323   2 -9.283241E+04  6.975770E+03 -4.370074E+04 -9.099700E+04 -1.953833E+04 -5.636817E+03
       323   3 -1.362765E+05 -1.971482E+05 -8.374513E+04 -1.294556E+05 -2.933893E+04 -2.473943E+04
       323   4  8.765802E+03  3.898803E+05  5.058969E+04 -1.342328E+05 -8.901900E+03  2.362042E+04
       323   5 -2.546659E+02  3.866475E+05  3.958999E+04 -9.128912E+04 -1.955181E+04  3.718591E+03
       323   6  6.984320E+03  3.898348E+05  4.554650E+04 -1.342357E+05 -2.934909E+04 -1.617682E+04
       323   7  5.079278E+04  5.623623E+05  8.842199E+04 -1.300311E+05 -8.918683E+03  3.376523E+04
       323   8  9.231349E+04  7.664543E+05  1.228723E+05 -9.158136E+04 -1.956530E+04  1.307965E+04
       323   9  1.502221E+05  9.771400E+05  1.748173E+05 -1.390202E+05 -2.935938E+04 -7.606204E+03
       323  10 -3.326317E+04  2.174261E+05  1.275549E+04 -1.384333E+05  2.661286E-10  6.809246E-10
       323  11 -9.283283E+04  6.975634E+03 -4.370152E+04 -9.099709E+04  2.551443E-10 -6.745442E-10
       323  12 -1.362776E+05 -1.971491E+05 -8.374790E+04 -1.294562E+05 -2.775573E-10  5.237066E-10
       323  13  8.765567E+03  3.898797E+05  5.058849E+04 -1.342327E+05  6.538516E-10  8.701034E-10
       323  14 -2.550801E+02  3.866474E+05  3.958924E+04 -9.128906E+04  8.778195E-10  6.800161E-10
       323  15  6.983324E+03  3.898343E+05  4.554439E+04 -1.342361E+05  1.511987E-09  1.009489E-10
       323  16  5.079239E+04  5.623611E+05  8.841970E+04 -1.300309E+05  4.088282E-10 -6.381524E-10
       323  17  9.231304E+04  7.664540E+05  1.228712E+05 -9.158115E+04 -1.012584E-09 -3.012118E-10
       323  18  1.502212E+05  9.771397E+05  1.748156E+05 -1.390204E+05 -5.457655E-10 -7.121077E-10
       323  19 -3.326304E+04  2.174264E+05  1.275597E+04 -1.384334E+05  8.884977E+03 -1.347839E+04
       323  20 -9.283241E+04  6.975770E+03 -4.370074E+04 -9.099700E+04  1.953833E+04  5.636817E+03
       323  21 -1.362765E+05 -1.971482E+05 -8.374513E+04 -1.294556E+05  2.933893E+04  2.473943E+04
       323  22  8.765802E+03  3.898803E+05  5.058969E+04 -1.342328E+05  8.901900E+03 -2.362042E+04
       323  23 -2.546659E+02  3.866475E+05  3.958999E+04 -9.128912E+04  1.955181E+04 -3.718591E+03
       323  24  6.984320E+03  3.898348E+05  4.554650E+04 -1.342357E+05  2.934909E+04  1.617682E+04
       323  25  5.079278E+04  5.623623E+05  8.842199E+04 -1.300311E+05  8.918683E+03 -3.376523E+04
       323  26  9.231349E+04  7.664543E+05  1.228723E+05 -9.158136E+04  1.956530E+04 -1.307965E+04
       323  27  1.502221E+05  9.771400E+05  1.748173E+05 -1.390202E+05  2.935938E+04  7.606204E+03
       324   1 -1.903888E+05 -3.605254E+05 -1.149737E+05 -1.520208E+05 -3.900262E+04 -4.167472E+04
       324   2 -2.360368E+05 -5.844113E+05 -1.393932E+05 -6.890694E+04 -4.249012E+04 -5.276962E+04
       324   3 -1.600914E+05 -7.762140E+05 -1.261429E+05 -7.050402E+04 -1.418117E+04 -6.383958E+04
       324   4 -5.804866E+03  3.965865E+05  5.109882E+04 -1.340014E+05 -3.902355E+04 -2.402000E+04
       324   5 -3.934581E+02  3.780099E+05  7.599522E+04 -9.159840E+04 -4.247264E+04 -6.414249E+04
       324   6  1.315417E+05  3.964471E+05  1.586662E+05 -1.338867E+05 -1.414589E+04 -1.042450E+05
       324   7  1.787422E+05  1.154236E+06  2.171378E+05 -1.159594E+05 -3.904344E+04 -6.343992E+03
       324   8  2.351888E+05  1.341295E+06  2.913260E+05 -1.143252E+05 -4.245435E+04 -7.553275E+04
       324   9  4.230896E+05  1.570376E+06  4.433842E+05 -1.973893E+05 -1.410241E+04 -1.447264E+05
       324  10 -1.903909E+05 -3.605276E+05 -1.149798E+05 -1.520221E+05 -4.431816E-12  6.352207E-10
       324  11 -2.360395E+05 -5.844148E+05 -1.394018E+05 -6.890875E+04  8.373341E-11 -2.056371E-10
       324  12 -1.600927E+05 -7.762184E+05 -1.261509E+05 -7.050474E+04 -3.129221E-10  2.372395E-10
       324  13 -5.806657E+03  3.965855E+05  5.109487E+04 -1.340021E+05 -5.820234E-10  6.416144E-10
       324  14 -3.964996E+02  3.780050E+05  7.598411E+04 -9.160059E+04  3.641855E-10  4.050500E-10
       324  15  1.315385E+05  3.964354E+05  1.586454E+05 -1.338879E+05 -3.875553E-10  1.159570E-10
       324  16  1.787405E+05  1.154236E+06  2.171349E+05 -1.159596E+05  2.244713E-10 -6.864178E-10
       324  17  2.351853E+05  1.341289E+06  2.913119E+05 -1.143277E+05 -1.357329E-11 -4.955351E-10
       324  18  4.230838E+05  1.570354E+06  4.433446E+05 -1.973910E+05 -3.602581E-10 -2.672518E-10
       324  19 -1.903888E+05 -3.605254E+05 -1.149737E+05 -1.520208E+05  3.900262E+04  4.167472E+04
       324  20 -2.360368E+05 -5.844113E+05 -1.393932E+05 -6.890694E+04  4.249012E+04  5.276962E+04
       324  21 -1.600914E+05 -7.762140E+05 -1.261429E+05 -7.050402E+04  1.418117E+04  6.383958E+04
       324  22 -5.804866E+03  3.965865E+05  5.109882E+04 -1.340014E+05  3.902355E+04  2.402000E+04
       324  23 -3.934581E+02  3.780099E+05  7.599522E+04 -9.159840E+04  4.247264E+04  6.414249E+04
       324  24  1.315417E+05  3.964471E+05  1.586662E+05 -1.338867E+05  1.414589E+04  1.042450E+05
       324  25  1.787422E+05  1.154236E+06  2.171378E+05 -1.159594E+05  3.904344E+04  6.343992E+03
       324  26  2.351888E+05  1.341295E+06  2.913260E+05 -1.143252E+05  4.245435E+04  7.553275E+04
       324  27  4.230896E+05  1.570376E+06  4.433842E+05 -1.973893E+05  1.410241E+04  1.447264E+05
       325   1 -2.617277E+06 -1.014347E+06 -5.632307E+05 -1.022714E+06 -2.713460E+05 -8.555432E+04
       325   2 -2.543056E+06 -6.933805E+05 -3.339257E+05 -9.899251E+05 -1.719718E+05 -1.092100E+04
       325   3 -2.537498E+06 -5.739785E+05 -2.385327E+05 -9.300751E+05 -6.267966E+04  3.744407E+04
       325   4 -1.770244E+06 -5.492496E+05 -3.145389E+05 -6.407218E+05 -2.079269E+05 -6.177164E+04
       325   5 -1.722092E+06 -3.294422E+05 -1.431642E+05 -7.003143E+05 -1.449684E+05 -7.921757E+02
       325   6 -1.735266E+06 -3.038423E+05 -7.666026E+04 -7.328824E+05 -7.210897E+04  3.389538E+04
       325   7 -9.224588E+05 -8.382789E+04 -6.589893E+04 -2.581796E+05 -1.444144E+05 -3.791593E+04
       325   8 -9.004307E+05  3.463956E+04  4.755554E+04 -4.103206E+05 -1.179264E+05  9.357890E+03
       325   9 -9.323629E+05 -3.367333E+04  8.518331E+04 -5.354623E+05 -8.155153E+04  3.034264E+04
       325  10 -2.617358E+06 -1.014375E+06 -5.633835E+05 -1.022733E+06  4.933787E-11  1.539225E-10
       325  11 -2.543088E+06 -6.933886E+05 -3.339818E+05 -9.899267E+05 -1.902363E-09 -5.636198E-10
       325  12 -2.537503E+06 -5.739811E+05 -2.385427E+05 -9.300732E+05  9.830972E-10  9.138002E-10
       325  13 -1.770292E+06 -5.492653E+05 -3.146276E+05 -6.407322E+05 -1.218336E-10 -3.981039E-10
       325  14 -1.722115E+06 -3.294479E+05 -1.432038E+05 -7.003144E+05 -4.696952E-10  1.374577E-10
       325  15 -1.735272E+06 -3.038449E+05 -7.667220E+04 -7.328805E+05  4.839851E-09  2.052254E-09
       325  16 -9.224816E+05 -8.383505E+04 -6.594089E+04 -2.581840E+05 -1.234904E-09 -9.823744E-10
       325  17 -9.004457E+05  3.463573E+04  4.752921E+04 -4.103197E+05  1.616410E-09 -4.759493E-10
       325  18 -9.323703E+05 -3.367611E+04  8.516908E+04 -5.354603E+05  8.769420E-09  3.029132E-09
       325  19 -2.617277E+06 -1.014347E+06 -5.632307E+05 -1.022714E+06  2.713460E+05  8.555432E+04
       325  20 -2.543056E+06 -6.933805E+05 -3.339257E+05 -9.899251E+05  1.719718E+05  1.092100E+04
       325  21 -2.537498E+06 -5.739785E+05 -2.385327E+05 -9.300751E+05  6.267966E+04 -3.744407E+04
       325  22 -1.770244E+06 -5.492496E+05 -3.145389E+05 -6.407218E+05  2.079269E+05  6.177164E+04
       325  23 -1.722092E+06 -3.294422E+05 -1.431642E+05 -7.003143E+05  1.449684E+05  7.921757E+02
       325  24 -1.735266E+06 -3.038423E+05 -7.666026E+04 -7.328824E+05  7.210897E+04 -3.389538E+04
       325  25 -9.224588E+05 -8.382789E+04 -6.589893E+04 -2.581796E+05  1.444144E+05  3.791593E+04
       325  26 -9.004307E+05  3.463956E+04  4.755554E+04 -4.103206E+05  1.179264E+05 -9.357890E+03
       325  27 -9.323629E+05 -3.367333E+04  8.518331E+04 -5.354623E+05  8.155153E+04 -3.034264E+04
       326   1 -2.449199E+06 -5.819645E+05 -2.082773E+05 -9.289109E+05 -5.763331E+04  3.492521E+04
       326   2 -2.371426E+06 -5.313168E+05 -1.610767E+05 -8.962144E+05 -3.819098E+04  3.783482E+04
       326   3 -2.282166E+06 -5.059534E+05 -1.295050E+05 -8.814016E+05 -1.809084E+04  3.899209E+04
       326   4 -1.725660E+06 -3.133863E+05 -5.865418E+04 -7.251160E+05 -6.179820E+04  3.335406E+04
       326   5 -1.730930E+06 -2.961409E+05 -3.097764E+04 -7.179798E+05 -4.477108E+04  3.535876E+04
       326   6 -1.724232E+06 -3.036918E+05 -1.699682E+04 -7.287286E+05 -2.708917E+04  3.561095E+04
       326   7 -1.001582E+06 -4.476026E+04  9.094143E+04 -5.210996E+05 -6.596831E+04  3.178089E+04
       326   8 -1.090013E+06 -6.093020E+04  9.910026E+04 -5.395752E+05 -5.135846E+04  3.287995E+04
       326   9 -1.165982E+06 -1.014067E+05  9.549507E+04 -5.759301E+05 -3.609615E+04  3.222664E+04
       326  10 -2.449203E+06 -5.819667E+05 -2.082858E+05 -9.289093E+05  7.867297E-09  3.762313E-09
       326  11 -2.371428E+06 -5.313187E+05 -1.610821E+05 -8.962132E+05  1.548360E-09  7.398679E-10
       326  12 -2.282166E+06 -5.059551E+05 -1.295085E+05 -8.814011E+05 -6.145199E-10 -1.240872E-10
       326  13 -1.725665E+06 -3.133885E+05 -5.866346E+04 -7.251143E+05  4.579984E-09  2.328337E-09
       326  14 -1.730933E+06 -2.961428E+05 -3.098376E+04 -7.179786E+05 -1.095355E-09  4.751352E-10
       326  15 -1.724234E+06 -3.036934E+05 -1.700058E+04 -7.287279E+05 -5.155386E-10 -2.975488E-10
       326  16 -1.001587E+06 -4.476251E+04  9.093135E+04 -5.210979E+05  2.055058E-09  1.151705E-09
       326  17 -1.090016E+06 -6.093206E+04  9.909327E+04 -5.395738E+05 -1.510617E-09  2.321054E-10
       326  18 -1.165984E+06 -1.014082E+05  9.549067E+04 -5.759292E+05 -1.238922E-09 -5.601285E-10
       326  19 -2.449199E+06 -5.819645E+05 -2.082773E+05 -9.289109E+05  5.763331E+04 -3.492521E+04
       326  20 -2.371426E+06 -5.313168E+05 -1.610767E+05 -8.962144E+05  3.819098E+04 -3.783482E+04
       326  21 -2.282166E+06 -5.059534E+05 -1.295050E+05 -8.814016E+05  1.809084E+04 -3.899209E+04
       326  22 -1.725660E+06 -3.133863E+05 -5.865418E+04 -7.251160E+05  6.179820E+04 -3.335406E+04
       326  23 -1.730930E+06 -2.961409E+05 -3.097764E+04 -7.179798E+05  4.477108E+04 -3.535876E+04
       326  24 -1.724232E+06 -3.036918E+05 -1.699682E+04 -7.287286E+05  2.708917E+04 -3.561095E+04
       326  25 -1.001582E+06 -4.476026E+04  9.094143E+04 -5.210996E+05  6.596831E+04 -3.178089E+04
       326  26 -1.090013E+06 -6.093020E+04  9.910026E+04 -5.395752E+05  5.135846E+04 -3.287995E+04
       326  27 -1.165982E+06 -1.014067E+05  9.549507E+04 -5.759301E+05  3.609615E+04 -3.222664E+04
       327   1 -2.222187E+06 -4.858843E+05 -1.130611E+05 -8.659415E+05 -1.461621E+04  3.599605E+04
       327   2 -2.144859E+06 -4.458938E+05 -9.016824E+04 -8.326095E+05 -8.566285E+03  3.107151E+04
       327   3 -2.051058E+06 -4.233788E+05 -7.010930E+04 -8.188612E+05 -2.469911E+03  2.601728E+04
       327   4 -1.723505E+06 -3.041094E+05 -1.279569E+04 -7.283314E+05 -2.329025E+04  3.273809E+04
       327   5 -1.731722E+06 -2.952654E+05 -7.032648E+03 -7.185782E+05 -1.741792E+04  2.774881E+04
       327   6 -1.723440E+06 -3.038618E+05 -3.961559E+03 -7.284112E+05 -1.149972E+04  2.262971E+04
       327   7 -1.224561E+06 -1.223118E+05  8.745906E+04 -5.906177E+05 -3.197188E+04  2.947730E+04
       327   8 -1.318406E+06 -1.446218E+05  7.609542E+04 -6.044761E+05 -2.627594E+04  2.442373E+04
       327   9 -1.395712E+06 -1.843355E+05  6.218125E+04 -6.379169E+05 -2.053467E+04  1.924022E+04
       327  10 -2.222188E+06 -4.858857E+05 -1.130639E+05 -8.659410E+05 -3.823188E-10 -2.583756E-10
       327  11 -2.144859E+06 -4.458949E+05 -9.017019E+04 -8.326093E+05  3.828358E-10 -3.646822E-10
       327  12 -2.051058E+06 -4.233795E+05 -7.011058E+04 -8.188612E+05  3.741867E-10  7.970415E-11
       327  13 -1.723506E+06 -3.041107E+05 -1.279872E+04 -7.283308E+05  6.314834E-10 -4.940470E-10
       327  14 -1.731722E+06 -2.952663E+05 -7.034664E+03 -7.185778E+05 -1.474053E-10 -3.823666E-10
       327  15 -1.723441E+06 -3.038623E+05 -3.962769E+03 -7.284110E+05 -5.598550E-10 -2.290465E-10
       327  16 -1.224562E+06 -1.223130E+05  8.745551E+04 -5.906169E+05  1.557509E-10 -6.395788E-10
       327  17 -1.318407E+06 -1.446226E+05  7.609300E+04 -6.044756E+05  1.853696E-10 -1.967793E-10
       327  18 -1.395712E+06 -1.843360E+05  6.217977E+04 -6.379166E+05 -2.341735E-10 -2.272841E-10
       327  19 -2.222187E+06 -4.858843E+05 -1.130611E+05 -8.659415E+05  1.461621E+04 -3.599605E+04
       327  20 -2.144859E+06 -4.458938E+05 -9.016824E+04 -8.326095E+05  8.566285E+03 -3.107151E+04
       327  21 -2.051058E+06 -4.233788E+05 -7.010930E+04 -8.188612E+05  2.469911E+03 -2.601728E+04
       327  22 -1.723505E+06 -3.041094E+05 -1.279569E+04 -7.283314E+05  2.329025E+04 -3.273809E+04
       327  23 -1.731722E+06 -2.952654E+05 -7.032648E+03 -7.185782E+05  1.741792E+04 -2.774881E+04
       327  24 -1.723440E+06 -3.038618E+05 -3.961559E+03 -7.284112E+05  1.149972E+04 -2.262971E+04
       327  25 -1.224561E+06 -1.223118E+05  8.745906E+04 -5.906177E+05  3.197188E+04 -2.947730E+04
       327  26 -1.318406E+06 -1.446218E+05  7.609542E+04 -6.044761E+05  2.627594E+04 -2.442373E+04
       327  27 -1.395712E+06 -1.843355E+05  6.218125E+04 -6.379169E+05  2.053467E+04 -1.924022E+04
       328   1 -1.992225E+06 -4.019312E+05 -5.687938E+04 -8.026970E+05 -4.776250E+02  2.244624E+04
       328   2 -1.914769E+06 -3.620547E+05 -3.868492E+04 -7.691192E+05  2.923367E+03  1.630757E+04
       328   3 -1.820298E+06 -3.393440E+05 -2.121077E+04 -7.552027E+05  6.328491E+03  1.015459E+04
       328   4 -1.723331E+06 -3.038853E+05 -3.045774E+03 -7.283930E+05 -9.499088E+03  1.906266E+04
       328   5 -1.731831E+06 -2.953059E+05 -1.895983E+03 -7.185580E+05 -6.117990E+03  1.291742E+04
       328   6 -1.723320E+06 -3.038889E+05 -1.450718E+03 -7.283870E+05 -2.732890E+03  6.757802E+03
       328   7 -1.454364E+06 -2.058339E+05  5.078410E+04 -6.540598E+05 -1.852469E+04  1.567754E+04
       328   8 -1.548858E+06 -2.285542E+05  3.489167E+04 -6.679829E+05 -1.516222E+04  9.526190E+03
       328   9 -1.626332E+06 -2.684327E+05  1.830943E+04 -7.015671E+05 -1.179587E+04  3.360412E+03
       328  10 -1.992225E+06 -4.019317E+05 -5.688033E+04 -8.026970E+05  6.916399E-10  3.690608E-10
       328  11 -1.914769E+06 -3.620550E+05 -3.868544E+04 -7.691192E+05  8.716082E-10  5.654318E-10
       328  12 -1.820298E+06 -3.393441E+05 -2.121104E+04 -7.552028E+05  6.931373E-10  5.492186E-10
       328  13 -1.723331E+06 -3.038857E+05 -3.046626E+03 -7.283929E+05  9.741703E-11  3.241274E-11
       328  14 -1.731831E+06 -2.953061E+05 -1.896367E+03 -7.185579E+05  6.498114E-10  2.819628E-10
       328  15 -1.723321E+06 -3.038890E+05 -1.450818E+03 -7.283870E+05 -4.624111E-10  8.123376E-11
       328  16 -1.454364E+06 -2.058343E+05  5.078299E+04 -6.540596E+05 -4.656950E-11 -2.690408E-10
       328  17 -1.548859E+06 -2.285544E+05  3.489107E+04 -6.679828E+05 -8.470310E-10 -2.602566E-10
       328  18 -1.626332E+06 -2.684328E+05  1.830914E+04 -7.015671E+05 -4.235045E-10 -1.925119E-10
       328  19 -1.992225E+06 -4.019312E+05 -5.687938E+04 -8.026970E+05  4.776250E+02 -2.244624E+04
       328  20 -1.914769E+06 -3.620547E+05 -3.868492E+04 -7.691192E+05 -2.923367E+03 -1.630757E+04
       328  21 -1.820298E+06 -3.393440E+05 -2.121077E+04 -7.552027E+05 -6.328491E+03 -1.015459E+04
       328  22 -1.723331E+06 -3.038853E+05 -3.045774E+03 -7.283930E+05  9.499088E+03 -1.906266E+04
       328  23 -1.731831E+06 -2.953059E+05 -1.895983E+03 -7.185580E+05  6.117990E+03 -1.291742E+04
       328  24 -1.723320E+06 -3.038889E+05 -1.450718E+03 -7.283870E+05  2.732890E+03 -6.757802E+03
       328  25 -1.454364E+06 -2.058339E+05  5.078410E+04 -6.540598E+05  1.852469E+04 -1.567754E+04
       328  26 -1.548858E+06 -2.285542E+05  3.489167E+04 -6.679829E+05  1.516222E+04 -9.526190E+03
       328  27 -1.626332E+06 -2.684327E+05  1.830943E+04 -7.015671E+05  1.179587E+04 -3.360412E+03
       329   1 -1.761415E+06 -3.177721E+05 -8.838614E+03 -7.389643E+05  7.994989E+03  6.449455E+03
       329   2 -1.683860E+06 -2.778462E+05  7.866163E+03 -7.053525E+05  1.131121E+04  2.584080E+02
       329   3 -1.589267E+06 -2.550967E+05  2.391778E+04 -6.914240E+05  1.462489E+04 -5.924940E+03
       329   4 -1.723314E+06 -3.038913E+05 -1.429342E+03 -7.283915E+05 -1.069708E+03  3.051606E+03
       329   5 -1.731829E+06 -2.952919E+05 -1.773571E+03 -7.185529E+05  2.256472E+03 -3.135938E+03
       329   6 -1.723315E+06 -3.038716E+05 -2.778960E+03 -7.284007E+05  5.579972E+03 -9.315801E+03
       329   7 -1.685212E+06 -2.900102E+05  5.980215E+03 -7.178181E+05 -1.013500E+04 -3.464674E+02
       329   8 -1.779795E+06 -3.127373E+05 -1.141301E+04 -7.317523E+05 -6.797475E+03 -6.529989E+03
       329   9 -1.857344E+06 -3.526444E+05 -2.947589E+04 -7.653695E+05 -3.462776E+03 -1.270585E+04
       329  10 -1.761415E+06 -3.177721E+05 -8.838813E+03 -7.389643E+05 -2.505083E-10  3.857482E-10
       329  11 -1.683860E+06 -2.778463E+05  7.865922E+03 -7.053525E+05  1.211595E-10  2.644672E-10
       329  12 -1.589267E+06 -2.550968E+05  2.391731E+04 -6.914240E+05  1.545861E-10 -7.365690E-11
       329  13 -1.723314E+06 -3.038913E+05 -1.429362E+03 -7.283915E+05 -4.854136E-11  2.150257E-10
       329  14 -1.731829E+06 -2.952919E+05 -1.773599E+03 -7.185529E+05  6.467157E-10  5.719874E-10
       329  15 -1.723315E+06 -3.038717E+05 -2.779182E+03 -7.284006E+05  6.476733E-11  1.303382E-11
       329  16 -1.685212E+06 -2.900103E+05  5.980021E+03 -7.178181E+05  8.828125E-11  4.952781E-10
       329  17 -1.779795E+06 -3.127373E+05 -1.141318E+04 -7.317523E+05 -2.383777E-10  2.427488E-10
       329  18 -1.857344E+06 -3.526446E+05 -2.947622E+04 -7.653696E+05 -6.114654E-10 -3.109642E-10
       329  19 -1.761415E+06 -3.177721E+05 -8.838614E+03 -7.389643E+05 -7.994989E+03 -6.449455E+03
       329  20 -1.683860E+06 -2.778462E+05  7.866163E+03 -7.053525E+05 -1.131121E+04 -2.584080E+02
       329  21 -1.589267E+06 -2.550967E+05  2.391778E+04 -6.914240E+05 -1.462489E+04  5.924940E+03
       329  22 -1.723314E+06 -3.038913E+05 -1.429342E+03 -7.283915E+05  1.069708E+03 -3.051606E+03
       329  23 -1.731829E+06 -2.952919E+05 -1.773571E+03 -7.185529E+05 -2.256472E+03  3.135938E+03
       329  24 -1.723315E+06 -3.038716E+05 -2.778960E+03 -7.284007E+05 -5.579972E+03  9.315801E+03
       329  25 -1.685212E+06 -2.900102E+05  5.980215E+03 -7.178181E+05  1.013500E+04  3.464674E+02
       329  26 -1.779795E+06 -3.127373E+05 -1.141301E+04 -7.317523E+05  6.797475E+03  6.529989E+03
       329  27 -1.857344E+06 -3.526444E+05 -2.947589E+04 -7.653695E+05  3.462776E+03  1.270585E+04
       330   1 -1.530464E+06 -2.335547E+05  3.544514E+04 -6.752530E+05  1.658833E+04 -9.515327E+03
       330   2 -1.452906E+06 -1.937170E+05  4.973372E+04 -6.417174E+05  2.202370E+04 -1.484541E+04
       330   3 -1.358724E+06 -1.713035E+05  6.170891E+04 -6.278297E+05  2.742043E+04 -2.006597E+04
       330   4 -1.723406E+06 -3.038537E+05 -3.594575E+03 -7.284244E+05  7.530855E+03 -1.291136E+04
       330   5 -1.731724E+06 -2.952299E+05 -6.344676E+03 -7.185636E+05  1.311568E+04 -1.818676E+04
       330   6 -1.723456E+06 -3.040624E+05 -1.152840E+04 -7.283552E+05  1.866140E+04 -2.335274E+04
       330   7 -1.916312E+06 -3.741501E+05 -4.263623E+04 -7.815810E+05 -1.523667E+03 -1.630630E+04
       330   8 -2.010462E+06 -3.967366E+05 -6.242687E+04 -7.953782E+05  4.211926E+03 -2.152652E+04
       330   9 -2.088050E+06 -4.368100E+05 -8.477188E+04 -8.288260E+05  9.907901E+03 -2.663746E+04
       330  10 -1.530464E+06 -2.335549E+05  3.544445E+04 -6.752529E+05  1.276169E-10 -2.394163E-11
       330  11 -1.452907E+06 -1.937174E+05  4.973239E+04 -6.417171E+05  1.343161E-10  1.264707E-10
       330  12 -1.358725E+06 -1.713042E+05  6.170674E+04 -6.278292E+05 -5.595432E-10 -4.133179E-10
       330  13 -1.723406E+06 -3.038539E+05 -3.594995E+03 -7.284244E+05  1.655732E-10 -1.387708E-10
       330  14 -1.731724E+06 -2.952303E+05 -6.345620E+03 -7.185634E+05  1.560792E-09  4.816329E-10
       330  15 -1.723456E+06 -3.040630E+05 -1.153007E+04 -7.283548E+05 -3.411468E-10 -3.770199E-10
       330  16 -1.916312E+06 -3.741504E+05 -4.263674E+04 -7.815810E+05  4.816592E-10  4.480889E-11
       330  17 -2.010462E+06 -3.967371E+05 -6.242777E+04 -7.953781E+05  6.176619E-10  5.111105E-11
       330  18 -2.088050E+06 -4.368107E+05 -8.477340E+04 -8.288258E+05  4.389120E-10 -1.496924E-10
       330  19 -1.530464E+06 -2.335547E+05  3.544514E+04 -6.752530E+05 -1.658833E+04  9.515327E+03
       330  20 -1.452906E+06 -1.937170E+05  4.973372E+04 -6.417174E+05 -2.202370E+04  1.484541E+04
       330  21 -1.358724E+06 -1.713035E+05  6.170891E+04 -6.278297E+05 -2.742043E+04  2.006597E+04
       330  22 -1.723406E+06 -3.038537E+05 -3.594575E+03 -7.284244E+05 -7.530855E+03  1.291136E+04
       330  23 -1.731724E+06 -2.952299E+05 -6.344676E+03 -7.185636E+05 -1.311568E+04  1.818676E+04
       330  24 -1.723456E+06 -3.040624E+05 -1.152840E+04 -7.283552E+05 -1.866140E+04  2.335274E+04
       330  25 -1.916312E+06 -3.741501E+05 -4.263623E+04 -7.815810E+05  1.523667E+03  1.630630E+04
       330  26 -2.010462E+06 -3.967366E+05 -6.242687E+04 -7.953782E+05 -4.211926E+03  2.152652E+04
       330  27 -2.088050E+06 -4.368100E+05 -8.477188E+04 -8.288260E+05 -9.907901E+03  2.663746E+04
       331   1 -1.299908E+06 -1.502739E+05  7.021750E+04 -6.129557E+05  3.127272E+04 -2.293614E+04
       331   2 -1.223425E+06 -1.096998E+05  7.521442E+04 -5.767449E+05  4.536206E+04 -2.420006E+04
       331   3 -1.133994E+06 -9.282076E+04  6.954008E+04 -5.586917E+05  5.888697E+04 -2.394821E+04
       331   4 -1.724109E+06 -3.036920E+05 -1.531060E+04 -7.287231E+05  2.222885E+04 -2.633081E+04
       331   5 -1.731007E+06 -2.959937E+05 -2.789117E+04 -7.180170E+05  3.841302E+04 -2.681105E+04
       331   6 -1.725385E+06 -3.124126E+05 -5.281375E+04 -7.254724E+05  5.403088E+04 -2.577558E+04
       331   7 -2.148121E+06 -4.570942E+05 -1.008463E+05 -8.444168E+05  1.319170E+04 -2.972302E+04
       331   8 -2.238324E+06 -4.822651E+05 -1.310095E+05 -8.591819E+05  3.147009E+04 -2.941973E+04
       331   9 -2.316421E+06 -5.319741E+05 -1.751872E+05 -8.921065E+05  4.917972E+04 -2.760104E+04
       331  10 -1.299909E+06 -1.502747E+05  7.021467E+04 -6.129551E+05 -3.646604E-10 -6.558234E-10
       331  11 -1.223427E+06 -1.097010E+05  7.520945E+04 -5.767441E+05 -4.837455E-10  3.733519E-11
       331  12 -1.133998E+06 -9.282230E+04  6.953248E+04 -5.586906E+05  5.163214E-10  4.775745E-10
       331  13 -1.724110E+06 -3.036928E+05 -1.531283E+04 -7.287227E+05 -1.192320E-10 -1.972322E-10
       331  14 -1.731009E+06 -2.959949E+05 -2.789530E+04 -7.180162E+05 -8.479859E-10  6.361313E-11
       331  15 -1.725388E+06 -3.124140E+05 -5.282049E+04 -7.254713E+05  6.649864E-10 -2.028805E-10
       331  16 -2.148121E+06 -4.570952E+05 -1.008483E+05 -8.444165E+05  1.418209E-09  2.924592E-10
       331  17 -2.238325E+06 -4.822663E+05 -1.310130E+05 -8.591812E+05 -8.964047E-11  1.119838E-10
       331  18 -2.316424E+06 -5.319755E+05 -1.751932E+05 -8.921054E+05 -1.120529E-09 -4.482950E-10
       331  19 -1.299908E+06 -1.502739E+05  7.021750E+04 -6.129557E+05 -3.127272E+04  2.293614E+04
       331  20 -1.223425E+06 -1.096998E+05  7.521442E+04 -5.767449E+05 -4.536206E+04  2.420006E+04
       331  21 -1.133994E+06 -9.282076E+04  6.954008E+04 -5.586917E+05 -5.888697E+04  2.394821E+04
       331  22 -1.724109E+06 -3.036920E+05 -1.531060E+04 -7.287231E+05 -2.222885E+04  2.633081E+04
       331  23 -1.731007E+06 -2.959937E+05 -2.789117E+04 -7.180170E+05 -3.841302E+04  2.681105E+04
       331  24 -1.725385E+06 -3.124126E+05 -5.281375E+04 -7.254724E+05 -5.403088E+04  2.577558E+04
       331  25 -2.148121E+06 -4.570942E+05 -1.008463E+05 -8.444168E+05 -1.319170E+04  2.972302E+04
       331  26 -2.238324E+06 -4.822651E+05 -1.310095E+05 -8.591819E+05 -3.147009E+04  2.941973E+04
       331  27 -2.316421E+06 -5.319741E+05 -1.751872E+05 -8.921065E+05 -4.917972E+04  2.760104E+04
       332   1 -1.065566E+06 -8.061161E+04  6.563631E+04 -5.699753E+05  7.288652E+04 -2.311451E+04
       332   2 -1.028529E+06 -1.500617E+04  3.313096E+04 -4.537011E+05  1.073020E+05 -4.882566E+03
       332   3 -1.038527E+06 -1.197356E+05 -6.865858E+04 -3.152544E+05  1.331630E+05  3.612440E+04
       332   4 -1.734024E+06 -3.038258E+05 -6.902621E+04 -7.324752E+05  6.346203E+04 -2.665590E+04
       332   5 -1.723052E+06 -3.259620E+05 -1.289025E+05 -7.021052E+05  1.294876E+05  3.437844E+03
       332   6 -1.765484E+06 -5.248536E+05 -2.832197E+05 -6.495530E+05  1.869466E+05  5.630576E+04
       332   7 -2.402027E+06 -5.270219E+05 -2.037112E+05 -8.948222E+05  5.404842E+04 -3.019405E+04
       332   8 -2.417062E+06 -6.368042E+05 -2.909622E+05 -9.502263E+05  1.516461E+05  1.174307E+04
       332   9 -2.491847E+06 -9.296975E+05 -4.978069E+05 -9.834201E+05  2.406596E+05  7.643171E+04
       332  10 -1.065572E+06 -8.061361E+04  6.562531E+04 -5.699739E+05 -6.487119E-10  2.096428E-10
       332  11 -1.028542E+06 -1.500929E+04  3.310924E+04 -4.537007E+05 -8.754513E-11  9.305683E-10
       332  12 -1.038546E+06 -1.197418E+05 -6.869442E+04 -3.152583E+05  9.957677E-10  5.945467E-10
       332  13 -1.734028E+06 -3.038276E+05 -6.903512E+04 -7.324738E+05  4.378055E-11 -3.294216E-11
       332  14 -1.723070E+06 -3.259665E+05 -1.289341E+05 -7.021056E+05  1.001158E-11  7.524174E-10
       332  15 -1.765523E+06 -5.248664E+05 -2.832916E+05 -6.495615E+05  8.622539E-11  2.267189E-10
       332  16 -2.402030E+06 -5.270237E+05 -2.037184E+05 -8.948209E+05  7.335749E-10  1.517256E-10
       332  17 -2.417087E+06 -6.368105E+05 -2.910058E+05 -9.502277E+05 -8.939817E-10  8.140978E-10
       332  18 -2.491911E+06 -9.297194E+05 -4.979273E+05 -9.834349E+05 -2.058831E-09  2.442521E-10
       332  19 -1.065566E+06 -8.061161E+04  6.563631E+04 -5.699753E+05 -7.288652E+04  2.311451E+04
       332  20 -1.028529E+06 -1.500617E+04  3.313096E+04 -4.537011E+05 -1.073020E+05  4.882566E+03
       332  21 -1.038527E+06 -1.197356E+05 -6.865858E+04 -3.152544E+05 -1.331630E+05 -3.612440E+04
       332  22 -1.734024E+06 -3.038258E+05 -6.902621E+04 -7.324752E+05 -6.346203E+04  2.665590E+04
       332  23 -1.723052E+06 -3.259620E+05 -1.289025E+05 -7.021052E+05 -1.294876E+05 -3.437844E+03
       332  24 -1.765484E+06 -5.248536E+05 -2.832197E+05 -6.495530E+05 -1.869466E+05 -5.630576E+04
       332  25 -2.402027E+06 -5.270219E+05 -2.037112E+05 -8.948222E+05 -5.404842E+04  3.019405E+04
       332  26 -2.417062E+06 -6.368042E+05 -2.909622E+05 -9.502263E+05 -1.516461E+05 -1.174307E+04
       332  27 -2.491847E+06 -9.296975E+05 -4.978069E+05 -9.834201E+05 -2.406596E+05 -7.643171E+04
       333   1 -3.098013E+04 -1.568767E+04  2.736050E+04  3.624061E+04  1.257221E+05  1.085087E+04
       333   2  2.827976E+04 -1.816413E+05 -6.163381E+04 -5.185749E+03  9.068295E+04  3.343813E+04
       333   3  1.368237E+05 -1.699338E+05 -8.334186E+04 -8.047715E+04  5.566339E+04  3.430607E+04
       333   4  7.950943E+05  1.891817E+05  2.273952E+05 -5.309164E+04  1.564158E+05  1.086857E+04
       333   5  7.688219E+05 -6.194760E+02  1.036044E+05 -3.606029E+04  1.015022E+05  3.344116E+04
       333   6  7.952015E+05 -9.440581E+03  6.082842E+04 -5.288687E+04  4.661489E+04  3.429945E+04
       333   7  1.621811E+06  3.940318E+05  4.273887E+05 -1.425433E+05  1.871500E+05  1.087744E+04
       333   8  1.509877E+06  1.803688E+05  2.688091E+05 -6.697216E+04  1.123342E+05  3.344312E+04
       333   9  1.453987E+06  1.510266E+05  2.049731E+05 -2.526703E+04  3.755689E+04  3.429202E+04
       333  10 -3.099713E+04 -1.569204E+04  2.733057E+04  3.623951E+04  1.181547E-09 -1.300792E-09
       333  11  2.827063E+04 -1.816447E+05 -6.165137E+04 -5.188192E+03 -1.145245E-09  4.664343E-10
       333  12  1.368200E+05 -1.699359E+05 -8.334989E+04 -8.047868E+04 -3.431952E-09  9.494038E-11
       333  13  7.950680E+05  1.891750E+05  2.273491E+05 -5.309301E+04  7.965152E-10  8.200798E-10
       333  14  7.688106E+05 -6.234388E+02  1.035829E+05 -3.606303E+04  2.707610E-10  4.372028E-11
       333  15  7.951989E+05 -9.442427E+03  6.082213E+04 -5.288816E+04 -9.418320E-10 -1.446486E-10
       333  16  1.621774E+06  3.940223E+05  4.273228E+05 -1.425449E+05 -1.596717E-09  7.415927E-10
       333  17  1.509863E+06  1.803642E+05  2.687834E+05 -6.697518E+04  1.214499E-09  2.468016E-10
       333  18  1.453985E+06  1.510249E+05  2.049683E+05 -2.526807E+04  4.161891E-09  2.024731E-09
       333  19 -3.098013E+04 -1.568767E+04  2.736050E+04  3.624061E+04 -1.257221E+05 -1.085087E+04
       333  20  2.827976E+04 -1.816413E+05 -6.163381E+04 -5.185749E+03 -9.068295E+04 -3.343813E+04
       333  21  1.368237E+05 -1.699338E+05 -8.334186E+04 -8.047715E+04 -5.566339E+04 -3.430607E+04
       333  22  7.950943E+05  1.891817E+05  2.273952E+05 -5.309164E+04 -1.564158E+05 -1.086857E+04
       333  23  7.688219E+05 -6.194760E+02  1.036044E+05 -3.606029E+04 -1.015022E+05 -3.344116E+04
       333  24  7.952015E+05 -9.440581E+03  6.082842E+04 -5.288687E+04 -4.661489E+04 -3.429945E+04
       333  25  1.621811E+06  3.940318E+05  4.273887E+05 -1.425433E+05 -1.871500E+05 -1.087744E+04
       333  26  1.509877E+06  1.803688E+05  2.688091E+05 -6.697216E+04 -1.123342E+05 -3.344312E+04
       333  27  1.453987E+06  1.510266E+05  2.049731E+05 -2.526703E+04 -3.755689E+04 -3.429202E+04
       334   1  1.944269E+05 -1.336781E+05 -8.149892E+04 -4.971212E+04  4.069625E+04  2.964809E+04
       334   2  2.751043E+05 -1.240293E+05 -8.505315E+04 -3.524366E+04  2.845698E+04  2.615889E+04
       334   3  3.600809E+05 -1.041267E+05 -7.804517E+04 -5.508732E+04  1.621406E+04  2.171055E+04
       334   4  7.844939E+05  1.023817E+04  4.834684E+04 -5.304239E+04  3.798131E+04  2.964421E+04
       334   5  7.822898E+05 -4.106565E+02  2.614440E+04 -3.588494E+04  2.485543E+04  2.615574E+04
       334   6  7.845272E+05 -6.573064E+02  1.511150E+04 -5.303750E+04  1.172750E+04  2.170840E+04
       334   7  1.374886E+06  1.541312E+05  1.781713E+05 -5.637591E+04  3.526381E+04  2.964036E+04
       334   8  1.289716E+06  1.231908E+05  1.373264E+05 -3.652677E+04  2.125097E+04  2.615259E+04
       334   9  1.209142E+06  1.028000E+05  1.082573E+05 -5.098627E+04  7.237906E+03  2.170623E+04
       334  10  1.944249E+05 -1.336795E+05 -8.150369E+04 -4.971309E+04  2.681323E-10  2.584315E-10
       334  11  2.751032E+05 -1.240302E+05 -8.505595E+04 -3.524426E+04 -3.348412E-10  2.802614E-10
       334  12  3.600805E+05 -1.041272E+05 -7.804655E+04 -5.508760E+04 -2.344194E-09 -1.199829E-10
       334  13  7.844921E+05  1.023684E+04  4.834248E+04 -5.304330E+04 -2.671441E-10  1.689083E-09
       334  14  7.822890E+05 -4.115570E+02  2.614195E+04 -3.588546E+04 -1.176481E-10  7.531691E-10
       334  15  7.845269E+05 -6.578495E+02  1.511036E+04 -5.303770E+04 -1.503062E-09 -6.975902E-10
       334  16  1.374885E+06  1.541299E+05  1.781674E+05 -5.637675E+04 -3.385156E-10  1.419279E-09
       334  17  1.289715E+06  1.231899E+05  1.373242E+05 -3.652722E+04 -4.082284E-10  3.167004E-10
       334  18  1.209142E+06  1.027995E+05  1.082563E+05 -5.098639E+04  2.291718E-09 -4.898475E-10
       334  19  1.944269E+05 -1.336781E+05 -8.149892E+04 -4.971212E+04 -4.069625E+04 -2.964809E+04
       334  20  2.751043E+05 -1.240293E+05 -8.505315E+04 -3.524366E+04 -2.845698E+04 -2.615889E+04
       334  21  3.600809E+05 -1.041267E+05 -7.804517E+04 -5.508732E+04 -1.621406E+04 -2.171055E+04
       334  22  7.844939E+05  1.023817E+04  4.834684E+04 -5.304239E+04 -3.798131E+04 -2.964421E+04
       334  23  7.822898E+05 -4.106565E+02  2.614440E+04 -3.588494E+04 -2.485543E+04 -2.615574E+04
       334  24  7.845272E+05 -6.573064E+02  1.511150E+04 -5.303750E+04 -1.172750E+04 -2.170840E+04
       334  25  1.374886E+06  1.541312E+05  1.781713E+05 -5.637591E+04 -3.526381E+04 -2.964036E+04
       334  26  1.289716E+06  1.231908E+05  1.373264E+05 -3.652677E+04 -2.125097E+04 -2.615259E+04
       334  27  1.209142E+06  1.028000E+05  1.082573E+05 -5.098627E+04 -7.237906E+03 -2.170623E+04
       335   1  4.266433E+05 -8.653412E+04 -6.639816E+04 -5.323862E+04  1.357212E+04  1.889844E+04
       335   2  5.086854E+05 -6.705009E+04 -5.357428E+04 -3.615142E+04  1.034827E+04  1.427631E+04
       335   3  5.913432E+05 -4.697162E+04 -3.849474E+04 -5.321245E+04  7.122430E+03  9.617150E+03
       335   4  7.836886E+05  4.243699E+02  1.158394E+04 -5.300278E+04  9.375258E+03  1.889692E+04
       335   5  7.833881E+05 -1.183509E+02  6.576279E+03 -3.592914E+04  6.115645E+03  1.427545E+04
       335   6  7.837036E+05 -6.011901E+01  3.848418E+03 -5.300281E+04  2.854469E+03  9.616978E+03
       335   7  1.140853E+06  8.737439E+04  8.955840E+04 -5.276680E+04  5.176008E+03  1.889540E+04
       335   8  1.058161E+06  6.680837E+04  6.672234E+04 -3.570676E+04  1.881174E+03  1.427459E+04
       335   9  9.760985E+05  4.684891E+04  4.618938E+04 -5.279312E+04 -1.414797E+03  9.616804E+03
       335  10  4.266430E+05 -8.653455E+04 -6.639917E+04 -5.323883E+04 -1.006967E-08 -5.349362E-10
       335  11  5.086852E+05 -6.705034E+04 -5.357487E+04 -3.615154E+04 -4.473840E-10 -1.306789E-09
       335  12  5.913431E+05 -4.697173E+04 -3.849501E+04 -5.321250E+04  9.639579E-09 -7.027483E-10
       335  13  7.836884E+05  4.239628E+02  1.158310E+04 -5.300292E+04 -3.337801E-10 -6.498030E-10
       335  14  7.833880E+05 -1.185799E+02  6.575826E+03 -3.592921E+04 -8.090349E-10 -8.005346E-10
       335  15  7.837035E+05 -6.022055E+01  3.848229E+03 -5.300284E+04  2.087578E-10 -5.751773E-10
       335  16  1.140853E+06  8.737400E+04  8.955768E+04 -5.276687E+04  9.856539E-09 -7.626774E-10
       335  17  1.058161E+06  6.680815E+04  6.672195E+04 -3.570678E+04  1.753925E-10 -8.869655E-10
       335  18  9.760985E+05  4.684881E+04  4.618920E+04 -5.279310E+04 -9.968736E-09 -4.400246E-10
       335  19  4.266433E+05 -8.653412E+04 -6.639816E+04 -5.323862E+04 -1.357212E+04 -1.889844E+04
       335  20  5.086854E+05 -6.705009E+04 -5.357428E+04 -3.615142E+04 -1.034827E+04 -1.427631E+04
       335  21  5.913432E+05 -4.697162E+04 -3.849474E+04 -5.321245E+04 -7.122430E+03 -9.617150E+03
       335  22  7.836886E+05  4.243699E+02  1.158394E+04 -5.300278E+04 -9.375258E+03 -1.889692E+04
       335  23  7.833881E+05 -1.183509E+02  6.576279E+03 -3.592914E+04 -6.115645E+03 -1.427545E+04
       335  24  7.837036E+05 -6.011901E+01  3.848418E+03 -5.300281E+04 -2.854469E+03 -9.616978E+03
       335  25  1.140853E+06  8.737439E+04  8.955840E+04 -5.276680E+04 -5.176008E+03 -1.889540E+04
       335  26  1.058161E+06  6.680837E+04  6.672234E+04 -3.570676E+04 -1.881174E+03 -1.427459E+04
       335  27  9.760985E+05  4.684891E+04  4.618938E+04 -5.279312E+04  1.414797E+03 -9.616804E+03
       336   1  6.583647E+05 -3.047333E+04 -2.421305E+04 -5.308877E+04  6.490560E+03  6.898660E+03
       336   2  7.404621E+05 -1.052008E+04 -7.584246E+03 -3.601167E+04  5.579553E+03  2.239061E+03
       336   3  8.226987E+05  9.467435E+03  9.646287E+03 -5.300619E+04  4.668158E+03 -2.421443E+03
       336   4  7.836008E+05 -8.635850E+00  2.974546E+03 -5.298598E+04  2.238105E+03  6.898732E+03
       336   5  7.835361E+05 -2.663953E+01  1.845478E+03 -3.595025E+04  1.325817E+03  2.239227E+03
       336   6  7.836032E+05 -1.011791E+01  1.318740E+03 -5.298601E+04  4.132586E+02 -2.421158E+03
       336   7  9.088517E+05  3.045503E+04  3.016128E+04 -5.288318E+04 -2.015195E+03  6.898803E+03
       336   8  8.266120E+05  1.046669E+04  1.127516E+04 -3.588883E+04 -2.928210E+03  2.239392E+03
       336   9  7.445092E+05 -9.487761E+03 -7.008827E+03 -5.296582E+04 -3.841377E+03 -2.420874E+03
       336  10  6.583646E+05 -3.047339E+04 -2.421322E+04 -5.308880E+04  8.399469E-10 -7.970950E-11
       336  11  7.404620E+05 -1.052009E+04 -7.584313E+03 -3.601168E+04 -4.596715E-10  3.699412E-10
       336  12  8.226987E+05  9.467423E+03  9.646235E+03 -5.300618E+04 -8.055324E-10  4.713070E-10
       336  13  7.836008E+05 -8.688320E+00  2.974447E+03 -5.298599E+04 -1.659914E-15 -1.527942E-11
       336  14  7.835361E+05 -2.664539E+01  1.845465E+03 -3.595026E+04 -1.210419E-09  6.537528E-10
       336  15  7.836032E+05 -1.012425E+01  1.318729E+03 -5.298600E+04 -1.891784E-09  9.239756E-11
       336  16  9.088517E+05  3.045498E+04  3.016118E+04 -5.288316E+04 -5.206647E-10  2.552664E-10
       336  17  8.266120E+05  1.046668E+04  1.127513E+04 -3.588883E+04 -1.303985E-09  9.855449E-10
       336  18  7.445092E+05 -9.487771E+03 -7.008866E+03 -5.296583E+04 -4.270769E-10  9.142866E-11
       336  19  6.583647E+05 -3.047333E+04 -2.421305E+04 -5.308877E+04 -6.490560E+03 -6.898660E+03
       336  20  7.404621E+05 -1.052008E+04 -7.584246E+03 -3.601167E+04 -5.579553E+03 -2.239061E+03
       336  21  8.226987E+05  9.467435E+03  9.646287E+03 -5.300619E+04 -4.668158E+03  2.421443E+03
       336  22  7.836008E+05 -8.635850E+00  2.974546E+03 -5.298598E+04 -2.238105E+03 -6.898732E+03
       336  23  7.835361E+05 -2.663953E+01  1.845478E+03 -3.595025E+04 -1.325817E+03 -2.239227E+03
       336  24  7.836032E+05 -1.011791E+01  1.318740E+03 -5.298601E+04 -4.132586E+02  2.421158E+03
       336  25  9.088517E+05  3.045503E+04  3.016128E+04 -5.288318E+04  2.015195E+03 -6.898803E+03
       336  26  8.266120E+05  1.046669E+04  1.127516E+04 -3.588883E+04  2.928210E+03 -2.239392E+03
       336  27  7.445092E+05 -9.487761E+03 -7.008827E+03 -5.296582E+04  3.841377E+03  2.420874E+03
       337   1  8.897849E+05  2.590176E+04  2.469020E+04 -5.300828E+04  4.439395E+03 -5.134331E+03
       337   2  9.719960E+05  4.587478E+04  4.253697E+04 -3.591120E+04  3.805561E+03 -9.797553E+03
       337   3  1.054321E+06  6.586283E+04  6.080340E+04 -5.292168E+04  3.172769E+03 -1.446306E+04
       337   4  7.835958E+05 -1.088183E+01  1.216235E+03 -5.299416E+04  1.827098E+02 -5.134158E+03
       337   5  7.835371E+05 -2.982033E+01  1.286257E+03 -3.594007E+04 -4.533160E+02 -9.797860E+03
       337   6  7.835866E+05 -3.293085E+01  1.777748E+03 -5.299415E+04 -1.088217E+03 -1.446382E+04
       337   7  6.774173E+05 -2.592427E+04 -2.225836E+04 -5.298005E+04 -4.073257E+03 -5.133986E+03
       337   8  5.951115E+05 -4.593678E+04 -3.996654E+04 -3.596892E+04 -4.710917E+03 -9.798167E+03
       337   9  5.129206E+05 -6.593355E+04 -5.725225E+04 -5.306659E+04 -5.347370E+03 -1.446458E+04
       337  10  8.897848E+05  2.590173E+04  2.469012E+04 -5.300826E+04 -9.634132E-10  2.382412E-10
       337  11  9.719959E+05  4.587467E+04  4.253677E+04 -3.591117E+04 -1.106972E-09  1.461389E-10
       337  12  1.054321E+06  6.586260E+04  6.080299E+04 -5.292164E+04 -1.113140E-09  3.855629E-10
       337  13  7.835958E+05 -1.091015E+01  1.216186E+03 -5.299416E+04 -1.049925E-09  1.405016E-11
       337  14  7.835371E+05 -2.992351E+01  1.286076E+03 -3.594007E+04  2.738539E-11  4.134221E-11
       337  15  7.835866E+05 -3.315590E+01  1.777352E+03 -5.299417E+04 -2.049284E-10  3.457549E-10
       337  16  6.774173E+05 -2.592431E+04 -2.225844E+04 -5.298006E+04  3.521556E-11 -2.276542E-10
       337  17  5.951115E+05 -4.593689E+04 -3.996677E+04 -3.596895E+04 -3.949890E-10 -1.735110E-10
       337  18  5.129205E+05 -6.593378E+04 -5.725269E+04 -5.306666E+04  2.400478E-10 -6.568067E-11
       337  19  8.897849E+05  2.590176E+04  2.469020E+04 -5.300828E+04 -4.439395E+03  5.134331E+03
       337  20  9.719960E+05  4.587478E+04  4.253697E+04 -3.591120E+04 -3.805561E+03  9.797553E+03
       337  21  1.054321E+06  6.586283E+04  6.080340E+04 -5.292168E+04 -3.172769E+03  1.446306E+04
       337  22  7.835958E+05 -1.088183E+01  1.216235E+03 -5.299416E+04 -1.827098E+02  5.134158E+03
       337  23  7.835371E+05 -2.982033E+01  1.286257E+03 -3.594007E+04  4.533160E+02  9.797860E+03
       337  24  7.835866E+05 -3.293085E+01  1.777748E+03 -5.299415E+04  1.088217E+03  1.446382E+04
       337  25  6.774173E+05 -2.592427E+04 -2.225836E+04 -5.298005E+04  4.073257E+03  5.133986E+03
       337  26  5.951115E+05 -4.593678E+04 -3.996654E+04 -3.596892E+04  4.710917E+03  9.798167E+03
       337  27  5.129206E+05 -6.593355E+04 -5.725225E+04 -5.306659E+04  5.347370E+03  1.446458E+04
       338   1  1.121676E+06  8.231230E+04  7.642606E+04 -5.288351E+04  2.833467E+03 -1.718739E+04
       338   2  1.204118E+06  1.023471E+05  9.570981E+04 -3.569163E+04  9.937294E+02 -2.185639E+04
       338   3  1.286978E+06  1.227017E+05  1.162891E+05 -5.276168E+04 -8.437291E+02 -2.648440E+04
       338   4  7.836436E+05 -6.348234E+01  2.214564E+03 -5.302861E+04 -1.448694E+03 -1.718862E+04
       338   5  7.834299E+05 -1.106631E+02  3.634206E+03 -3.589695E+04 -3.250114E+03 -2.185867E+04
       338   6  7.836223E+05  1.562266E+02  6.324101E+03 -5.302863E+04 -5.049017E+03 -2.648769E+04
       338   7  4.457181E+05 -8.244689E+04 -7.200382E+04 -5.317362E+04 -5.728555E+03 -1.718986E+04
       338   8  3.629073E+05 -1.025803E+05 -8.845205E+04 -3.610213E+04 -7.491122E+03 -2.186096E+04
       338   9  2.805040E+05 -1.224061E+05 -1.036562E+05 -5.329538E+04 -9.250943E+03 -2.649098E+04
       338  10  1.121676E+06  8.231198E+04  7.642549E+04 -5.288348E+04 -6.406200E-10  8.811839E-10
       338  11  1.204118E+06  1.023466E+05  9.570891E+04 -3.569162E+04 -8.073301E-10 -3.450795E-10
       338  12  1.286977E+06  1.227010E+05  1.162878E+05 -5.276169E+04  2.028239E-09 -1.040761E-10
       338  13  7.836435E+05 -6.380029E+01  2.214005E+03 -5.302863E+04 -5.724463E-10  5.462483E-10
       338  14  7.834298E+05 -1.111792E+02  3.633288E+03 -3.589701E+04 -2.828832E-10  1.374854E-10
       338  15  7.836221E+05  1.554661E+02  6.322734E+03 -5.302874E+04  8.173531E-10 -5.037686E-10
       338  16  4.457179E+05 -8.244722E+04 -7.200444E+04 -5.317370E+04  2.455395E-10  1.242885E-11
       338  17  3.629071E+05 -1.025808E+05 -8.845305E+04 -3.610226E+04 -8.146604E-10 -9.337569E-11
       338  18  2.805037E+05 -1.224069E+05 -1.036576E+05 -5.329558E+04 -1.533783E-09 -1.627247E-10
       338  19  1.121676E+06  8.231230E+04  7.642606E+04 -5.288351E+04 -2.833467E+03  1.718739E+04
       338  20  1.204118E+06  1.023471E+05  9.570981E+04 -3.569163E+04 -9.937294E+02  2.185639E+04
       338  21  1.286978E+06  1.227017E+05  1.162891E+05 -5.276168E+04  8.437291E+02  2.648440E+04
       338  22  7.836436E+05 -6.348234E+01  2.214564E+03 -5.302861E+04  1.448694E+03  1.718862E+04
       338  23  7.834299E+05 -1.106631E+02  3.634206E+03 -3.589695E+04  3.250114E+03  2.185867E+04
       338  24  7.836223E+05  1.562266E+02  6.324101E+03 -5.302863E+04  5.049017E+03  2.648769E+04
       338  25  4.457181E+05 -8.244689E+04 -7.200382E+04 -5.317362E+04  5.728555E+03  1.718986E+04
       338  26  3.629073E+05 -1.025803E+05 -8.845205E+04 -3.610213E+04  7.491122E+03  2.186096E+04
       338  27  2.805040E+05 -1.224061E+05 -1.036562E+05 -5.329538E+04  9.250943E+03  2.649098E+04
       339   1  1.355194E+06  1.386889E+05  1.334254E+05 -5.178133E+04 -1.782196E+03 -2.932143E+04
       339   2  1.437156E+06  1.590574E+05  1.575384E+05 -3.589633E+04 -9.938876E+03 -3.374683E+04
       339   3  1.521855E+06  1.852253E+05  1.884515E+05 -5.448949E+04 -1.809422E+04 -3.704746E+04
       339   4  7.840832E+05 -4.343596E+02  8.231307E+03 -5.307552E+04 -6.330660E+03 -2.932573E+04
       339   5  7.827885E+05 -3.198233E+02  1.418832E+04 -3.583768E+04 -1.345308E+04 -3.375206E+04
       339   6  7.840465E+05  5.418601E+03  2.623306E+04 -5.308003E+04 -2.057308E+04 -3.705307E+04
       339   7  2.132766E+05 -1.395793E+05 -1.169825E+05 -5.436853E+04 -1.087500E+04 -2.933002E+04
       339   8  1.288204E+05 -1.597256E+05 -1.291877E+05 -3.577916E+04 -1.696363E+04 -3.375728E+04
       339   9  4.674594E+04 -1.744245E+05 -1.360186E+05 -5.167237E+04 -2.304903E+04 -3.705870E+04
       339  10  1.355194E+06  1.386879E+05  1.334238E+05 -5.178137E+04  9.692130E-10 -3.836153E-10
       339  11  1.437156E+06  1.590562E+05  1.575361E+05 -3.589660E+04  6.647895E-10 -1.131452E-09
       339  12  1.521854E+06  1.852237E+05  1.884483E+05 -5.449003E+04  1.278334E-09 -1.712082E-09
       339  13  7.840829E+05 -4.352942E+02  8.229615E+03 -5.307567E+04  5.052601E-10 -4.926992E-10
       339  14  7.827880E+05 -3.210956E+02  1.418584E+04 -3.583804E+04  5.402187E-13 -6.483583E-10
       339  15  7.840456E+05  5.417013E+03  2.622968E+04 -5.308065E+04 -7.588312E-10 -1.079937E-09
       339  16  2.132763E+05 -1.395803E+05 -1.169844E+05 -5.436879E+04  4.494009E-10 -1.896816E-10
       339  17  1.288198E+05 -1.597269E+05 -1.291904E+05 -3.577962E+04  1.460840E-10  1.855697E-09
       339  18  4.674500E+04 -1.744261E+05 -1.360222E+05 -5.167306E+04 -9.787513E-10 -2.487084E-10
       339  19  1.355194E+06  1.386889E+05  1.334254E+05 -5.178133E+04  1.782196E+03  2.932143E+04
       339  20  1.437156E+06  1.590574E+05  1.575384E+05 -3.589633E+04  9.938876E+03  3.374683E+04
       339  21  1.521855E+06  1.852253E+05  1.884515E+05 -5.448949E+04  1.809422E+04  3.704746E+04
       339  22  7.840832E+05 -4.343596E+02  8.231307E+03 -5.307552E+04  6.330660E+03  2.932573E+04
       339  23  7.827885E+05 -3.198233E+02  1.418832E+04 -3.583768E+04  1.345308E+04  3.375206E+04
       339  24  7.840465E+05  5.418601E+03  2.623306E+04 -5.308003E+04  2.057308E+04  3.705307E+04
       339  25  2.132766E+05 -1.395793E+05 -1.169825E+05 -5.436853E+04  1.087500E+04  2.933002E+04
       339  26  1.288204E+05 -1.597256E+05 -1.291877E+05 -3.577916E+04  1.696363E+04  3.375728E+04
       339  27  4.674594E+04 -1.744245E+05 -1.360186E+05 -5.167237E+04  2.304903E+04  3.705870E+04
       340   1  1.596614E+06  1.911940E+05  2.094684E+05 -3.742839E+04 -1.532636E+04 -4.204098E+04
       340   2  1.664781E+06  2.167013E+05  2.543471E+05 -5.215773E+04 -6.842145E+04 -4.024692E+04
       340   3  1.765773E+06  3.443927E+05  3.593588E+05 -1.007848E+05 -1.215708E+05 -1.296055E+04
       340   4  7.898663E+05 -5.269506E+03  3.300431E+04 -5.290677E+04 -2.525513E+04 -4.205552E+04
       340   5  7.754160E+05 -5.019242E+02  5.617350E+04 -3.603898E+04 -5.501672E+04 -4.023404E+04
       340   6  7.897833E+05  1.024804E+05  1.233400E+05 -5.306606E+04 -8.482357E+04 -1.290928E+04
       340   7 -1.627304E+04 -2.017754E+05 -1.434986E+05 -6.836497E+04 -3.517115E+04 -4.206958E+04
       340   8 -1.132128E+05 -2.177576E+05 -1.420488E+05 -1.994374E+04 -4.163091E+04 -4.022045E+04
       340   9 -1.853305E+05 -1.394920E+05 -1.127408E+05 -5.422754E+03 -4.813373E+04 -1.285233E+04
       340  10  1.596614E+06  1.911920E+05  2.094646E+05 -3.742891E+04  1.473916E-09 -2.628774E-09
       340  11  1.664776E+06  2.166983E+05  2.543353E+05 -5.215995E+04 -1.759867E-09 -5.357753E-09
       340  12  1.765757E+06  3.443886E+05  3.593307E+05 -1.007860E+05 -1.819981E-09 -1.884923E-09
       340  13  7.898652E+05 -5.271577E+03  3.299979E+04 -5.290762E+04  2.637775E-10 -6.316861E-09
       340  14  7.754123E+05 -5.044745E+02  5.616477E+04 -3.604076E+04 -2.488696E-10  1.930143E-09
       340  15  7.897755E+05  1.024783E+05  1.233261E+05 -5.306694E+04 -1.805282E-09 -1.478341E-11
       340  16 -1.627485E+04 -2.017776E+05 -1.435043E+05 -6.836616E+04 -9.971180E-10 -1.740464E-09
       340  17 -1.132151E+05 -2.177598E+05 -1.420551E+05 -1.994509E+04 -7.342492E-10  1.544415E-09
       340  18 -1.853330E+05 -1.394928E+05 -1.127455E+05 -5.423253E+03  1.803873E-09 -1.676670E-09
       340  19  1.596614E+06  1.911940E+05  2.094684E+05 -3.742839E+04  1.532636E+04  4.204098E+04
       340  20  1.664781E+06  2.167013E+05  2.543471E+05 -5.215773E+04  6.842145E+04  4.024692E+04
       340  21  1.765773E+06  3.443927E+05  3.593588E+05 -1.007848E+05  1.215708E+05  1.296055E+04
       340  22  7.898663E+05 -5.269506E+03  3.300431E+04 -5.290677E+04  2.525513E+04  4.205552E+04
       340  23  7.754160E+05 -5.019242E+02  5.617350E+04 -3.603898E+04  5.501672E+04  4.023404E+04
       340  24  7.897833E+05  1.024804E+05  1.233400E+05 -5.306606E+04  8.482357E+04  1.290928E+04
       340  25 -1.627304E+04 -2.017754E+05 -1.434986E+05 -6.836497E+04  3.517115E+04  4.206958E+04
       340  26 -1.132128E+05 -2.177576E+05 -1.420488E+05 -1.994374E+04  4.163091E+04  4.022045E+04
       340  27 -1.853305E+05 -1.394920E+05 -1.127408E+05 -5.422754E+03  4.813373E+04  1.285233E+04
       341   1  8.207602E+05  3.110991E+06  8.166991E+05 -5.731526E+05  3.315267E+04  1.448402E+05
       341   2  5.374243E+05  2.260375E+06  5.309390E+05 -3.812793E+05  9.365506E+04  4.650026E+04
       341   3  3.335329E+05  1.442704E+06  3.287580E+05 -5.307207E+05  6.917259E+04 -5.189986E+04
       341   4  6.725684E+04  7.598342E+04  7.927110E+04 -5.359816E+05  3.340924E+04  5.067667E+04
       341   5  8.955926E+02  6.703939E+04  3.905739E+04 -3.653921E+05  9.373028E+04  3.025766E+04
       341   6  6.910598E+02  7.704756E+04  2.861577E+04 -5.361632E+05  6.893847E+04  9.644732E+03
       341   7 -6.869138E+05 -2.950623E+06 -6.587895E+05 -4.989834E+05  3.365538E+04 -4.303001E+04
       341   8 -5.359604E+05 -2.121828E+06 -4.531279E+05 -3.495567E+05  9.380483E+04  1.407156E+04
       341   9 -3.322734E+05 -1.286859E+06 -2.716261E+05 -5.415911E+05  6.870297E+04  7.105580E+04
       341  10  8.207535E+05  3.110968E+06  8.166578E+05 -5.731565E+05 -4.611794E-10 -2.409944E-09
       341  11  5.374143E+05  2.260370E+06  5.309184E+05 -3.812828E+05 -1.191315E-09  5.595859E-09
       341  12  3.335270E+05  1.442700E+06  3.287440E+05 -5.307178E+05  1.833288E-09  1.128470E-09
       341  13  6.725495E+04  7.598036E+04  7.926417E+04 -5.359829E+05  2.636041E-10 -1.782763E-09
       341  14  8.859104E+02  6.703604E+04  3.903915E+04 -3.653943E+05 -1.658896E-09  1.342847E-09
       341  15  6.859306E+02  7.704618E+04  2.860666E+04 -5.361637E+05  1.129392E-09 -1.240271E-09
       341  16 -6.869156E+05 -2.950625E+06 -6.587951E+05 -4.989822E+05 -1.261935E-09  6.717805E-10
       341  17 -5.359699E+05 -2.121830E+06 -4.531448E+05 -3.495578E+05 -6.051497E-10 -6.497162E-09
       341  18 -3.322798E+05 -1.286866E+06 -2.716445E+05 -5.415951E+05  4.739606E-11 -4.414538E-09
       341  19  8.207602E+05  3.110991E+06  8.166991E+05 -5.731526E+05 -3.315267E+04 -1.448402E+05
       341  20  5.374243E+05  2.260375E+06  5.309390E+05 -3.812793E+05 -9.365506E+04 -4.650026E+04
       341  21  3.335329E+05  1.442704E+06  3.287580E+05 -5.307207E+05 -6.917259E+04  5.189986E+04
       341  22  6.725684E+04  7.598342E+04  7.927110E+04 -5.359816E+05 -3.340924E+04 -5.067667E+04
       341  23  8.955926E+02  6.703939E+04  3.905739E+04 -3.653921E+05 -9.373028E+04 -3.025766E+04
       341  24  6.910598E+02  7.704756E+04  2.861577E+04 -5.361632E+05 -6.893847E+04 -9.644732E+03
       341  25 -6.869138E+05 -2.950623E+06 -6.587895E+05 -4.989834E+05 -3.365538E+04  4.303001E+04
       341  26 -5.359604E+05 -2.121828E+06 -4.531279E+05 -3.495567E+05 -9.380483E+04 -1.407156E+04
       341  27 -3.322734E+05 -1.286859E+06 -2.716261E+05 -5.415911E+05 -6.870297E+04 -7.105580E+04
       342   1  1.737520E+05  7.567296E+05  1.774967E+05 -5.413798E+05  3.379467E+04 -3.297770E+04
       342   2 -3.405892E+04 -7.687097E+04 -5.875678E+03 -3.637754E+05 -7.505175E+03 -4.629487E+04
       342   3 -2.290984E+05 -9.075885E+05 -1.781109E+05 -5.310341E+05 -4.846154E+04 -5.958559E+04
       342   4  7.031346E+03  7.365728E+04  2.679135E+04 -5.368920E+05  3.363823E+04  4.908987E+03
       342   5  2.370008E+03  7.247882E+04  2.689268E+04 -3.644589E+05 -7.655552E+03 -8.742352E+03
       342   6  1.057787E+04  7.358442E+04  3.838622E+04 -5.368775E+05 -4.860811E+04 -2.238442E+04
       342   7 -1.597198E+05 -6.089763E+05 -1.239373E+05 -5.324086E+05  3.348223E+04  4.275451E+04
       342   8  3.879820E+04  2.218525E+05  5.966498E+04 -3.651425E+05 -7.805992E+03  2.881909E+04
       342   9  2.501902E+05  1.055661E+06  2.548294E+05 -5.427291E+05 -4.875524E+04  1.487494E+04
       342  10  1.737505E+05  7.567281E+05  1.774925E+05 -5.413789E+05  8.987497E-10 -4.029411E-09
       342  11 -3.405956E+04 -7.687329E+04 -5.879813E+03 -3.637757E+05  9.249579E-10  4.912601E-09
       342  12 -2.291019E+05 -9.075929E+05 -1.781220E+05 -5.310364E+05 -7.940945E-10 -1.578171E-09
       342  13  7.030124E+03  7.365695E+04  2.678918E+04 -5.368922E+05  9.926865E-10 -3.574313E-09
       342  14  2.369925E+03  7.247872E+04  2.689242E+04 -3.644589E+05  2.594277E-09  1.874079E-09
       342  15  1.057520E+04  7.358325E+04  3.838083E+04 -5.368784E+05  3.534520E-09 -1.316279E-09
       342  16 -1.597215E+05 -6.089786E+05 -1.239429E+05 -5.324098E+05  5.679271E-10  5.107840E-10
       342  17  3.879792E+04  2.218516E+05  5.966330E+04 -3.651423E+05 -1.995173E-09 -6.695701E-09
       342  18  2.501876E+05  1.055660E+06  2.548245E+05 -5.427285E+05 -6.040397E-10 -1.494082E-09
       342  19  1.737520E+05  7.567296E+05  1.774967E+05 -5.413798E+05 -3.379467E+04  3.297770E+04
       342  20 -3.405892E+04 -7.687097E+04 -5.875678E+03 -3.637754E+05  7.505175E+03  4.629487E+04
       342  21 -2.290984E+05 -9.075885E+05 -1.781109E+05 -5.310341E+05  4.846154E+04  5.958559E+04
       342  22  7.031346E+03  7.365728E+04  2.679135E+04 -5.368920E+05 -3.363823E+04 -4.908987E+03
       342  23  2.370008E+03  7.247882E+04  2.689268E+04 -3.644589E+05  7.655552E+03  8.742352E+03
       342  24  1.057787E+04  7.358442E+04  3.838622E+04 -5.368775E+05  4.860811E+04  2.238442E+04
       342  25 -1.597198E+05 -6.089763E+05 -1.239373E+05 -5.324086E+05 -3.348223E+04 -4.275451E+04
       342  26  3.879820E+04  2.218525E+05  5.966498E+04 -3.651425E+05  7.805992E+03 -2.881909E+04
       342  27  2.501902E+05  1.055661E+06  2.548294E+05 -5.427291E+05  4.875524E+04 -1.487494E+04
       343   1 -4.087571E+05 -1.581452E+06 -3.198334E+05 -5.503658E+05 -8.430454E+04 -9.236296E+04
       343   2 -6.096502E+05 -2.425003E+06 -4.857482E+05 -3.387410E+05 -1.074431E+05 -4.643477E+04
       343   3 -6.965895E+05 -3.244868E+06 -6.531315E+05 -4.682549E+05 -3.774724E+04 -3.860880E+02
       343   4 -2.964996E+03  8.102039E+04  4.584945E+04 -5.361181E+05 -8.453285E+04 -2.932284E+04
       343   5  2.922452E+02  6.163171E+04  7.293973E+04 -3.654507E+05 -1.073490E+05 -6.792045E+04
       343   6  1.319739E+05  7.981166E+04  1.572343E+05 -5.357875E+05 -3.750318E+04 -1.063383E+05
       343   7  4.026449E+05  1.746091E+06  4.113786E+05 -5.218282E+05 -8.475789E+04  3.388447E+04
       343   8  6.098140E+05  2.554037E+06  6.312369E+05 -3.922631E+05 -1.072532E+05 -8.949114E+04
       343   9  9.597434E+05  3.414641E+06  9.668411E+05 -6.036748E+05 -3.723686E+04 -2.128574E+05
       343  10 -4.087670E+05 -1.581463E+06 -3.198629E+05 -5.503721E+05  5.190212E-10 -2.994050E-09
       343  11 -6.096631E+05 -2.425008E+06 -4.857740E+05 -3.387450E+05  4.898768E-10  2.936281E-09
       343  12 -6.965911E+05 -3.244868E+06 -6.531342E+05 -4.682549E+05 -2.435185E-10 -8.984948E-10
       343  13 -2.972903E+03  8.101754E+04  4.583440E+04 -5.361201E+05 -1.597973E-09 -3.165626E-09
       343  14  2.786263E+02  6.162365E+04  7.290938E+04 -3.654565E+05  1.143259E-09  1.242154E-09
       343  15  1.319694E+05  7.979913E+04  1.572104E+05 -5.357907E+05 -4.796715E-10 -5.317551E-10
       343  16  4.026369E+05  1.746088E+06  4.113629E+05 -5.218259E+05  1.244349E-09 -2.097672E-10
       343  17  6.097995E+05  2.554026E+06  6.312003E+05 -3.922708E+05  4.958909E-10 -4.384923E-09
       343  18  9.597298E+05  3.414592E+06  9.667538E+05 -6.036811E+05 -7.237174E-10 -4.087792E-10
       343  19 -4.087571E+05 -1.581452E+06 -3.198334E+05 -5.503658E+05  8.430454E+04  9.236296E+04
       343  20 -6.096502E+05 -2.425003E+06 -4.857482E+05 -3.387410E+05  1.074431E+05  4.643477E+04
       343  21 -6.965895E+05 -3.244868E+06 -6.531315E+05 -4.682549E+05  3.774724E+04  3.860880E+02
       343  22 -2.964996E+03  8.102039E+04  4.584945E+04 -5.361181E+05  8.453285E+04  2.932284E+04
       343  23  2.922452E+02  6.163171E+04  7.293973E+04 -3.654507E+05  1.073490E+05  6.792045E+04
       343  24  1.319739E+05  7.981166E+04  1.572343E+05 -5.357875E+05  3.750318E+04  1.063383E+05
       343  25  4.026449E+05  1.746091E+06  4.113786E+05 -5.218282E+05  8.475789E+04 -3.388447E+04
       343  26  6.098140E+05  2.554037E+06  6.312369E+05 -3.922631E+05  1.072532E+05  8.949114E+04
       343  27  9.597434E+05  3.414641E+06  9.668411E+05 -6.036748E+05  3.723686E+04  2.128574E+05
       344   1 -1.792010E+06 -7.267296E+05 -4.042233E+05 -7.095149E+05 -1.832764E+05 -5.559097E+04
       344   2 -1.715383E+06 -5.081838E+05 -2.451269E+05 -6.767408E+05 -1.153334E+05 -2.649048E+02
       344   3 -1.677221E+06 -4.240908E+05 -1.761873E+05 -6.339914E+05 -3.912851E+04  3.317505E+04
       344   4 -1.068544E+06 -3.623941E+05 -1.979539E+05 -4.168952E+05 -1.319049E+05 -3.629222E+04
       344   5 -1.041362E+06 -2.210071E+05 -9.012092E+04 -4.508859E+05 -9.434716E+04  7.617189E+03
       344   6 -1.046561E+06 -2.079757E+05 -4.826116E+04 -4.749220E+05 -4.854327E+04  2.963171E+04
       344   7 -3.445289E+05  2.117558E+03  8.281452E+03 -1.239197E+05 -8.046723E+04 -1.694930E+04
       344   8 -3.668699E+05  6.625235E+04  6.485848E+04 -2.247883E+05 -7.333611E+04  1.551190E+04
       344   9 -4.154937E+05  8.160443E+03  7.964547E+04 -3.157084E+05 -5.796835E+04  2.608507E+04
       344  10 -1.792047E+06 -7.267420E+05 -4.042924E+05 -7.095232E+05  7.861286E-11 -1.109131E-09
       344  11 -1.715397E+06 -5.081874E+05 -2.451520E+05 -6.767408E+05 -2.153431E-09  5.143797E-10
       344  12 -1.677223E+06 -4.240924E+05 -1.761923E+05 -6.339903E+05 -3.185223E-10  2.827851E-10
       344  13 -1.068563E+06 -3.624002E+05 -1.979891E+05 -4.168991E+05  1.208520E-09  8.141221E-11
       344  14 -1.041372E+06 -2.210095E+05 -9.013778E+04 -4.508853E+05 -2.443928E-10  1.270849E-09
       344  15 -1.046564E+06 -2.079773E+05 -4.826724E+04 -4.749208E+05  1.265491E-09 -1.339026E-09
       344  16 -3.445359E+05  2.115509E+03  8.268737E+03 -1.239208E+05  5.750316E-10  8.171218E-10
       344  17 -3.668757E+05  6.625064E+04  6.484791E+04 -2.247873E+05  7.706277E-10  2.805717E-09
       344  18 -4.154975E+05  8.158811E+03  7.963788E+04 -3.157072E+05 -7.776331E-11  6.491507E-10
       344  19 -1.792010E+06 -7.267296E+05 -4.042233E+05 -7.095149E+05  1.832764E+05  5.559097E+04
       344  20 -1.715383E+06 -5.081838E+05 -2.451269E+05 -6.767408E+05  1.153334E+05  2.649048E+02
       344  21 -1.677221E+06 -4.240908E+05 -1.761873E+05 -6.339914E+05  3.912851E+04 -3.317505E+04
       344  22 -1.068544E+06 -3.623941E+05 -1.979539E+05 -4.168952E+05  1.319049E+05  3.629222E+04
       344  23 -1.041362E+06 -2.210071E+05 -9.012092E+04 -4.508859E+05  9.434716E+04 -7.617189E+03
       344  24 -1.046561E+06 -2.079757E+05 -4.826116E+04 -4.749220E+05  4.854327E+04 -2.963171E+04
       344  25 -3.445289E+05  2.117558E+03  8.281452E+03 -1.239197E+05  8.046723E+04  1.694930E+04
       344  26 -3.668699E+05  6.625235E+04  6.485848E+04 -2.247883E+05  7.333611E+04 -1.551190E+04
       344  27 -4.154937E+05  8.160443E+03  7.964547E+04 -3.157084E+05  5.796835E+04 -2.608507E+04
       345   1 -1.599427E+06 -4.210154E+05 -1.525145E+05 -6.271603E+05 -3.648472E+04  2.974234E+04
       345   2 -1.521585E+06 -3.741413E+05 -1.159168E+05 -5.940671E+05 -2.303713E+04  2.986078E+04
       345   3 -1.430231E+06 -3.496572E+05 -8.954209E+04 -5.795074E+05 -9.044857E+03  2.852801E+04
       345   4 -1.040471E+06 -2.140131E+05 -3.692710E+04 -4.700867E+05 -4.150451E+04  2.785181E+04
       345   5 -1.046976E+06 -1.999636E+05 -1.950731E+04 -4.619591E+05 -3.006578E+04  2.721701E+04
       345   6 -1.039574E+06 -2.079022E+05 -1.070881E+04 -4.723673E+05 -1.808423E+04  2.513092E+04
       345   7 -4.811977E+05 -6.984260E+03  7.864273E+04 -3.128829E+05 -4.652913E+04  2.595942E+04
       345   8 -5.721340E+05 -2.576630E+04  7.689112E+04 -3.297574E+05 -3.710022E+04  2.457106E+04
       345   9 -6.487550E+05 -6.613342E+04  6.811814E+04 -3.651642E+05 -2.712979E+04  2.173155E+04
       345  10 -1.599429E+06 -4.210167E+05 -1.525186E+05 -6.271594E+05 -1.292074E-09  4.239885E-10
       345  11 -1.521586E+06 -3.741424E+05 -1.159195E+05 -5.940665E+05 -2.578030E-10 -1.824874E-10
       345  12 -1.430232E+06 -3.496581E+05 -8.954377E+04 -5.795072E+05 -5.577092E-10  1.852261E-10
       345  13 -1.040473E+06 -2.140143E+05 -3.693180E+04 -4.700858E+05  4.612002E-10 -5.410396E-10
       345  14 -1.046977E+06 -1.999647E+05 -1.951040E+04 -4.619584E+05  7.028658E-10 -4.589233E-10
       345  15 -1.039574E+06 -2.079030E+05 -1.071061E+04 -4.723669E+05 -6.735883E-10  8.201739E-10
       345  16 -4.812002E+05 -6.985564E+03  7.863739E+04 -3.128820E+05  8.901391E-10  8.330064E-10
       345  17 -5.721356E+05 -2.576732E+04  7.688740E+04 -3.297567E+05 -6.507954E-10  1.622043E-09
       345  18 -6.487559E+05 -6.613413E+04  6.811587E+04 -3.651637E+05  1.435695E-10  1.008788E-09
       345  19 -1.599427E+06 -4.210154E+05 -1.525145E+05 -6.271603E+05  3.648472E+04 -2.974234E+04
       345  20 -1.521585E+06 -3.741413E+05 -1.159168E+05 -5.940671E+05  2.303713E+04 -2.986078E+04
       345  21 -1.430231E+06 -3.496572E+05 -8.954209E+04 -5.795074E+05  9.044857E+03 -2.852801E+04
       345  22 -1.040471E+06 -2.140131E+05 -3.692710E+04 -4.700867E+05  4.150451E+04 -2.785181E+04
       345  23 -1.046976E+06 -1.999636E+05 -1.950731E+04 -4.619591E+05  3.006578E+04 -2.721701E+04
       345  24 -1.039574E+06 -2.079022E+05 -1.070881E+04 -4.723673E+05  1.808423E+04 -2.513092E+04
       345  25 -4.811977E+05 -6.984260E+03  7.864273E+04 -3.128829E+05  4.652913E+04 -2.595942E+04
       345  26 -5.721340E+05 -2.576630E+04  7.689112E+04 -3.297574E+05  3.710022E+04 -2.457106E+04
       345  27 -6.487550E+05 -6.613342E+04  6.811814E+04 -3.651642E+05  2.712979E+04 -2.173155E+04
       346   1 -1.370634E+06 -3.290072E+05 -7.461964E+04 -5.637184E+05 -6.401385E+03  2.520629E+04
       346   2 -1.293267E+06 -2.890246E+05 -5.387751E+04 -5.302569E+05 -1.663745E+03  1.974185E+04
       346   3 -1.199185E+06 -2.664072E+05 -3.494726E+04 -5.163777E+05  3.110303E+03  1.417660E+04
       346   4 -1.039117E+06 -2.081588E+05 -8.064585E+03 -4.721112E+05 -1.516100E+04  2.191528E+04
       346   5 -1.047467E+06 -1.994132E+05 -4.441179E+03 -4.623443E+05 -1.056264E+04  1.639969E+04
       346   6 -1.039080E+06 -2.080049E+05 -2.518459E+03 -4.721618E+05 -5.928241E+03  1.078320E+04
       346   7 -7.074872E+05 -8.730103E+04  5.848542E+04 -3.804586E+05 -2.392566E+04  1.862240E+04
       346   8 -8.016041E+05 -1.097970E+05  4.499224E+04 -3.944070E+05 -1.946529E+04  1.305613E+04
       346   9 -8.789489E+05 -1.496009E+05  2.990904E+04 -4.279357E+05 -1.496922E+04  7.388899E+03
       346  10 -1.370634E+06 -3.290079E+05 -7.462091E+04 -5.637183E+05 -2.909139E-10  6.137580E-10
       346  11 -1.293268E+06 -2.890250E+05 -5.387825E+04 -5.302569E+05  4.215711E-10  4.408521E-10
       346  12 -1.199185E+06 -2.664074E+05 -3.494765E+04 -5.163778E+05  5.055590E-11  4.232787E-10
       346  13 -1.039118E+06 -2.081594E+05 -8.065919E+03 -4.721109E+05 -6.587515E-10  5.040674E-10
       346  14 -1.047467E+06 -1.994135E+05 -4.441894E+03 -4.623441E+05 -4.169354E-10  2.060405E-10
       346  15 -1.039080E+06 -2.080051E+05 -2.518743E+03 -4.721618E+05  9.017580E-11  9.432712E-11
       346  16 -7.074879E+05 -8.730156E+04  5.848369E+04 -3.804583E+05 -2.652698E-10  4.051794E-10
       346  17 -8.016046E+05 -1.097973E+05  4.499121E+04 -3.944068E+05 -9.282031E-10 -6.015554E-11
       346  18 -8.789491E+05 -1.496011E+05  2.990852E+04 -4.279356E+05  2.979844E-10 -5.774760E-10
       346  19 -1.370634E+06 -3.290072E+05 -7.461964E+04 -5.637184E+05  6.401385E+03 -2.520629E+04
       346  20 -1.293267E+06 -2.890246E+05 -5.387751E+04 -5.302569E+05  1.663745E+03 -1.974185E+04
       346  21 -1.199185E+06 -2.664072E+05 -3.494726E+04 -5.163777E+05 -3.110303E+03 -1.417660E+04
       346  22 -1.039117E+06 -2.081588E+05 -8.064585E+03 -4.721112E+05  1.516100E+04 -2.191528E+04
       346  23 -1.047467E+06 -1.994132E+05 -4.441179E+03 -4.623443E+05  1.056264E+04 -1.639969E+04
       346  24 -1.039080E+06 -2.080049E+05 -2.518459E+03 -4.721618E+05  5.928241E+03 -1.078320E+04
       346  25 -7.074872E+05 -8.730103E+04  5.848542E+04 -3.804586E+05  2.392566E+04 -1.862240E+04
       346  26 -8.016041E+05 -1.097970E+05  4.499224E+04 -3.944070E+05  1.946529E+04 -1.305613E+04
       346  27 -8.789489E+05 -1.496009E+05  2.990904E+04 -4.279357E+05  1.496922E+04 -7.388899E+03
       347   1 -1.140414E+06 -2.449264E+05 -2.207497E+04 -5.001697E+05  4.886120E+03  1.052731E+04
       347   2 -1.063115E+06 -2.050959E+05 -4.378172E+03 -4.666043E+05  7.954328E+03  4.274479E+03
       347   3 -9.687773E+05 -1.824017E+05  1.284611E+04 -4.526352E+05  1.102473E+04 -1.984328E+03
       347   4 -1.039019E+06 -2.080153E+05 -1.949615E+03 -4.721433E+05 -4.137562E+03  7.139866E+03
       347   5 -1.047535E+06 -1.994554E+05 -1.251211E+03 -4.623400E+05 -1.078299E+03  8.837222E+02
       347   6 -1.039020E+06 -2.080316E+05 -1.018917E+03 -4.721365E+05  1.983054E+03 -5.378407E+03
       347   7 -9.376131E+05 -1.711030E+05  1.817584E+04 -4.441125E+05 -1.316290E+04  3.751806E+03
       347   8 -1.031955E+06 -1.938149E+05  1.876107E+03 -4.580755E+05 -1.011121E+04 -2.507138E+03
       347   9 -1.109257E+06 -2.336610E+05 -1.488383E+04 -4.916357E+05 -7.057528E+03 -8.772073E+03
       347  10 -1.140414E+06 -2.449265E+05 -2.207522E+04 -5.001697E+05 -1.257575E-09 -5.370341E-11
       347  11 -1.063115E+06 -2.050959E+05 -4.378326E+03 -4.666043E+05  2.654650E-10 -2.561315E-10
       347  12 -9.687774E+05 -1.824017E+05  1.284587E+04 -4.526352E+05 -6.930575E-11 -8.032310E-11
       347  13 -1.039019E+06 -2.080154E+05 -1.949743E+03 -4.721433E+05 -7.780362E-11 -2.337467E-10
       347  14 -1.047535E+06 -1.994554E+05 -1.251215E+03 -4.623400E+05  2.128433E-10 -3.311227E-10
       347  15 -1.039020E+06 -2.080316E+05 -1.018979E+03 -4.721365E+05  8.765353E-11  3.781882E-10
       347  16 -9.376133E+05 -1.711030E+05  1.817548E+04 -4.441124E+05  8.273047E-10 -2.504497E-10
       347  17 -1.031955E+06 -1.938149E+05  1.875903E+03 -4.580756E+05 -8.934433E-10  6.196880E-10
       347  18 -1.109257E+06 -2.336611E+05 -1.488407E+04 -4.916358E+05 -1.162520E-10 -1.783170E-10
       347  19 -1.140414E+06 -2.449264E+05 -2.207497E+04 -5.001697E+05 -4.886120E+03 -1.052731E+04
       347  20 -1.063115E+06 -2.050959E+05 -4.378172E+03 -4.666043E+05 -7.954328E+03 -4.274479E+03
       347  21 -9.687773E+05 -1.824017E+05  1.284611E+04 -4.526352E+05 -1.102473E+04  1.984328E+03
       347  22 -1.039019E+06 -2.080153E+05 -1.949615E+03 -4.721433E+05  4.137562E+03 -7.139866E+03
       347  23 -1.047535E+06 -1.994554E+05 -1.251211E+03 -4.623400E+05  1.078299E+03 -8.837222E+02
       347  24 -1.039020E+06 -2.080316E+05 -1.018917E+03 -4.721365E+05 -1.983054E+03  5.378407E+03
       347  25 -9.376131E+05 -1.711030E+05  1.817584E+04 -4.441125E+05  1.316290E+04 -3.751806E+03
       347  26 -1.031955E+06 -1.938149E+05  1.876107E+03 -4.580755E+05  1.011121E+04  2.507138E+03
       347  27 -1.109257E+06 -2.336610E+05 -1.488383E+04 -4.916357E+05  7.057528E+03  8.772073E+03
       348   1 -9.100889E+05 -1.608812E+05  2.512702E+04 -4.364043E+05  1.261443E+04 -5.702906E+03
       348   2 -8.328603E+05 -1.210804E+05  4.176634E+04 -4.028626E+05  1.571828E+04 -1.194252E+04
       348   3 -7.386082E+05 -9.839737E+04  5.790893E+04 -3.888963E+05  1.881885E+04 -1.816933E+04
       348   4 -1.039027E+06 -2.080308E+05 -1.040301E+03 -4.721322E+05  3.574792E+03 -9.096494E+03
       348   5 -1.047540E+06 -1.994748E+05 -1.373115E+03 -4.623437E+05  6.695194E+03 -1.533091E+04
       348   6 -1.039040E+06 -2.080407E+05 -2.215811E+03 -4.721337E+05  9.812230E+03 -2.155256E+04
       348   7 -1.167947E+06 -2.551784E+05 -2.720781E+04 -5.078530E+05 -5.462756E+03 -1.248930E+04
       348   8 -1.262172E+06 -2.778651E+05 -4.451447E+04 -5.218057E+05 -2.324533E+03 -1.871804E+04
       348   9 -1.339382E+06 -3.176771E+05 -6.234523E+04 -5.553344E+05  8.102311E+02 -2.493406E+04
       348  10 -9.100891E+05 -1.608813E+05  2.512666E+04 -4.364042E+05 -7.240190E-10 -6.598899E-11
       348  11 -8.328606E+05 -1.210807E+05  4.176561E+04 -4.028625E+05 -7.726542E-10  1.131275E-09
       348  12 -7.386086E+05 -9.839782E+04  5.790764E+04 -3.888961E+05 -1.043566E-09  4.002444E-10
       348  13 -1.039027E+06 -2.080309E+05 -1.040481E+03 -4.721322E+05 -9.554233E-10  2.697653E-10
       348  14 -1.047540E+06 -1.994751E+05 -1.373640E+03 -4.623436E+05  7.673529E-10  1.331893E-10
       348  15 -1.039041E+06 -2.080412E+05 -2.216865E+03 -4.721335E+05  3.480881E-10  1.343030E-11
       348  16 -1.167947E+06 -2.551786E+05 -2.720816E+04 -5.078530E+05  1.058569E-09 -1.839544E-10
       348  17 -1.262173E+06 -2.778655E+05 -4.451514E+04 -5.218057E+05 -3.718494E-10  5.195736E-10
       348  18 -1.339382E+06 -3.176778E+05 -6.234640E+04 -5.553344E+05  1.651642E-10  6.885592E-10
       348  19 -9.100889E+05 -1.608812E+05  2.512702E+04 -4.364043E+05 -1.261443E+04  5.702906E+03
       348  20 -8.328603E+05 -1.210804E+05  4.176634E+04 -4.028626E+05 -1.571828E+04  1.194252E+04
       348  21 -7.386082E+05 -9.839737E+04  5.790893E+04 -3.888963E+05 -1.881885E+04  1.816933E+04
       348  22 -1.039027E+06 -2.080308E+05 -1.040301E+03 -4.721322E+05 -3.574792E+03  9.096494E+03
       348  23 -1.047540E+06 -1.994748E+05 -1.373115E+03 -4.623437E+05 -6.695194E+03  1.533091E+04
       348  24 -1.039040E+06 -2.080407E+05 -2.215811E+03 -4.721337E+05 -9.812230E+03  2.155256E+04
       348  25 -1.167947E+06 -2.551784E+05 -2.720781E+04 -5.078530E+05  5.462756E+03  1.248930E+04
       348  26 -1.262172E+06 -2.778651E+05 -4.451447E+04 -5.218057E+05  2.324533E+03  1.871804E+04
       348  27 -1.339382E+06 -3.176771E+05 -6.234523E+04 -5.553344E+05 -8.102311E+02  2.493406E+04
       349   1 -6.800816E+05 -7.693216E+04  6.951547E+04 -3.727379E+05  2.067448E+04 -2.177846E+04
       349   2 -6.029684E+05 -3.723435E+04  8.423529E+04 -3.392823E+05  2.546518E+04 -2.730089E+04
       349   3 -5.091643E+05 -1.482828E+04  9.713603E+04 -3.253441E+05  3.021090E+04 -3.269478E+04
       349   4 -1.039122E+06 -2.080277E+05 -2.884475E+03 -4.721469E+05  1.165337E+04 -2.516808E+04
       349   5 -1.047475E+06 -1.994649E+05 -5.125922E+03 -4.623546E+05  1.661978E+04 -3.062661E+04
       349   6 -1.039179E+06 -2.082305E+05 -9.326648E+03 -4.720836E+05  2.154084E+04 -3.595664E+04
       349   7 -1.398028E+06 -3.391121E+05 -7.529039E+04 -5.715027E+05  2.637870E+03 -2.855561E+04
       349   8 -1.491776E+06 -3.616778E+05 -9.449592E+04 -5.853447E+05  7.781232E+03 -3.394976E+04
       349   9 -1.568900E+06 -4.016069E+05 -1.158015E+05 -6.187059E+05  1.287880E+04 -3.921550E+04
       349  10 -6.800822E+05 -7.693278E+04  6.951377E+04 -3.727375E+05 -7.212389E-10  5.417128E-10
       349  11 -6.029693E+05 -3.723532E+04  8.423267E+04 -3.392818E+05 -2.077231E-10  5.386466E-10
       349  12 -5.091656E+05 -1.482967E+04  9.713230E+04 -3.253433E+05 -6.626564E-10  7.239303E-10
       349  13 -1.039122E+06 -2.080284E+05 -2.885920E+03 -4.721467E+05 -1.296150E-09  1.386224E-09
       349  14 -1.047476E+06 -1.994660E+05 -5.128203E+03 -4.623542E+05  5.920545E-10  2.487740E-10
       349  15 -1.039180E+06 -2.082320E+05 -9.329947E+03 -4.720829E+05  6.608329E-10 -8.181825E-10
       349  16 -1.398029E+06 -3.391129E+05 -7.529193E+04 -5.715027E+05  2.308495E-10  7.391140E-10
       349  17 -1.491776E+06 -3.616790E+05 -9.449819E+04 -5.853445E+05  1.133411E-09 -1.575139E-10
       349  18 -1.568900E+06 -4.016086E+05 -1.158047E+05 -6.187055E+05 -5.930563E-10  4.905000E-10
       349  19 -6.800816E+05 -7.693216E+04  6.951547E+04 -3.727379E+05 -2.067448E+04  2.177846E+04
       349  20 -6.029684E+05 -3.723435E+04  8.423529E+04 -3.392823E+05 -2.546518E+04  2.730089E+04
       349  21 -5.091643E+05 -1.482828E+04  9.713603E+04 -3.253441E+05 -3.021090E+04  3.269478E+04
       349  22 -1.039122E+06 -2.080277E+05 -2.884475E+03 -4.721469E+05 -1.165337E+04  2.516808E+04
       349  23 -1.047475E+06 -1.994649E+05 -5.125922E+03 -4.623546E+05 -1.661978E+04  3.062661E+04
       349  24 -1.039179E+06 -2.082305E+05 -9.326648E+03 -4.720836E+05 -2.154084E+04  3.595664E+04
       349  25 -1.398028E+06 -3.391121E+05 -7.529039E+04 -5.715027E+05 -2.637870E+03  2.855561E+04
       349  26 -1.491776E+06 -3.616778E+05 -9.449592E+04 -5.853447E+05 -7.781232E+03  3.394976E+04
       349  27 -1.568900E+06 -4.016069E+05 -1.158015E+05 -6.187059E+05 -1.287880E+04  3.921550E+04
       350   1 -4.506509E+05  6.229841E+03  1.063028E+05 -3.102172E+05  3.371138E+04 -3.567607E+04
       350   2 -3.745185E+05  4.653441E+04  1.137557E+05 -2.746432E+05  4.467104E+04 -3.791395E+04
       350   3 -2.845261E+05  6.467283E+04  1.132250E+05 -2.573236E+05  5.495861E+04 -3.835128E+04
       350   4 -1.039712E+06 -2.079291E+05 -1.238767E+04 -4.723679E+05  2.469641E+04 -3.906910E+04
       350   5 -1.046915E+06 -2.001386E+05 -2.257740E+04 -4.619164E+05  3.814934E+04 -4.037243E+04
       350   6 -1.040765E+06 -2.150168E+05 -4.273658E+04 -4.697249E+05  5.092848E+04 -3.987467E+04
       350   7 -1.628421E+06 -4.220610E+05 -1.310962E+05 -6.343781E+05  1.569056E+04 -4.245876E+04
       350   8 -1.718848E+06 -4.467732E+05 -1.589337E+05 -6.490026E+05  3.163520E+04 -4.282806E+04
       350   9 -1.796416E+06 -4.946552E+05 -1.987281E+05 -6.818862E+05  4.690362E+04 -4.139605E+04
       350  10 -4.506524E+05  6.228170E+03  1.062983E+05 -3.102162E+05 -1.975905E-09  2.114332E-12
       350  11 -3.745211E+05  4.653234E+04  1.137492E+05 -2.746419E+05 -1.943840E-10 -2.935590E-10
       350  12 -2.845298E+05  6.467044E+04  1.132166E+05 -2.573219E+05  1.218538E-09  2.131418E-10
       350  13 -1.039713E+06 -2.079309E+05 -1.239168E+04 -4.723672E+05 -8.318229E-10 -8.009948E-10
       350  14 -1.046917E+06 -2.001407E+05 -2.258320E+04 -4.619152E+05 -1.916909E-09  9.560928E-10
       350  15 -1.040768E+06 -2.150192E+05 -4.274444E+04 -4.697232E+05  4.986278E-10 -8.787623E-10
       350  16 -1.628421E+06 -4.220630E+05 -1.311001E+05 -6.343775E+05  1.362333E-09  6.645828E-10
       350  17 -1.718850E+06 -4.467754E+05 -1.589390E+05 -6.490015E+05 -1.671968E-09 -6.472035E-11
       350  18 -1.796418E+06 -4.946576E+05 -1.987354E+05 -6.818846E+05 -7.537641E-10 -7.582415E-10
       350  19 -4.506509E+05  6.229841E+03  1.063028E+05 -3.102172E+05 -3.371138E+04  3.567607E+04
       350  20 -3.745185E+05  4.653441E+04  1.137557E+05 -2.746432E+05 -4.467104E+04  3.791395E+04
       350  21 -2.845261E+05  6.467283E+04  1.132250E+05 -2.573236E+05 -5.495861E+04  3.835128E+04
       350  22 -1.039712E+06 -2.079291E+05 -1.238767E+04 -4.723679E+05 -2.469641E+04  3.906910E+04
       350  23 -1.046915E+06 -2.001386E+05 -2.257740E+04 -4.619164E+05 -3.814934E+04  4.037243E+04
       350  24 -1.040765E+06 -2.150168E+05 -4.273658E+04 -4.697249E+05 -5.092848E+04  3.987467E+04
       350  25 -1.628421E+06 -4.220610E+05 -1.310962E+05 -6.343781E+05 -1.569056E+04  4.245876E+04
       350  26 -1.718848E+06 -4.467732E+05 -1.589337E+05 -6.490026E+05 -3.163520E+04  4.282806E+04
       350  27 -1.796416E+06 -4.946552E+05 -1.987281E+05 -6.818862E+05 -4.690362E+04  4.139605E+04
       351   1 -2.179580E+05  7.876052E+04  1.123992E+05 -2.631419E+05  6.833231E+04 -3.775233E+04
       351   2 -1.745032E+05  1.396409E+05  9.335590E+04 -1.635337E+05  8.290349E+04 -2.451758E+04
       351   3 -1.638148E+05  6.251418E+04  2.794550E+04 -4.908163E+04  8.725500E+04  1.583493E+04
       351   4 -1.047831E+06 -2.080160E+05 -5.585347E+04 -4.752989E+05  5.884881E+04 -4.132812E+04
       351   5 -1.040415E+06 -2.245219E+05 -1.043026E+05 -4.491231E+05  1.111302E+05 -1.389861E+04
       351   6 -1.073331E+06 -3.866480E+05 -2.290916E+05 -4.080929E+05  1.531791E+05  4.066172E+04
       351   7 -1.876997E+06 -4.947529E+05 -2.241399E+05 -6.872020E+05  4.937896E+04 -4.489945E+04
       351   8 -1.905545E+06 -5.885541E+05 -3.020028E+05 -7.343193E+05  1.393139E+05 -3.300927E+03
       351   9 -1.981976E+06 -8.355485E+05 -4.861787E+05 -7.665563E+05  2.189960E+05  6.541948E+04
       351  10 -2.179634E+05  7.875774E+04  1.123877E+05 -2.631398E+05 -1.473310E-09 -5.992477E-10
       351  11 -1.745107E+05  1.396384E+05  9.334185E+04 -1.635321E+05 -1.823626E-09  8.663071E-10
       351  12 -1.638231E+05  6.251186E+04  2.793072E+04 -4.908274E+04  6.990612E-10 -8.251197E-11
       351  13 -1.047835E+06 -2.080187E+05 -5.586318E+04 -4.752970E+05 -7.371489E-10 -6.275557E-10
       351  14 -1.040428E+06 -2.245254E+05 -1.043262E+05 -4.491219E+05  1.868545E-09  3.504748E-11
       351  15 -1.073357E+06 -3.866561E+05 -2.291389E+05 -4.080979E+05 -1.133976E-09  4.297174E-09
       351  16 -1.877000E+06 -4.947558E+05 -2.241483E+05 -6.872002E+05  2.449142E-09 -9.475430E-10
       351  17 -1.905566E+06 -5.885593E+05 -3.020394E+05 -7.343189E+05 -1.680525E-09  2.603168E-09
       351  18 -1.982029E+06 -8.355661E+05 -4.862772E+05 -7.665679E+05 -7.060810E-10 -2.292092E-11
       351  19 -2.179580E+05  7.876052E+04  1.123992E+05 -2.631419E+05 -6.833231E+04  3.775233E+04
       351  20 -1.745032E+05  1.396409E+05  9.335590E+04 -1.635337E+05 -8.290349E+04  2.451758E+04
       351  21 -1.638148E+05  6.251418E+04  2.794550E+04 -4.908163E+04 -8.725500E+04 -1.583493E+04
       351  22 -1.047831E+06 -2.080160E+05 -5.585347E+04 -4.752989E+05 -5.884881E+04  4.132812E+04
       351  23 -1.040415E+06 -2.245219E+05 -1.043026E+05 -4.491231E+05 -1.111302E+05  1.389861E+04
       351  24 -1.073331E+06 -3.866480E+05 -2.290916E+05 -4.080929E+05 -1.531791E+05 -4.066172E+04
       351  25 -1.876997E+06 -4.947529E+05 -2.241399E+05 -6.872020E+05 -4.937896E+04  4.489945E+04
       351  26 -1.905545E+06 -5.885541E+05 -3.020028E+05 -7.343193E+05 -1.393139E+05  3.300927E+03
       351  27 -1.981976E+06 -8.355485E+05 -4.861787E+05 -7.665563E+05 -2.189960E+05 -6.541948E+04
       352   1  1.300003E+05  3.798410E+04  9.297010E+03 -2.954559E+04 -7.696393E+04 -8.775727E+03
       352   2  1.001788E+05  1.476849E+05  6.702996E+04 -5.689969E+02 -5.660944E+04 -2.749202E+04
       352   3  3.902713E+04  1.424694E+05  8.282429E+04  4.652358E+04 -3.629060E+04 -2.927711E+04
       352   4 -5.196646E+05 -1.231638E+05 -1.479711E+05  2.808261E+04 -1.017173E+05 -8.832678E+03
       352   5 -5.026188E+05  3.135934E+02 -6.742976E+04  1.888532E+04 -6.595173E+04 -2.751614E+04
       352   6 -5.196178E+05  6.131949E+03 -3.956474E+04  2.780656E+04 -3.021943E+04 -2.926352E+04
       352   7 -1.168935E+06 -2.843296E+05 -3.052654E+05  8.565015E+04 -1.264447E+05 -8.894260E+03
       352   8 -1.105077E+06 -1.470808E+05 -2.019117E+05  3.832036E+04 -7.528502E+04 -2.754086E+04
       352   9 -1.077970E+06 -1.302251E+05 -1.619724E+05  9.106413E+03 -2.415364E+04 -2.925028E+04
       352  10  1.299939E+05  3.798243E+04  9.285736E+03 -2.954614E+04  1.223786E-09 -1.133426E-10
       352  11  1.001752E+05  1.476832E+05  6.702252E+04 -5.702501E+02  6.065630E-10 -3.711643E-09
       352  12  3.902548E+04  1.424681E+05  8.282021E+04  4.652273E+04  2.359419E-09 -4.372150E-09
       352  13 -5.196757E+05 -1.231667E+05 -1.479907E+05  2.808189E+04 -7.214396E-10  1.609853E-09
       352  14 -5.026237E+05  3.116116E+02 -6.743936E+04  1.888386E+04 -2.661532E-10 -1.825765E-09
       352  15 -5.196190E+05  6.130784E+03 -3.956807E+04  2.780585E+04 -2.809281E-10  5.062926E-10
       352  16 -1.168952E+06 -2.843340E+05 -3.052956E+05  8.564924E+04 -2.438952E-09  6.640123E-10
       352  17 -1.105083E+06 -1.470832E+05 -2.019238E+05  3.831869E+04 -1.874790E-09 -5.555786E-09
       352  18 -1.077971E+06 -1.302262E+05 -1.619751E+05  9.105844E+03 -2.016573E-09 -6.260890E-09
       352  19  1.300003E+05  3.798410E+04  9.297010E+03 -2.954559E+04  7.696393E+04  8.775727E+03
       352  20  1.001788E+05  1.476849E+05  6.702996E+04 -5.689969E+02  5.660944E+04  2.749202E+04
       352  21  3.902713E+04  1.424694E+05  8.282429E+04  4.652358E+04  3.629060E+04  2.927711E+04
       352  22 -5.196646E+05 -1.231638E+05 -1.479711E+05  2.808261E+04  1.017173E+05  8.832678E+03
       352  23 -5.026188E+05  3.135934E+02 -6.742976E+04  1.888532E+04  6.595173E+04  2.751614E+04
       352  24 -5.196178E+05  6.131949E+03 -3.956474E+04  2.780656E+04  3.021943E+04  2.926352E+04
       352  25 -1.168935E+06 -2.843296E+05 -3.052654E+05  8.565015E+04  1.264447E+05  8.894260E+03
       352  26 -1.105077E+06 -1.470808E+05 -2.019117E+05  3.832036E+04  7.528502E+04  2.754086E+04
       352  27 -1.077970E+06 -1.302251E+05 -1.619724E+05  9.106413E+03  2.415364E+04  2.925028E+04
       353   1  8.565863E+03  1.205562E+05  8.333104E+04  2.668317E+04 -2.576922E+04 -2.627217E+04
       353   2 -3.568044E+04  1.162765E+05  8.731953E+04  1.901202E+04 -1.792112E+04 -2.462280E+04
       353   3 -8.262923E+04  1.054427E+05  8.455145E+04  3.023089E+04 -1.007674E+04 -2.220792E+04
       353   4 -5.126773E+05 -6.664829E+03 -3.145224E+04  2.806083E+04 -2.461782E+04 -2.627100E+04
       353   5 -5.112557E+05  2.675865E+02 -1.701760E+04  1.860589E+04 -1.607808E+04 -2.461932E+04
       353   6 -5.126608E+05  5.227344E+02 -9.824156E+03  2.804199E+04 -7.541488E+03 -2.220190E+04
       353   7 -1.033666E+06 -1.339041E+05 -1.462522E+05  2.943716E+04 -2.346737E+04 -2.626983E+04
       353   8 -9.866192E+05 -1.157564E+05 -1.213685E+05  1.819994E+04 -1.423644E+04 -2.461585E+04
       353   9 -9.425192E+05 -1.044096E+05 -1.042110E+05  2.585450E+04 -5.007973E+03 -2.219590E+04
       353  10  8.564965E+03  1.205553E+05  8.332849E+04  2.668262E+04 -3.088393E-09 -5.224640E-09
       353  11 -3.568095E+04  1.162757E+05  8.731779E+04  1.901166E+04 -3.543718E-09  1.447058E-09
       353  12 -8.262947E+04  1.054421E+05  8.455033E+04  3.023071E+04 -2.196114E-09  3.331723E-09
       353  13 -5.126781E+05 -6.665733E+03 -3.145468E+04  2.806031E+04 -5.172266E-10 -4.064260E-09
       353  14 -5.112561E+05  2.668663E+02 -1.701923E+04  1.860557E+04  5.352400E-10 -1.092010E-09
       353  15 -5.126610E+05  5.221899E+02 -9.825189E+03  2.804185E+04  7.351250E-10 -1.596537E-09
       353  16 -1.033667E+06 -1.339050E+05 -1.462545E+05  2.943666E+04  2.138031E-09 -9.508301E-10
       353  17 -9.866196E+05 -1.157571E+05 -1.213700E+05  1.819966E+04  1.976438E-09  9.482610E-10
       353  18 -9.425193E+05 -1.044101E+05 -1.042120E+05  2.585441E+04  3.341152E-09  2.003267E-09
       353  19  8.565863E+03  1.205562E+05  8.333104E+04  2.668317E+04  2.576922E+04  2.627217E+04
       353  20 -3.568044E+04  1.162765E+05  8.731953E+04  1.901202E+04  1.792112E+04  2.462280E+04
       353  21 -8.262923E+04  1.054427E+05  8.455145E+04  3.023089E+04  1.007674E+04  2.220792E+04
       353  22 -5.126773E+05 -6.664829E+03 -3.145224E+04  2.806083E+04  2.461782E+04  2.627100E+04
       353  23 -5.112557E+05  2.675865E+02 -1.701760E+04  1.860589E+04  1.607808E+04  2.461932E+04
       353  24 -5.126608E+05  5.227344E+02 -9.824156E+03  2.804199E+04  7.541488E+03  2.220190E+04
       353  25 -1.033666E+06 -1.339041E+05 -1.462522E+05  2.943716E+04  2.346737E+04  2.626983E+04
       353  26 -9.866192E+05 -1.157564E+05 -1.213685E+05  1.819994E+04  1.423644E+04  2.461585E+04
       353  27 -9.425192E+05 -1.044096E+05 -1.042110E+05  2.585450E+04  5.007973E+03  2.219590E+04
       354   1 -1.195044E+05  9.556900E+04  7.841984E+04  2.904762E+04 -8.337224E+03 -2.062507E+04
       354   2 -1.651922E+05  8.472142E+04  7.170627E+04  1.946278E+04 -6.251276E+03 -1.805813E+04
       354   3 -2.113175E+05  7.359944E+04  6.354268E+04  2.892402E+04 -4.166740E+03 -1.545178E+04
       354   4 -5.121249E+05 -1.766566E+02 -7.537724E+03  2.808224E+04 -6.017424E+03 -2.061932E+04
       354   5 -5.118969E+05  1.520510E+02 -4.291600E+03  1.855831E+04 -3.896841E+03 -1.805181E+04
       354   6 -5.121148E+05  2.002090E+02 -2.520249E+03  2.808111E+04 -1.777517E+03 -1.544487E+04
       354   7 -9.046011E+05 -9.593260E+04 -9.350462E+04  2.711737E+04 -3.699073E+03 -2.061358E+04
       354   8 -8.584890E+05 -8.442535E+04 -8.029676E+04  1.765427E+04 -1.543704E+03 -1.804549E+04
       354   9 -8.128274E+05 -7.320507E+04 -6.858868E+04  2.723854E+04  6.105617E+02 -1.543797E+04
       354  10 -1.195046E+05  9.556852E+04  7.841891E+04  2.904748E+04 -1.316586E-09  5.639891E-09
       354  11 -1.651923E+05  8.472105E+04  7.170559E+04  1.946269E+04  5.189990E-10  2.301506E-09
       354  12 -2.113176E+05  7.359917E+04  6.354220E+04  2.892396E+04  3.890121E-09 -6.981992E-10
       354  13 -5.121251E+05 -1.771228E+02 -7.538591E+03  2.808214E+04 -7.213189E-10 -2.072872E-09
       354  14 -5.118970E+05  1.516971E+02 -4.292241E+03  1.855825E+04 -5.505480E-10  4.398789E-09
       354  15 -5.121149E+05  1.999521E+02 -2.520703E+03  2.808108E+04 -9.345711E-10  6.301102E-09
       354  16 -9.046012E+05 -9.593306E+04 -9.350544E+04  2.711731E+04  7.581348E-10  4.091292E-09
       354  17 -8.584891E+05 -8.442570E+04 -8.029738E+04  1.765425E+04 -6.837428E-10  5.274302E-09
       354  18 -8.128275E+05 -7.320533E+04 -6.858912E+04  2.723855E+04 -4.151630E-09  1.223114E-09
       354  19 -1.195044E+05  9.556900E+04  7.841984E+04  2.904762E+04  8.337224E+03  2.062507E+04
       354  20 -1.651922E+05  8.472142E+04  7.170627E+04  1.946278E+04  6.251276E+03  1.805813E+04
       354  21 -2.113175E+05  7.359944E+04  6.354268E+04  2.892402E+04  4.166740E+03  1.545178E+04
       354  22 -5.121249E+05 -1.766566E+02 -7.537724E+03  2.808224E+04  6.017424E+03  2.061932E+04
       354  23 -5.118969E+05  1.520510E+02 -4.291600E+03  1.855831E+04  3.896841E+03  1.805181E+04
       354  24 -5.121148E+05  2.002090E+02 -2.520249E+03  2.808111E+04  1.777517E+03  1.544487E+04
       354  25 -9.046011E+05 -9.593260E+04 -9.350462E+04  2.711737E+04  3.699073E+03  2.061358E+04
       354  26 -8.584890E+05 -8.442535E+04 -8.029676E+04  1.765427E+04  1.543704E+03  1.804549E+04
       354  27 -8.128274E+05 -7.320507E+04 -6.858868E+04  2.723854E+04 -6.105617E+02  1.543797E+04
       355   1 -2.488766E+05  6.434142E+04  5.559711E+04  2.879407E+04 -3.760882E+03 -1.392634E+04
       355   2 -2.949093E+05  5.307981E+04  4.632158E+04  1.909726E+04 -3.152266E+03 -1.130870E+04
       355   3 -3.411315E+05  4.191614E+04  3.664209E+04  2.853933E+04 -2.544447E+03 -8.686216E+03
       355   4 -5.120538E+05  1.691841E+02 -1.963529E+03  2.810203E+04 -1.377901E+03 -1.391920E+04
       355   5 -5.119543E+05  1.338360E+02 -1.255764E+03  1.853235E+04 -7.651874E+02 -1.130126E+04
       355   6 -5.120477E+05  1.956191E+02 -9.550730E+02  2.810194E+04 -1.532263E+02 -8.678449E+03
       355   7 -7.751661E+05 -6.400767E+04 -5.952833E+04  2.741023E+04  1.004083E+03 -1.391207E+04
       355   8 -7.289552E+05 -5.281529E+04 -4.883595E+04  1.796760E+04  1.621067E+03 -1.129381E+04
       355   9 -6.829367E+05 -4.152686E+04 -3.855400E+04  2.766466E+04  2.237343E+03 -8.670685E+03
       355  10 -2.488766E+05  6.434120E+04  5.559671E+04  2.879403E+04  2.725947E-09 -4.099565E-10
       355  11 -2.949093E+05  5.307967E+04  4.632132E+04  1.909723E+04  6.841317E-09  7.964355E-09
       355  12 -3.411315E+05  4.191606E+04  3.664193E+04  2.853931E+04  1.175232E-08  9.566646E-09
       355  13 -5.120538E+05  1.689756E+02 -1.963896E+03  2.810201E+04 -5.619532E-10  5.492112E-10
       355  14 -5.119543E+05  1.336987E+02 -1.256005E+03  1.853234E+04 -1.997057E-09  8.078440E-09
       355  15 -5.120478E+05  1.955382E+02 -9.552146E+02  2.810194E+04 -6.677156E-10  3.231107E-09
       355  16 -7.751661E+05 -6.400787E+04 -5.952870E+04  2.741024E+04 -3.774196E-09  3.017115E-10
       355  17 -7.289552E+05 -5.281543E+04 -4.883619E+04  1.796762E+04 -7.843159E-09  5.322213E-10
       355  18 -6.829367E+05 -4.152694E+04 -3.855415E+04  2.766468E+04 -1.182171E-08  1.018977E-09
       355  19 -2.488766E+05  6.434142E+04  5.559711E+04  2.879407E+04  3.760882E+03  1.392634E+04
       355  20 -2.949093E+05  5.307981E+04  4.632158E+04  1.909726E+04  3.152266E+03  1.130870E+04
       355  21 -3.411315E+05  4.191614E+04  3.664209E+04  2.853933E+04  2.544447E+03  8.686216E+03
       355  22 -5.120538E+05  1.691841E+02 -1.963529E+03  2.810203E+04  1.377901E+03  1.391920E+04
       355  23 -5.119543E+05  1.338360E+02 -1.255764E+03  1.853235E+04  7.651874E+02  1.130126E+04
       355  24 -5.120477E+05  1.956191E+02 -9.550730E+02  2.810194E+04  1.532263E+02  8.678449E+03
       355  25 -7.751661E+05 -6.400767E+04 -5.952833E+04  2.741023E+04 -1.004083E+03  1.391207E+04
       355  26 -7.289552E+05 -5.281529E+04 -4.883595E+04  1.796760E+04 -1.621067E+03  1.129381E+04
       355  27 -6.829367E+05 -4.152686E+04 -3.855400E+04  2.766466E+04 -2.237343E+03  8.670685E+03
       356   1 -3.788882E+05  3.265486E+04  2.813884E+04  2.844942E+04 -2.381156E+03 -7.158354E+03
       356   2 -4.250336E+05  2.134722E+04  1.798273E+04  1.871430E+04 -1.861310E+03 -4.531208E+03
       356   3 -4.713769E+05  1.014500E+04  7.477047E+03  2.817122E+04 -1.341789E+03 -1.903473E+03
       356   4 -5.120466E+05  1.965464E+02 -9.219680E+02  2.811371E+04  1.178725E+01 -7.150449E+03
       356   5 -5.119458E+05  1.444668E+02 -1.070125E+03  1.851761E+04  5.320362E+02 -4.523184E+03
       356   6 -5.120443E+05  1.980414E+02 -1.567916E+03  2.811371E+04  1.051998E+03 -1.895322E+03
       356   7 -6.451883E+05 -3.226294E+04 -2.998383E+04  2.777807E+04  2.404224E+03 -7.142546E+03
       356   8 -5.988508E+05 -2.105879E+04 -2.012342E+04  1.832095E+04  2.925051E+03 -4.515161E+03
       356   9 -5.527101E+05 -9.749027E+03 -1.061296E+04  2.805621E+04  3.445631E+03 -1.887171E+03
       356  10 -3.788882E+05  3.265480E+04  2.813874E+04  2.844940E+04 -3.456265E-09  4.033652E-09
       356  11 -4.250336E+05  2.134719E+04  1.798269E+04  1.871429E+04 -3.707817E-09 -2.179612E-09
       356  12 -4.713769E+05  1.014500E+04  7.477036E+03  2.817121E+04  1.771300E-10 -3.618694E-09
       356  13 -5.120466E+05  1.964915E+02 -9.220640E+02  2.811371E+04  2.051499E-10  1.150042E-08
       356  14 -5.119458E+05  1.444447E+02 -1.070164E+03  1.851761E+04  8.949544E-10  1.408540E-09
       356  15 -5.120443E+05  1.980373E+02 -1.567925E+03  2.811371E+04  2.421081E-10 -4.215965E-09
       356  16 -6.451883E+05 -3.226300E+04 -2.998393E+04  2.777808E+04  2.400574E-09  5.214592E-09
       356  17 -5.988508E+05 -2.105881E+04 -2.012348E+04  1.832096E+04  2.854926E-09 -2.140095E-09
       356  18 -5.527101E+05 -9.749034E+03 -1.061299E+04  2.805622E+04  4.546286E-10 -5.234060E-09
       356  19 -3.788882E+05  3.265486E+04  2.813884E+04  2.844942E+04  2.381156E+03  7.158354E+03
       356  20 -4.250336E+05  2.134722E+04  1.798273E+04  1.871430E+04  1.861310E+03  4.531208E+03
       356  21 -4.713769E+05  1.014500E+04  7.477047E+03  2.817122E+04  1.341789E+03  1.903473E+03
       356  22 -5.120466E+05  1.965464E+02 -9.219680E+02  2.811371E+04 -1.178725E+01  7.150449E+03
       356  23 -5.119458E+05  1.444668E+02 -1.070125E+03  1.851761E+04 -5.320362E+02  4.523184E+03
       356  24 -5.120443E+05  1.980414E+02 -1.567916E+03  2.811371E+04 -1.051998E+03  1.895322E+03
       356  25 -6.451883E+05 -3.226294E+04 -2.998383E+04  2.777807E+04 -2.404224E+03  7.142546E+03
       356  26 -5.988508E+05 -2.105879E+04 -2.012342E+04  1.832095E+04 -2.925051E+03  4.515161E+03
       356  27 -5.527101E+05 -9.749027E+03 -1.061296E+04  2.805621E+04 -3.445631E+03  1.887171E+03
       357   1 -5.092347E+05  8.938554E+02 -1.485397E+03  2.801990E+04 -1.032569E+03 -3.712612E+02
       357   2 -5.552837E+05 -1.041175E+04 -1.283471E+04  1.831105E+04  6.203399E+02  2.257358E+03
       357   3 -6.017525E+05 -2.189935E+04 -2.534439E+04  2.780054E+04  2.273334E+03  4.866686E+03
       357   4 -5.120927E+05  2.234587E+02 -1.981792E+03  2.811476E+04  1.366861E+03 -3.630720E+02
       357   5 -5.118842E+05  1.780835E+02 -3.317095E+03  1.851609E+04  3.002221E+03  2.265423E+03
       357   6 -5.120944E+05 -4.606148E+01 -5.800380E+03  2.811569E+04  4.637786E+03  4.874636E+03
       357   7 -5.149506E+05 -4.469353E+02 -2.478166E+03  2.820962E+04  3.766281E+03 -3.548821E+02
       357   8 -4.684829E+05  1.076780E+04  6.200425E+03  1.872116E+04  5.384267E+03  2.273489E+03
       357   9 -4.224288E+05  2.180670E+04  1.374317E+04  2.843088E+04  7.002576E+03  4.882588E+03
       357  10 -5.092347E+05  8.938550E+02 -1.485399E+03  2.801990E+04 -2.245200E-09  1.474824E-09
       357  11 -5.552837E+05 -1.041176E+04 -1.283472E+04  1.831105E+04 -2.175260E-09  8.590354E-10
       357  12 -6.017525E+05 -2.189938E+04 -2.534445E+04  2.780053E+04 -1.673416E-09  2.008789E-09
       357  13 -5.120927E+05  2.234581E+02 -1.981796E+03  2.811476E+04  5.337680E-10 -1.138375E-09
       357  14 -5.118842E+05  1.780756E+02 -3.317122E+03  1.851609E+04  8.041829E-10  1.011108E-09
       357  15 -5.120944E+05 -4.609277E+01 -5.800465E+03  2.811567E+04 -1.025225E-09  4.409652E-09
       357  16 -5.149506E+05 -4.469392E+02 -2.478193E+03  2.820962E+04  1.346806E-09  3.782010E-10
       357  17 -4.684830E+05  1.076778E+04  6.200361E+03  1.872115E+04  1.819094E-09 -7.956607E-09
       357  18 -4.224289E+05  2.180666E+04  1.374304E+04  2.843085E+04  1.930821E-09 -4.904585E-11
       357  19 -5.092347E+05  8.938554E+02 -1.485397E+03  2.801990E+04  1.032569E+03  3.712612E+02
       357  20 -5.552837E+05 -1.041175E+04 -1.283471E+04  1.831105E+04 -6.203399E+02 -2.257358E+03
       357  21 -6.017525E+05 -2.189935E+04 -2.534439E+04  2.780054E+04 -2.273334E+03 -4.866686E+03
       357  22 -5.120927E+05  2.234587E+02 -1.981792E+03  2.811476E+04 -1.366861E+03  3.630720E+02
       357  23 -5.118842E+05  1.780835E+02 -3.317095E+03  1.851609E+04 -3.002221E+03 -2.265423E+03
       357  24 -5.120944E+05 -4.606148E+01 -5.800380E+03  2.811569E+04 -4.637786E+03 -4.874636E+03
       357  25 -5.149506E+05 -4.469353E+02 -2.478166E+03  2.820962E+04 -3.766281E+03  3.548821E+02
       357  26 -4.684829E+05  1.076780E+04  6.200425E+03  1.872116E+04 -5.384267E+03 -2.273489E+03
       357  27 -4.224288E+05  2.180670E+04  1.374317E+04  2.843088E+04 -7.002576E+03 -4.882588E+03
       358   1 -6.399464E+05 -3.063490E+04 -3.562121E+04  2.679741E+04  3.323320E+03  6.435206E+03
       358   2 -6.849611E+05 -4.207812E+04 -5.118108E+04  1.851423E+04  1.025453E+04  8.973641E+03
       358   3 -7.323119E+05 -5.867480E+04 -7.257993E+04  2.938649E+04  1.718698E+04  1.109139E+04
       358   4 -5.125078E+05  4.922047E+02 -7.553016E+03  2.810078E+04  5.807990E+03  6.443471E+03
       358   5 -5.113760E+05  2.843540E+02 -1.306333E+04  1.853221E+04  1.235744E+04  8.980385E+03
       358   6 -5.125155E+05 -5.009665E+03 -2.414603E+04  2.811886E+04  1.890864E+04  1.109664E+04
       358   7 -3.850541E+05  3.161822E+04  2.051420E+04  2.940440E+04  8.293165E+03  6.451745E+03
       358   8 -3.377626E+05  4.264481E+04  2.505261E+04  1.855017E+04  1.446093E+04  8.987127E+03
       358   9 -2.926739E+05  4.865223E+04  2.428491E+04  2.685075E+04  2.063090E+04  1.110189E+04
       358  10 -6.399464E+05 -3.063495E+04 -3.562130E+04  2.679739E+04 -4.533150E-09  8.020246E-09
       358  11 -6.849613E+05 -4.207823E+04 -5.118143E+04  1.851415E+04 -1.895247E-09  3.213656E-09
       358  12 -7.323123E+05 -5.867501E+04 -7.258071E+04  2.938633E+04  3.775439E-09  7.301299E-09
       358  13 -5.125079E+05  4.921511E+02 -7.553157E+03  2.810075E+04 -5.753182E-10  3.559674E-09
       358  14 -5.113762E+05  2.842264E+02 -1.306377E+04  1.853212E+04 -1.407369E-11  3.791528E-09
       358  15 -5.125159E+05 -5.009893E+03 -2.414694E+04  2.811869E+04 -6.216143E-10  9.500406E-10
       358  16 -3.850541E+05  3.161816E+04  2.051399E+04  2.940436E+04  4.030367E-09  1.421094E-09
       358  17 -3.377628E+05  4.264467E+04  2.505206E+04  1.855006E+04  4.288764E-10 -1.336940E-09
       358  18 -2.926744E+05  4.865199E+04  2.428388E+04  2.685056E+04 -3.654222E-09 -8.460848E-09
       358  19 -6.399464E+05 -3.063490E+04 -3.562121E+04  2.679741E+04 -3.323320E+03 -6.435206E+03
       358  20 -6.849611E+05 -4.207812E+04 -5.118108E+04  1.851423E+04 -1.025453E+04 -8.973641E+03
       358  21 -7.323119E+05 -5.867480E+04 -7.257993E+04  2.938649E+04 -1.718698E+04 -1.109139E+04
       358  22 -5.125078E+05  4.922047E+02 -7.553016E+03  2.810078E+04 -5.807990E+03 -6.443471E+03
       358  23 -5.113760E+05  2.843540E+02 -1.306333E+04  1.853221E+04 -1.235744E+04 -8.980385E+03
       358  24 -5.125155E+05 -5.009665E+03 -2.414603E+04  2.811886E+04 -1.890864E+04 -1.109664E+04
       358  25 -3.850541E+05  3.161822E+04  2.051420E+04  2.940440E+04 -8.293165E+03 -6.451745E+03
       358  26 -3.377626E+05  4.264481E+04  2.505261E+04  1.855017E+04 -1.446093E+04 -8.987127E+03
       358  27 -2.926739E+05  4.865223E+04  2.428491E+04  2.685075E+04 -2.063090E+04 -1.110189E+04
       359   1 -7.754247E+05 -5.814682E+04 -8.689577E+04  1.374993E+04  1.877105E+04  1.343705E+04
       359   2 -8.078136E+05 -7.376292E+04 -1.195018E+05  3.366816E+04  5.469587E+04  1.373945E+04
       359   3 -8.679544E+05 -1.811774E+05 -1.984888E+05  7.243020E+04  9.064597E+04  4.695753E+03
       359   4 -5.178463E+05  4.817107E+03 -3.037328E+04  2.796131E+04  2.320736E+04  1.345125E+04
       359   5 -5.047317E+05  3.342406E+02 -5.175339E+04  1.869029E+04  5.062613E+04  1.372501E+04
       359   6 -5.178791E+05 -9.444722E+04 -1.135892E+05  2.826507E+04  7.807325E+04  4.651326E+03
       359   7 -2.602052E+05  6.777734E+04  2.614534E+04  4.217862E+04  2.764549E+04  1.346565E+04
       359   8 -2.015635E+05  7.442604E+04  1.598939E+04  3.704944E+03  4.655443E+04  1.371077E+04
       359   9 -1.676872E+05 -7.718530E+03 -2.869681E+04 -1.592515E+04  6.549343E+04  4.608704E+03
       359  10 -7.754251E+05 -5.814711E+04 -8.689677E+04  1.374972E+04 -1.158828E-09  5.103777E-09
       359  11 -8.078169E+05 -7.376393E+04 -1.195078E+05  3.366756E+04  3.266409E-10 -2.514144E-09
       359  12 -8.679632E+05 -1.811796E+05 -1.985043E+05  7.242986E+04  1.989361E-09 -2.585177E-09
       359  13 -5.178469E+05  4.816768E+03 -3.037463E+04  2.796106E+04 -3.678347E-10  7.866580E-09
       359  14 -5.047345E+05  3.333496E+02 -5.175857E+04  1.868973E+04  3.650650E-10 -4.777279E-09
       359  15 -5.178857E+05 -9.444888E+04 -1.136007E+05  2.826477E+04 -1.216277E-09  4.062740E-09
       359  16 -2.602061E+05  6.777694E+04  2.614356E+04  4.217832E+04  7.804271E-11  2.327641E-10
       359  17 -2.015659E+05  7.442525E+04  1.598496E+04  3.704430E+03 -2.467724E-10  1.362031E-09
       359  18 -1.676918E+05 -7.719705E+03 -2.870492E+04 -1.592540E+04 -1.605348E-09 -8.467230E-10
       359  19 -7.754247E+05 -5.814682E+04 -8.689577E+04  1.374993E+04 -1.877105E+04 -1.343705E+04
       359  20 -8.078136E+05 -7.376292E+04 -1.195018E+05  3.366816E+04 -5.469587E+04 -1.373945E+04
       359  21 -8.679544E+05 -1.811774E+05 -1.984888E+05  7.243020E+04 -9.064597E+04 -4.695753E+03
       359  22 -5.178463E+05  4.817107E+03 -3.037328E+04  2.796131E+04 -2.320736E+04 -1.345125E+04
       359  23 -5.047317E+05  3.342406E+02 -5.175339E+04  1.869029E+04 -5.062613E+04 -1.372501E+04
       359  24 -5.178791E+05 -9.444722E+04 -1.135892E+05  2.826507E+04 -7.807325E+04 -4.651326E+03
       359  25 -2.602052E+05  6.777734E+04  2.614534E+04  4.217862E+04 -2.764549E+04 -1.346565E+04
       359  26 -2.015635E+05  7.442604E+04  1.598939E+04  3.704944E+03 -4.655443E+04 -1.371077E+04
       359  27 -1.676872E+05 -7.718530E+03 -2.869681E+04 -1.592515E+04 -6.549343E+04 -4.608704E+03
       360   1  4.371064E+05  2.183326E+06  4.569518E+05 -2.742618E+05  1.334226E+04  1.423402E+05
       360   2  2.204206E+05  1.840568E+06  2.789000E+05 -1.672128E+05  3.847119E+04  7.038931E+04
       360   3  1.365757E+05  1.539951E+06  1.807054E+05 -1.917117E+05  2.944320E+04 -1.600248E+03
       360   4  1.327433E+05  9.585831E+05  1.593848E+05 -2.089188E+05  1.344822E+04  1.037949E+05
       360   5  1.662061E+02  9.403426E+05  7.713301E+04 -1.433162E+05  3.849633E+04  6.314819E+04
       360   6 -4.877822E+03  9.588107E+05  5.313436E+04 -2.092507E+05  2.937491E+04  2.242424E+04
       360   7 -1.717136E+05 -2.647831E+05 -1.382830E+05 -1.437036E+05  1.354621E+04  6.532514E+04
       360   8 -2.201413E+05  4.087058E+04 -1.246847E+05 -1.194540E+05  3.852094E+04  5.591739E+04
       360   9 -1.463523E+05  3.779875E+05 -7.445488E+04 -2.267729E+05  2.930523E+04  4.642656E+04
       360  10  4.371008E+05  2.183304E+06  4.569135E+05 -2.742634E+05  3.437569E-10 -1.110287E-09
       360  11  2.204177E+05  1.840563E+06  2.788879E+05 -1.672150E+05 -5.111238E-12 -3.064737E-09
       360  12  1.365747E+05  1.539951E+06  1.807038E+05 -1.917116E+05  1.184372E-09 -6.106803E-10
       360  13  1.327402E+05  9.585715E+05  1.593642E+05 -2.089199E+05  1.164078E-09 -2.589277E-09
       360  14  1.635448E+02  9.403380E+05  7.712274E+04 -1.433182E+05  9.649027E-10 -5.151182E-09
       360  15 -4.878884E+03  9.588099E+05  5.313180E+04 -2.092512E+05  7.814237E-10 -1.017121E-09
       360  16 -1.717149E+05 -2.647877E+05 -1.382913E+05 -1.437043E+05 -1.907837E-10  1.933251E-09
       360  17 -2.201438E+05  4.086683E+04 -1.246934E+05 -1.194557E+05  1.691081E-09 -3.260645E-09
       360  18 -1.463538E+05  3.779850E+05 -7.446055E+04 -2.267740E+05 -8.296299E-10 -4.780394E-09
       360  19  4.371064E+05  2.183326E+06  4.569518E+05 -2.742618E+05 -1.334226E+04 -1.423402E+05
       360  20  2.204206E+05  1.840568E+06  2.789000E+05 -1.672128E+05 -3.847119E+04 -7.038931E+04
       360  21  1.365757E+05  1.539951E+06  1.807054E+05 -1.917117E+05 -2.944320E+04  1.600248E+03
       360  22  1.327433E+05  9.585831E+05  1.593848E+05 -2.089188E+05 -1.344822E+04 -1.037949E+05
       360  23  1.662061E+02  9.403426E+05  7.713301E+04 -1.433162E+05 -3.849633E+04 -6.314819E+04
       360  24 -4.877822E+03  9.588107E+05  5.313436E+04 -2.092507E+05 -2.937491E+04 -2.242424E+04
       360  25 -1.717136E+05 -2.647831E+05 -1.382830E+05 -1.437036E+05 -1.354621E+04 -6.532514E+04
       360  26 -2.201413E+05  4.087058E+04 -1.246847E+05 -1.194540E+05 -3.852094E+04 -5.591739E+04
       360  27 -1.463523E+05  3.779875E+05 -7.445488E+04 -2.267729E+05 -2.930523E+04 -4.642656E+04
       361   1  8.537517E+04  1.270296E+06  1.183073E+05 -2.146651E+05  1.572117E+04 -3.472237E+02
       361   2 -3.957277E+02  9.461606E+05  4.358373E+04 -1.427704E+05 -7.128182E+01 -2.257438E+04
       361   3 -6.763176E+04  6.287700E+05 -1.226755E+04 -2.036959E+05 -1.585627E+04 -4.479048E+04
       361   4  7.775413E+03  9.521733E+05  4.820588E+04 -2.094471E+05  1.567807E+04  1.413563E+04
       361   5  2.606965E+02  9.488472E+05  4.417227E+04 -1.430332E+05 -1.141436E+02 -8.097926E+03
       361   6  1.128816E+04  9.521695E+05  5.902063E+04 -2.094367E+05 -1.589889E+04 -3.033152E+04
       361   7 -6.983093E+04  6.341451E+05 -2.190098E+04 -2.042317E+05  1.563521E+04  2.861117E+04
       361   8  9.172327E+02  9.515342E+05  4.476161E+04 -1.432960E+05 -1.570174E+02  6.378591E+03
       361   9  9.020128E+04  1.275667E+06  1.303032E+05 -2.151804E+05 -1.594176E+04 -1.586513E+04
       361  10  8.537490E+04  1.270296E+06  1.183069E+05 -2.146651E+05  1.020637E-09  1.451188E-09
       361  11 -3.958643E+02  9.461600E+05  4.358277E+04 -1.427704E+05  1.413384E-09 -2.969017E-09
       361  12 -6.763257E+04  6.287678E+05 -1.227179E+04 -2.036965E+05 -4.091364E-10 -9.237392E-10
       361  13  7.775095E+03  9.521730E+05  4.820504E+04 -2.094473E+05 -4.503654E-10 -3.390697E-09
       361  14  2.606789E+02  9.488471E+05  4.417215E+04 -1.430332E+05  3.256689E-09 -6.223689E-09
       361  15  1.128764E+04  9.521684E+05  5.901843E+04 -2.094371E+05  2.726016E-09 -7.855261E-10
       361  16 -6.983141E+04  6.341441E+05 -2.190297E+04 -2.042320E+05 -1.260479E-09  2.538288E-13
       361  17  9.172218E+02  9.515342E+05  4.476153E+04 -1.432960E+05 -1.038244E-09 -4.697404E-09
       361  18  9.020094E+04  1.275667E+06  1.303022E+05 -2.151806E+05 -1.547643E-09 -5.211202E-09
       361  19  8.537517E+04  1.270296E+06  1.183073E+05 -2.146651E+05 -1.572117E+04  3.472237E+02
       361  20 -3.957277E+02  9.461606E+05  4.358373E+04 -1.427704E+05  7.128182E+01  2.257438E+04
       361  21 -6.763176E+04  6.287700E+05 -1.226755E+04 -2.036959E+05  1.585627E+04  4.479048E+04
       361  22  7.775413E+03  9.521733E+05  4.820588E+04 -2.094471E+05 -1.567807E+04 -1.413563E+04
       361  23  2.606965E+02  9.488472E+05  4.417227E+04 -1.430332E+05  1.141436E+02  8.097926E+03
       361  24  1.128816E+04  9.521695E+05  5.902063E+04 -2.094367E+05  1.589889E+04  3.033152E+04
       361  25 -6.983093E+04  6.341451E+05 -2.190098E+04 -2.042317E+05 -1.563521E+04 -2.861117E+04
       361  26  9.172327E+02  9.515342E+05  4.476161E+04 -1.432960E+05  1.570174E+02 -6.378591E+03
       361  27  9.020128E+04  1.275667E+06  1.303032E+05 -2.151804E+05  1.594176E+04  1.586513E+04
       362   1 -1.507426E+05  3.762686E+05 -5.958947E+04 -2.355782E+05 -2.952974E+04 -6.469280E+04
       362   2 -2.216261E+05  3.090988E+04 -9.425732E+04 -1.094477E+05 -3.867734E+04 -9.085188E+04
       362   3 -1.124567E+05 -2.663325E+05 -6.697072E+04 -1.148127E+05 -1.351244E+04 -1.169178E+05
       362   4 -8.011253E+03  9.625088E+05  6.917304E+04 -2.092696E+05 -2.960084E+04 -4.067216E+04
       362   5  4.725077E+01  9.357077E+05  1.087576E+05 -1.432991E+05 -3.864971E+04 -9.820156E+04
       362   6  1.934420E+05  9.622526E+05  2.319825E+05 -2.087845E+05 -1.340341E+04 -1.556531E+05
       362   7  1.347001E+05  1.549073E+06  1.979172E+05 -1.829355E+05 -2.966987E+04 -1.662911E+04
       362   8  2.216689E+05  1.841269E+06  3.117215E+05 -1.771997E+05 -3.862131E+04 -1.055618E+05
       362   9  4.992630E+05  2.192236E+06  5.308365E+05 -3.029418E+05 -1.328279E+04 -1.944647E+05
       362  10 -1.507446E+05  3.762638E+05 -5.959897E+04 -2.355798E+05 -2.140879E-10 -2.517297E-10
       362  11 -2.216299E+05  3.090061E+04 -9.427564E+04 -1.094505E+05 -9.229421E-10 -2.814171E-09
       362  12 -1.124605E+05 -2.663473E+05 -6.699677E+04 -1.148139E+05 -1.109644E-09 -1.174996E-09
       362  13 -8.012638E+03  9.625068E+05  6.916829E+04 -2.092706E+05 -2.462587E-09 -3.131833E-09
       362  14  4.306093E+01  9.356970E+05  1.087367E+05 -1.433021E+05  4.455458E-10 -5.440342E-09
       362  15  1.934353E+05  9.622265E+05  2.319367E+05 -2.087862E+05 -1.093323E-09 -3.372929E-10
       362  16  1.346991E+05  1.549072E+06  1.979150E+05 -1.829359E+05  7.027696E-11  1.189690E-09
       362  17  2.216643E+05  1.841257E+06  3.116978E+05 -1.772030E+05 -2.316764E-10 -3.636668E-09
       362  18  4.992527E+05  2.192195E+06  5.307653E+05 -3.029439E+05 -9.439802E-10 -2.602650E-09
       362  19 -1.507426E+05  3.762686E+05 -5.958947E+04 -2.355782E+05  2.952974E+04  6.469280E+04
       362  20 -2.216261E+05  3.090988E+04 -9.425732E+04 -1.094477E+05  3.867734E+04  9.085188E+04
       362  21 -1.124567E+05 -2.663325E+05 -6.697072E+04 -1.148127E+05  1.351244E+04  1.169178E+05
       362  22 -8.011253E+03  9.625088E+05  6.917304E+04 -2.092696E+05  2.960084E+04  4.067216E+04
       362  23  4.725077E+01  9.357077E+05  1.087576E+05 -1.432991E+05  3.864971E+04  9.820156E+04
       362  24  1.934420E+05  9.622526E+05  2.319825E+05 -2.087845E+05  1.340341E+04  1.556531E+05
       362  25  1.347001E+05  1.549073E+06  1.979172E+05 -1.829355E+05  2.966987E+04  1.662911E+04
       362  26  2.216689E+05  1.841269E+06  3.117215E+05 -1.771997E+05  3.862131E+04  1.055618E+05
       362  27  4.992630E+05  2.192236E+06  5.308365E+05 -3.029418E+05  1.328279E+04  1.944647E+05
       363   1  5.562928E+05  1.936118E+05  1.116419E+05  1.766240E+05 -3.139531E+02 -9.212695E+03
       363   2  5.222221E+05  2.055056E+05  1.112128E+05  1.568037E+05  1.554379E+03 -2.802953E+04
       363   3  4.662924E+05  2.034656E+05  1.068923E+05  1.587119E+05 -2.579153E+03 -3.093501E+04
       363   4 -1.699578E+04 -9.326195E+03 -3.870691E+04  3.326605E+04 -2.169992E+04 -1.728173E+04
       363   5 -2.592965E+03  1.382885E+04 -1.678487E+04  1.680390E+04 -6.238707E+03 -3.097332E+04
       363   6 -1.275388E+04  2.034477E+04 -9.531139E+03  2.207366E+04  3.217884E+03 -2.874708E+04
       363   7 -5.899570E+05 -2.122498E+05 -1.890786E+05 -1.099742E+05 -4.306376E+04 -2.534358E+04
       363   8 -5.271319E+05 -1.778300E+05 -1.448015E+05 -1.230885E+05 -1.402452E+04 -3.391452E+04
       363   9 -4.915724E+05 -1.627564E+05 -1.259714E+05 -1.144675E+05  9.010044E+03 -2.656110E+04
       363  10  5.562928E+05  1.936117E+05  1.116418E+05  1.766240E+05  9.068787E-10 -3.677969E-10
       363  11  5.222219E+05  2.055048E+05  1.112113E+05  1.568038E+05 -1.078335E-09 -6.785426E-09
       363  12  4.662922E+05  2.034645E+05  1.068905E+05  1.587119E+05  4.099901E-10 -6.086152E-09
       363  13 -1.699637E+04 -9.326642E+03 -3.870836E+04  3.326575E+04  1.103798E-09  2.058888E-09
       363  14 -2.593264E+03  1.382781E+04 -1.678674E+04  1.680375E+04 -1.045807E-09 -4.015069E-09
       363  15 -1.275412E+04  2.034388E+04 -9.532712E+03  2.207374E+04  5.077648E-10 -3.529419E-09
       363  16 -5.899591E+05 -2.122510E+05 -1.890833E+05 -1.099750E+05 -6.523859E-10 -1.407890E-10
       363  17 -5.271324E+05 -1.778313E+05 -1.448040E+05 -1.230889E+05  9.006647E-10 -3.586633E-09
       363  18 -4.915727E+05 -1.627572E+05 -1.259729E+05 -1.144673E+05  3.929916E-09 -9.343869E-10
       363  19  5.562928E+05  1.936118E+05  1.116419E+05  1.766240E+05  3.139531E+02  9.212695E+03
       363  20  5.222221E+05  2.055056E+05  1.112128E+05  1.568037E+05 -1.554379E+03  2.802953E+04
       363  21  4.662924E+05  2.034656E+05  1.068923E+05  1.587119E+05  2.579153E+03  3.093501E+04
       363  22 -1.699578E+04 -9.326195E+03 -3.870691E+04  3.326605E+04  2.169992E+04  1.728173E+04
       363  23 -2.592965E+03  1.382885E+04 -1.678487E+04  1.680390E+04  6.238707E+03  3.097332E+04
       363  24 -1.275388E+04  2.034477E+04 -9.531139E+03  2.207366E+04 -3.217884E+03  2.874708E+04
       363  25 -5.899570E+05 -2.122498E+05 -1.890786E+05 -1.099742E+05  4.306376E+04  2.534358E+04
       363  26 -5.271319E+05 -1.778300E+05 -1.448015E+05 -1.230885E+05  1.402452E+04  3.391452E+04
       363  27 -4.915724E+05 -1.627564E+05 -1.259714E+05 -1.144675E+05 -9.010044E+03  2.656110E+04
       364   1  4.363370E+05  1.843344E+05  1.011897E+05  1.470380E+05  2.327748E+03 -2.570668E+04
       364   2  4.026731E+05  1.648802E+05  9.469510E+04  1.284128E+05  3.117755E+03 -2.367657E+04
       364   3  3.552416E+05  1.567398E+05  8.674004E+04  1.249688E+05  3.636499E+03 -2.093281E+04
       364   4 -1.165370E+04  1.754861E+04 -7.559777E+03  2.401226E+04  3.320847E+03 -2.533299E+04
       364   5 -4.573745E+03  1.286348E+04 -3.880478E+03  1.607914E+04  4.719533E+03 -2.307237E+04
       364   6 -1.138412E+04  1.937126E+04 -2.144976E+03  2.332736E+04  5.846968E+03 -2.009783E+04
       364   7 -4.594486E+05 -1.492242E+05 -1.163248E+05 -9.893366E+04  4.313172E+03 -2.495959E+04
       364   8 -4.116578E+05 -1.391419E+05 -1.024686E+05 -9.618792E+04  6.320171E+03 -2.246861E+04
       364   9 -3.778770E+05 -1.179876E+05 -9.103998E+04 -7.825948E+04  8.056015E+03 -1.926338E+04
       364  10  4.363368E+05  1.843336E+05  1.011884E+05  1.470381E+05 -1.492659E-08 -1.253685E-08
       364  11  4.026730E+05  1.648796E+05  9.469403E+04  1.284129E+05 -2.331668E-09 -9.336823E-09
       364  12  3.552414E+05  1.567393E+05  8.673919E+04  1.249689E+05  1.107769E-08  2.041478E-10
       364  13 -1.165389E+04  1.754792E+04 -7.561004E+03  2.401233E+04  3.000952E-10 -8.190933E-09
       364  14 -4.573911E+03  1.286290E+04 -3.881521E+03  1.607923E+04  1.790615E-09  6.688265E-09
       364  15 -1.138426E+04  1.937081E+04 -2.145799E+03  2.332745E+04 -3.166317E-10 -1.008722E-08
       364  16 -4.594488E+05 -1.492249E+05 -1.163260E+05 -9.893357E+04  1.664869E-08  2.576698E-09
       364  17 -4.116580E+05 -1.391425E+05 -1.024697E+05 -9.618781E+04  1.931791E-09 -1.837869E-09
       364  18 -3.778772E+05 -1.179880E+05 -9.104080E+04 -7.825936E+04 -1.043752E-08 -3.507549E-09
       364  19  4.363370E+05  1.843344E+05  1.011897E+05  1.470380E+05 -2.327748E+03  2.570668E+04
       364  20  4.026731E+05  1.648802E+05  9.469510E+04  1.284128E+05 -3.117755E+03  2.367657E+04
       364  21  3.552416E+05  1.567398E+05  8.674004E+04  1.249688E+05 -3.636499E+03  2.093281E+04
       364  22 -1.165370E+04  1.754861E+04 -7.559777E+03  2.401226E+04 -3.320847E+03  2.533299E+04
       364  23 -4.573745E+03  1.286348E+04 -3.880478E+03  1.607914E+04 -4.719533E+03  2.307237E+04
       364  24 -1.138412E+04  1.937126E+04 -2.144976E+03  2.332736E+04 -5.846968E+03  2.009783E+04
       364  25 -4.594486E+05 -1.492242E+05 -1.163248E+05 -9.893366E+04 -4.313172E+03  2.495959E+04
       364  26 -4.116578E+05 -1.391419E+05 -1.024686E+05 -9.618792E+04 -6.320171E+03  2.246861E+04
       364  27 -3.778770E+05 -1.179876E+05 -9.103998E+04 -7.825948E+04 -8.056015E+03  1.926338E+04
       365   1  3.212896E+05  1.435216E+05  7.872786E+04  1.154020E+05  3.601810E+03 -1.927653E+04
       365   2  2.875535E+05  1.221060E+05  6.985858E+04  9.686909E+04  3.122266E+03 -1.677187E+04
       365   3  2.407121E+05  1.136297E+05  6.066489E+04  9.312877E+04  2.629583E+03 -1.423562E+04
       365   4 -1.128462E+04  1.920781E+04 -1.629629E+03  2.345148E+04  5.596416E+03 -1.852285E+04
       365   5 -4.715298E+03  1.280276E+04 -8.716489E+02  1.603335E+04  5.143748E+03 -1.600756E+04
       365   6 -1.125898E+04  1.933214E+04 -4.596257E+02  2.340789E+04  4.677963E+03 -1.346065E+04
       365   7 -3.437478E+05 -1.050974E+05 -8.199482E+04 -6.845382E+04  7.589848E+03 -1.776960E+04
       365   8 -2.968996E+05 -9.649431E+04 -7.160819E+04 -6.476779E+04  7.164193E+03 -1.524364E+04
       365   9 -2.631685E+05 -7.496133E+04 -6.158919E+04 -4.628760E+04  6.725447E+03 -1.268602E+04
       365  10  3.212894E+05  1.435212E+05  7.872714E+04  1.154021E+05  3.951655E-09 -6.405253E-10
       365  11  2.875534E+05  1.221057E+05  6.985804E+04  9.686913E+04 -2.274858E-09  6.656303E-09
       365  12  2.407120E+05  1.136295E+05  6.066449E+04  9.312880E+04 -6.086730E-09 -1.643126E-10
       365  13 -1.128475E+04  1.920743E+04 -1.630333E+03  2.345156E+04  3.945947E-10 -5.215022E-09
       365  14 -4.715395E+03  1.280248E+04 -8.721802E+02  1.603341E+04  7.093233E-10 -3.171161E-09
       365  15 -1.125905E+04  1.933194E+04 -4.600073E+02  2.340794E+04 -2.723434E-09  5.006607E-09
       365  16 -3.437479E+05 -1.050978E+05 -8.199552E+04 -6.845372E+04 -3.364942E-09  4.060509E-09
       365  17 -2.968997E+05 -9.649458E+04 -7.160873E+04 -6.476770E+04 -3.957907E-10  7.271122E-09
       365  18 -2.631686E+05 -7.496151E+04 -6.158957E+04 -4.628753E+04  1.044448E-09  1.700367E-09
       365  19  3.212896E+05  1.435216E+05  7.872786E+04  1.154020E+05 -3.601810E+03  1.927653E+04
       365  20  2.875535E+05  1.221060E+05  6.985858E+04  9.686909E+04 -3.122266E+03  1.677187E+04
       365  21  2.407121E+05  1.136297E+05  6.066489E+04  9.312877E+04 -2.629583E+03  1.423562E+04
       365  22 -1.128462E+04  1.920781E+04 -1.629629E+03  2.345148E+04 -5.596416E+03  1.852285E+04
       365  23 -4.715298E+03  1.280276E+04 -8.716489E+02  1.603335E+04 -5.143748E+03  1.600756E+04
       365  24 -1.125898E+04  1.933214E+04 -4.596257E+02  2.340789E+04 -4.677963E+03  1.346065E+04
       365  25 -3.437478E+05 -1.050974E+05 -8.199482E+04 -6.845382E+04 -7.589848E+03  1.776960E+04
       365  26 -2.968996E+05 -9.649431E+04 -7.160819E+04 -6.476779E+04 -7.164193E+03  1.524364E+04
       365  27 -2.631685E+05 -7.496133E+04 -6.158919E+04 -4.628760E+04 -6.725447E+03  1.268602E+04
       366   1  2.064992E+05  1.007638E+05  5.222777E+04  8.367722E+04  2.177093E+03 -1.281390E+04
       366   2  1.727635E+05  7.921881E+04  4.281890E+04  6.514756E+04  1.341585E+03 -1.040112E+04
       366   3  1.259760E+05  7.072058E+04  3.336023E+04  6.138473E+04  5.049647E+02 -7.987206E+03
       366   4 -1.124700E+04  1.932498E+04 -3.317129E+02  2.341570E+04  4.215622E+03 -1.204242E+04
       366   5 -4.716484E+03  1.281120E+04 -1.384458E+02  1.602992E+04  3.381077E+03 -9.628997E+03
       366   6 -1.124009E+04  1.934384E+04  4.155252E+00  2.341042E+04  2.545423E+03 -7.214438E+03
       366   7 -2.289462E+05 -6.211035E+04 -5.289467E+04 -3.682659E+04  6.253371E+03 -1.127124E+04
       366   8 -1.821649E+05 -5.359397E+04 -4.309798E+04 -3.307482E+04  5.419927E+03 -8.857120E+03
       366   9 -1.484369E+05 -3.203128E+04 -3.335312E+04 -1.455607E+04  4.585378E+03 -6.441860E+03
       366  10  2.064991E+05  1.007636E+05  5.222746E+04  8.367724E+04  7.997162E-09  5.667328E-09
       366  11  1.727635E+05  7.921869E+04  4.281869E+04  6.514757E+04  4.429884E-09  2.450689E-09
       366  12  1.259760E+05  7.072051E+04  3.336011E+04  6.138473E+04  2.381166E-09 -2.116009E-09
       366  13 -1.124706E+04  1.932482E+04 -3.320188E+02  2.341574E+04 -2.890112E-09  2.923714E-10
       366  14 -4.716521E+03  1.281109E+04 -1.386416E+02  1.602994E+04  1.121646E-09  4.158894E-09
       366  15 -1.124011E+04  1.934378E+04  4.045268E+00  2.341043E+04  3.328642E-09 -1.592073E-10
       366  16 -2.289463E+05 -6.211050E+04 -5.289498E+04 -3.682653E+04 -1.100051E-08 -8.244007E-10
       366  17 -1.821649E+05 -5.359406E+04 -4.309818E+04 -3.307478E+04 -5.097212E-09 -4.678326E-09
       366  18 -1.484370E+05 -3.203133E+04 -3.335324E+04 -1.455604E+04  3.004902E-09  2.108786E-09
       366  19  2.064992E+05  1.007638E+05  5.222777E+04  8.367722E+04 -2.177093E+03  1.281390E+04
       366  20  1.727635E+05  7.921881E+04  4.281890E+04  6.514756E+04 -1.341585E+03  1.040112E+04
       366  21  1.259760E+05  7.072058E+04  3.336023E+04  6.138473E+04 -5.049647E+02  7.987206E+03
       366  22 -1.124700E+04  1.932498E+04 -3.317129E+02  2.341570E+04 -4.215622E+03  1.204242E+04
       366  23 -4.716484E+03  1.281120E+04 -1.384458E+02  1.602992E+04 -3.381077E+03  9.628997E+03
       366  24 -1.124009E+04  1.934384E+04  4.155253E+00  2.341042E+04 -2.545423E+03  7.214438E+03
       366  25 -2.289462E+05 -6.211035E+04 -5.289467E+04 -3.682659E+04 -6.253371E+03  1.127124E+04
       366  26 -1.821649E+05 -5.359397E+04 -4.309798E+04 -3.307482E+04 -5.419927E+03  8.857120E+03
       366  27 -1.484369E+05 -3.203128E+04 -3.335312E+04 -1.455607E+04 -4.585378E+03  6.441860E+03
       367   1  9.175514E+04  5.786895E+04  2.485812E+04  5.193628E+04 -2.754829E+01 -6.599092E+03
       367   2  5.802145E+04  3.630533E+04  1.541763E+04  3.340517E+04 -1.045615E+03 -4.253698E+03
       367   3  1.125087E+04  2.780900E+04  6.063587E+03  2.963976E+04 -2.063570E+03 -1.909204E+03
       367   4 -1.123465E+04  1.934482E+04  6.907972E+01  2.341266E+04  2.012570E+03 -5.826332E+03
       367   5 -4.714485E+03  1.281576E+04  2.294250E+02  1.602845E+04  9.937259E+02 -3.481130E+03
       367   6 -1.123196E+04  1.935442E+04  4.771170E+02  2.340960E+04 -2.501505E+01 -1.136827E+03
       367   7 -1.142145E+05 -1.917874E+04 -2.472087E+04 -5.106787E+03  4.052330E+03 -5.053707E+03
       367   8 -6.744669E+04 -1.067359E+04 -1.495910E+04 -1.346717E+03  3.032848E+03 -2.708644E+03
       367   9 -3.371429E+04  1.089987E+04 -5.109375E+03  1.717966E+04  2.013459E+03 -3.644807E+02
       367  10  9.175513E+04  5.786890E+04  2.485804E+04  5.193628E+04  6.405552E-09  3.124246E-09
       367  11  5.802145E+04  3.630531E+04  1.541759E+04  3.340517E+04 -2.461423E-10  3.545913E-09
       367  12  1.125087E+04  2.780899E+04  6.063572E+03  2.963975E+04 -2.123580E-09  2.257901E-09
       367  13 -1.123467E+04  1.934478E+04  6.900832E+01  2.341267E+04  3.015895E-09  9.345287E-10
       367  14 -4.714490E+03  1.281574E+04  2.294004E+02  1.602845E+04 -1.959187E-09 -8.581153E-10
       367  15 -1.123196E+04  1.935441E+04  4.771146E+02  2.340960E+04 -2.015277E-09  4.560735E-11
       367  16 -1.142145E+05 -1.917877E+04 -2.472095E+04 -5.106771E+03  1.271499E-09 -5.315815E-10
       367  17 -6.744670E+04 -1.067360E+04 -1.495913E+04 -1.346711E+03  1.316748E-09  8.067559E-09
       367  18 -3.371429E+04  1.089987E+04 -5.109383E+03  1.717966E+04  2.657335E-09 -5.810203E-09
       367  19  9.175514E+04  5.786895E+04  2.485812E+04  5.193628E+04  2.754829E+01  6.599092E+03
       367  20  5.802145E+04  3.630533E+04  1.541763E+04  3.340517E+04  1.045615E+03  4.253698E+03
       367  21  1.125087E+04  2.780900E+04  6.063587E+03  2.963976E+04  2.063570E+03  1.909204E+03
       367  22 -1.123465E+04  1.934482E+04  6.907972E+01  2.341266E+04 -2.012570E+03  5.826332E+03
       367  23 -4.714485E+03  1.281576E+04  2.294250E+02  1.602845E+04 -9.937259E+02  3.481130E+03
       367  24 -1.123196E+04  1.935442E+04  4.771170E+02  2.340960E+04  2.501505E+01  1.136827E+03
       367  25 -1.142145E+05 -1.917874E+04 -2.472087E+04 -5.106787E+03 -4.052330E+03  5.053707E+03
       367  26 -6.744669E+04 -1.067359E+04 -1.495910E+04 -1.346717E+03 -3.032848E+03  2.708644E+03
       367  27 -3.371429E+04  1.089987E+04 -5.109375E+03  1.717966E+04 -2.013459E+03  3.644807E+02
       368   1 -2.296514E+04  1.496301E+04 -2.330024E+03  2.022201E+04 -2.689456E+03 -5.545372E+02
       368   2 -5.673243E+04 -6.632243E+03 -1.138456E+04  1.662301E+03 -4.175864E+03  1.609105E+03
       368   3 -1.034187E+05 -1.500842E+04 -1.996346E+04 -2.148498E+03 -5.654909E+03  3.754082E+03
       368   4 -1.121144E+04  1.934415E+04  6.493618E+02  2.342273E+04 -6.453414E+02  2.199494E+02
       368   5 -4.744207E+03  1.279769E+04  1.198372E+03  1.602390E+04 -2.147853E+03  2.377400E+03
       368   6 -1.119430E+04  1.947322E+04  2.235801E+03  2.337320E+04 -3.643049E+03  4.516183E+03
       368   7  5.423481E+02  2.372529E+04  3.628739E+03  2.662348E+04  1.398806E+03  9.944479E+02
       368   8  4.724669E+04  3.222782E+04  1.378112E+04  3.038660E+04 -1.196558E+02  3.145766E+03
       368   9  8.103896E+04  5.395565E+04  2.443458E+04  4.889847E+04 -1.630853E+03  5.278411E+03
       368  10 -2.296515E+04  1.496300E+04 -2.330038E+03  2.022201E+04 -3.203740E-09 -2.497323E-09
       368  11 -5.673245E+04 -6.632250E+03 -1.138459E+04  1.662306E+03 -2.005697E-10 -6.679164E-10
       368  12 -1.034187E+05 -1.500844E+04 -1.996355E+04 -2.148480E+03  9.901059E-11  3.153175E-09
       368  13 -1.121144E+04  1.934415E+04  6.493609E+02  2.342273E+04 -1.959166E-09  1.479452E-09
       368  14 -4.744213E+03  1.279768E+04  1.198353E+03  1.602391E+04 -4.759278E-09  1.967581E-09
       368  15 -1.119432E+04  1.947320E+04  2.235738E+03  2.337321E+04  4.810045E-10 -1.793310E-10
       368  16  5.423457E+02  2.372528E+04  3.628733E+03  2.662348E+04  3.048093E-09  7.128121E-09
       368  17  4.724669E+04  3.222781E+04  1.378110E+04  3.038660E+04  9.085413E-10  4.199364E-09
       368  18  8.103895E+04  5.395562E+04  2.443453E+04  4.889847E+04  1.198554E-09  3.694396E-11
       368  19 -2.296514E+04  1.496301E+04 -2.330024E+03  2.022201E+04  2.689456E+03  5.545372E+02
       368  20 -5.673243E+04 -6.632243E+03 -1.138456E+04  1.662301E+03  4.175864E+03 -1.609105E+03
       368  21 -1.034187E+05 -1.500842E+04 -1.996346E+04 -2.148498E+03  5.654909E+03 -3.754082E+03
       368  22 -1.121144E+04  1.934415E+04  6.493618E+02  2.342273E+04  6.453414E+02 -2.199494E+02
       368  23 -4.744207E+03  1.279769E+04  1.198372E+03  1.602390E+04  2.147853E+03 -2.377400E+03
       368  24 -1.119430E+04  1.947322E+04  2.235801E+03  2.337320E+04  3.643049E+03 -4.516183E+03
       368  25  5.423481E+02  2.372529E+04  3.628739E+03  2.662348E+04 -1.398806E+03 -9.944479E+02
       368  26  4.724669E+04  3.222782E+04  1.378112E+04  3.038660E+04  1.196558E+02 -3.145766E+03
       368  27  8.103896E+04  5.395565E+04  2.443458E+04  4.889847E+04  1.630853E+03 -5.278411E+03
       369   1 -1.377944E+05 -2.778847E+04 -2.779829E+04 -1.109196E+04 -6.737483E+03  4.980705E+03
       369   2 -1.715139E+05 -4.985700E+04 -3.509512E+04 -3.031203E+04 -9.941567E+03  6.392025E+03
       369   3 -2.170354E+05 -5.642048E+04 -3.998484E+04 -3.532335E+04 -1.298682E+04  7.386189E+03
       369   4 -1.104133E+04  1.924057E+04  2.944833E+03  2.353846E+04 -4.599723E+03  5.790394E+03
       369   5 -5.002101E+03  1.266896E+04  5.301740E+03  1.597331E+04 -8.160895E+03  7.066190E+03
       369   6 -1.069627E+04  2.167224E+04  1.034842E+04  2.261593E+04 -1.156341E+04  7.924828E+03
       369   7  1.157276E+05  6.627067E+04  3.368677E+04  5.817528E+04 -2.461486E+03  6.600260E+03
       369   8  1.615366E+05  7.519680E+04  4.569643E+04  6.226985E+04 -6.379707E+03  7.740552E+03
       369   9  1.956839E+05  9.976786E+04  6.067819E+04  8.057253E+04 -1.013950E+04  8.463665E+03
       369  10 -1.377945E+05 -2.778851E+04 -2.779842E+04 -1.109194E+04 -5.179489E-09 -4.980568E-09
       369  11 -1.715140E+05 -4.985707E+04 -3.509538E+04 -3.031198E+04  7.710499E-10 -4.733780E-09
       369  12 -2.170356E+05 -5.642059E+04 -3.998525E+04 -3.532328E+04  1.640500E-09 -1.906208E-09
       369  13 -1.104136E+04  1.924053E+04  2.944731E+03  2.353848E+04  1.264244E-09 -1.161652E-09
       369  14 -5.002186E+03  1.266889E+04  5.301521E+03  1.597336E+04 -4.158509E-09 -2.720541E-09
       369  15 -1.069643E+04  2.167214E+04  1.034805E+04  2.261600E+04 -7.437619E-11  7.595214E-09
       369  16  1.157276E+05  6.627063E+04  3.368668E+04  5.817529E+04  8.307154E-09  4.427896E-09
       369  17  1.615366E+05  7.519673E+04  4.569624E+04  6.226989E+04 -2.776655E-09  1.844577E-09
       369  18  1.956838E+05  9.976776E+04  6.067786E+04  8.057260E+04 -1.083521E-10 -1.391598E-09
       369  19 -1.377944E+05 -2.778847E+04 -2.779829E+04 -1.109196E+04  6.737483E+03 -4.980705E+03
       369  20 -1.715139E+05 -4.985700E+04 -3.509512E+04 -3.031203E+04  9.941567E+03 -6.392025E+03
       369  21 -2.170354E+05 -5.642048E+04 -3.998484E+04 -3.532335E+04  1.298682E+04 -7.386189E+03
       369  22 -1.104133E+04  1.924057E+04  2.944833E+03  2.353846E+04  4.599723E+03 -5.790394E+03
       369  23 -5.002101E+03  1.266896E+04  5.301740E+03  1.597331E+04  8.160895E+03 -7.066190E+03
       369  24 -1.069627E+04  2.167224E+04  1.034842E+04  2.261593E+04  1.156341E+04 -7.924828E+03
       369  25  1.157276E+05  6.627067E+04  3.368677E+04  5.817528E+04  2.461486E+03 -6.600260E+03
       369  26  1.615366E+05  7.519680E+04  4.569643E+04  6.226985E+04  6.379707E+03 -7.740552E+03
       369  27  1.956839E+05  9.976786E+04  6.067819E+04  8.057253E+04  1.013950E+04 -8.463665E+03
       370   1 -2.545990E+05 -6.840530E+04 -4.532458E+04 -3.690616E+04 -1.833499E+04  7.996025E+03
       370   2 -2.845899E+05 -9.829387E+04 -4.618474E+04 -6.746993E+04 -2.281748E+04  6.648957E+03
       370   3 -3.121591E+05 -7.698557E+04 -3.320283E+04 -9.388306E+04 -2.377926E+04 -4.002898E+03
       370   4 -8.970307E+03  1.762289E+04  1.305125E+04  2.503930E+04 -1.410580E+04  9.596884E+03
       370   5 -8.061913E+03  1.153536E+04  2.294928E+04  1.528291E+04 -2.653535E+04  5.241095E+03
       370   6 -3.163627E+03  5.820886E+04  5.298710E+04  9.678416E+03 -3.544551E+04 -8.417776E+03
       370   7  2.367198E+05  1.036542E+05  7.142334E+04  8.700672E+04 -9.874754E+03  1.119835E+04
       370   8  2.685414E+05  1.213725E+05  9.207725E+04  9.807014E+04 -3.025501E+04  3.832459E+03
       370   9  3.059223E+05  1.934175E+05  1.391678E+05  1.132887E+05 -4.711803E+04 -1.283589E+04
       370  10 -2.545993E+05 -6.840546E+04 -4.532533E+04 -3.690604E+04 -7.249660E-10  1.642697E-09
       370  11 -2.845905E+05 -9.829406E+04 -4.618581E+04 -6.746981E+04  9.943280E-10  9.772141E-09
       370  12 -3.121597E+05 -7.698574E+04 -3.320392E+04 -9.388314E+04  3.896405E-10 -1.970258E-09
       370  13 -8.970545E+03  1.762273E+04  1.305070E+04  2.503941E+04  9.597908E-10 -7.305482E-09
       370  14 -8.062676E+03  1.153515E+04  2.294791E+04  1.528302E+04  2.824104E-09  6.416140E-09
       370  15 -3.164996E+03  5.820844E+04  5.298461E+04  9.678176E+03 -7.497426E-10  1.356536E-09
       370  16  2.367196E+05  1.036541E+05  7.142292E+04  8.700681E+04  2.190623E-09 -1.090289E-09
       370  17  2.685404E+05  1.213722E+05  9.207551E+04  9.807023E+04  1.441548E-10 -1.252052E-09
       370  18  3.059199E+05  1.934167E+05  1.391633E+05  1.132883E+05 -9.510392E-10 -2.573887E-09
       370  19 -2.545990E+05 -6.840530E+04 -4.532458E+04 -3.690616E+04  1.833499E+04 -7.996025E+03
       370  20 -2.845899E+05 -9.829387E+04 -4.618474E+04 -6.746993E+04  2.281748E+04 -6.648957E+03
       370  21 -3.121591E+05 -7.698557E+04 -3.320283E+04 -9.388306E+04  2.377926E+04  4.002898E+03
       370  22 -8.970307E+03  1.762289E+04  1.305125E+04  2.503930E+04  1.410580E+04 -9.596884E+03
       370  23 -8.061913E+03  1.153536E+04  2.294928E+04  1.528291E+04  2.653535E+04 -5.241095E+03
       370  24 -3.163627E+03  5.820886E+04  5.298710E+04  9.678416E+03  3.544551E+04  8.417776E+03
       370  25  2.367198E+05  1.036542E+05  7.142334E+04  8.700672E+04  9.874754E+03 -1.119835E+04
       370  26  2.685414E+05  1.213725E+05  9.207725E+04  9.807014E+04  3.025501E+04 -3.832459E+03
       370  27  3.059223E+05  1.934175E+05  1.391678E+05  1.132887E+05  4.711803E+04  1.283589E+04
       371   1  1.279021E+05  4.629011E+04  3.382839E+04 -1.407318E+03 -2.685643E+04 -5.155886E+03
       371   2  9.923013E+04  8.643872E+04  5.127580E+04  6.995234E+03 -2.156941E+04 -1.601183E+04
       371   3  5.826126E+04  8.037532E+04  5.373923E+04  2.939808E+04 -1.631310E+04 -1.667539E+04
       371   4 -2.605296E+05 -5.004849E+04 -6.023674E+04  2.157408E+04 -4.140321E+04 -5.200614E+03
       371   5 -2.535629E+05  1.888885E+02 -2.744986E+04  1.449257E+04 -2.682672E+04 -1.602907E+04
       371   6 -2.605157E+05  2.586012E+03 -1.610626E+04  2.141234E+04 -1.228039E+04 -1.666282E+04
       371   7 -6.488217E+05 -1.463960E+05 -1.543116E+05  4.454096E+04 -5.594090E+04 -5.246433E+03
       371   8 -6.062398E+05 -8.606915E+04 -1.061832E+05  2.198552E+04 -3.208106E+04 -1.604645E+04
       371   9 -5.791973E+05 -7.520986E+04 -8.595783E+04  1.343068E+04 -8.249726E+03 -1.665036E+04
       371  10  1.279013E+05  4.628989E+04  3.382698E+04 -1.407430E+03 -8.360034E-09  2.752688E-09
       371  11  9.922956E+04  8.643832E+04  5.127445E+04  6.994956E+03 -4.011596E-09  1.132325E-08
       371  12  5.826090E+04  8.037495E+04  5.373821E+04  2.939786E+04  1.341284E-09  5.063142E-09
       371  13 -2.605314E+05 -5.004898E+04 -6.024001E+04  2.157391E+04 -3.621321E-10 -3.790996E-09
       371  14 -2.535638E+05  1.884193E+02 -2.745169E+04  1.449223E+04 -9.091256E-11 -6.826875E-09
       371  15 -2.605159E+05  2.585674E+03 -1.610706E+04  2.141218E+04 -7.074101E-10  3.600788E-09
       371  16 -6.488251E+05 -1.463968E+05 -1.543176E+05  4.454073E+04  7.122313E-09  1.951777E-10
       371  17 -6.062410E+05 -8.606970E+04 -1.061856E+05  2.198510E+04  1.212465E-09  1.055370E-08
       371  18 -5.791974E+05 -7.521017E+04 -8.595848E+04  1.343056E+04 -2.479126E-09  5.365128E-10
       371  19  1.279021E+05  4.629011E+04  3.382839E+04 -1.407318E+03  2.685643E+04  5.155886E+03
       371  20  9.923013E+04  8.643872E+04  5.127580E+04  6.995234E+03  2.156941E+04  1.601183E+04
       371  21  5.826126E+04  8.037532E+04  5.373923E+04  2.939808E+04  1.631310E+04  1.667539E+04
       371  22 -2.605296E+05 -5.004849E+04 -6.023674E+04  2.157408E+04  4.140321E+04  5.200614E+03
       371  23 -2.535629E+05  1.888885E+02 -2.744986E+04  1.449257E+04  2.682672E+04  1.602907E+04
       371  24 -2.605157E+05  2.586012E+03 -1.610626E+04  2.141234E+04  1.228039E+04  1.666282E+04
       371  25 -6.488217E+05 -1.463960E+05 -1.543116E+05  4.454096E+04  5.594090E+04  5.246433E+03
       371  26 -6.062398E+05 -8.606915E+04 -1.061832E+05  2.198552E+04  3.208106E+04  1.604645E+04
       371  27 -5.791973E+05 -7.520986E+04 -8.595783E+04  1.343068E+04  8.249726E+03  1.665036E+04
       372   1  3.255551E+04  6.821066E+04  5.110606E+04  2.130813E+04 -1.107175E+04 -1.462088E+04
       372   2 -1.627012E+03  6.247876E+04  4.911656E+04  1.477275E+04 -8.015185E+03 -1.321378E+04
       372   3 -3.695076E+04  5.415659E+04  4.446818E+04  2.263368E+04 -4.960924E+03 -1.134865E+04
       372   4 -2.576900E+05 -2.622167E+03 -1.280351E+04  2.154766E+04 -1.000330E+04 -1.461789E+04
       372   5 -2.570791E+05  1.722799E+02 -6.925793E+03  1.434440E+04 -6.530507E+03 -1.320919E+04
       372   6 -2.576840E+05  3.033762E+02 -3.997169E+03  2.153786E+04 -3.059850E+03 -1.134237E+04
       372   7 -5.478568E+05 -7.346065E+04 -7.671823E+04  2.178702E+04 -8.935353E+03 -1.461489E+04
       372   8 -5.124701E+05 -6.213857E+04 -6.297211E+04  1.391618E+04 -5.046432E+03 -1.320460E+04
       372   9 -4.783716E+05 -5.355310E+04 -5.246548E+04  2.044240E+04 -1.159444E+03 -1.133610E+04
       372  10  3.255533E+04  6.821040E+04  5.110543E+04  2.130800E+04 -5.902594E-09 -7.533665E-10
       372  11 -1.627128E+03  6.247856E+04  4.911611E+04  1.477267E+04 -6.482074E-09  4.779252E-09
       372  12 -3.695082E+04  5.415645E+04  4.446789E+04  2.263363E+04 -1.619578E-09  7.269213E-09
       372  13 -2.576902E+05 -2.622423E+03 -1.280410E+04  2.154754E+04 -7.609972E-10  1.261288E-08
       372  14 -2.570792E+05  1.720811E+02 -6.926201E+03  1.434433E+04 -2.441289E-10 -2.224395E-08
       372  15 -2.576840E+05  3.032355E+02 -3.997428E+03  2.153783E+04 -6.757295E-10  6.660878E-09
       372  16 -5.478569E+05 -7.346090E+04 -7.671879E+04  2.178691E+04  4.789108E-09 -7.922831E-09
       372  17 -5.124702E+05 -6.213876E+04 -6.297248E+04  1.391613E+04  6.251791E-09 -3.920182E-09
       372  18 -4.783717E+05 -5.355323E+04 -5.246572E+04  2.044239E+04  2.725562E-09 -2.115689E-10
       372  19  3.255551E+04  6.821066E+04  5.110606E+04  2.130813E+04  1.107175E+04  1.462088E+04
       372  20 -1.627012E+03  6.247876E+04  4.911656E+04  1.477275E+04  8.015185E+03  1.321378E+04
       372  21 -3.695076E+04  5.415659E+04  4.446818E+04  2.263368E+04  4.960924E+03  1.134865E+04
       372  22 -2.576900E+05 -2.622167E+03 -1.280351E+04  2.154766E+04  1.000330E+04  1.461789E+04
       372  23 -2.570791E+05  1.722799E+02 -6.925793E+03  1.434440E+04  6.530507E+03  1.320919E+04
       372  24 -2.576840E+05  3.033762E+02 -3.997169E+03  2.153786E+04  3.059850E+03  1.134237E+04
       372  25 -5.478568E+05 -7.346065E+04 -7.671823E+04  2.178702E+04  8.935353E+03  1.461489E+04
       372  26 -5.124701E+05 -6.213857E+04 -6.297211E+04  1.391618E+04  5.046432E+03  1.320460E+04
       372  27 -4.783716E+05 -5.355310E+04 -5.246548E+04  2.044240E+04  1.159444E+03  1.133610E+04
       373   1 -6.516673E+04  4.689998E+04  3.899651E+04  2.210502E+04 -4.211689E+03 -1.015672E+04
       373   2 -9.986975E+04  3.852950E+04  3.277233E+04  1.479836E+04 -3.374993E+03 -8.202978E+03
       373   3 -1.348141E+05  3.010217E+04  2.596124E+04  2.194058E+04 -2.538802E+03 -6.227617E+03
       373   4 -2.574657E+05  1.870708E+01 -3.065351E+03  2.155241E+04 -2.442081E+03 -1.015076E+04
       373   5 -2.573413E+05  1.243914E+02 -1.740287E+03  1.432760E+04 -1.585946E+03 -8.196793E+03
       373   6 -2.574623E+05  1.699899E+02 -1.015611E+03  2.155188E+04 -7.302699E+02 -6.221195E+03
       373   7 -4.497301E+05 -4.686503E+04 -4.512944E+04  2.099995E+04 -6.730147E+02 -1.014481E+04
       373   8 -4.147897E+05 -3.828238E+04 -3.625439E+04  1.385693E+04  2.026524E+02 -8.190610E+03
       373   9 -3.800965E+05 -2.976320E+04 -2.799337E+04  2.116324E+04  1.077910E+03 -6.214775E+03
       373  10 -6.516678E+04  4.689986E+04  3.899628E+04  2.210499E+04  1.584274E-09 -8.856884E-09
       373  11 -9.986978E+04  3.852943E+04  3.277218E+04  1.479834E+04  7.684969E-09 -1.246839E-08
       373  12 -1.348141E+05  3.010213E+04  2.596116E+04  2.194057E+04  1.452866E-08 -5.238620E-09
       373  13 -2.574658E+05  1.859484E+01 -3.065556E+03  2.155239E+04  4.859144E-10 -6.668110E-09
       373  14 -2.573414E+05  1.243186E+02 -1.740418E+03  1.432759E+04  5.966052E-10 -8.218069E-09
       373  15 -2.574623E+05  1.699482E+02 -1.015684E+03  2.155187E+04 -1.507858E-10 -7.140004E-09
       373  16 -4.497301E+05 -4.686514E+04 -4.512963E+04  2.099995E+04 -1.989075E-09 -8.313411E-09
       373  17 -4.147897E+05 -3.828245E+04 -3.625452E+04  1.385693E+04 -8.138032E-09  3.385313E-09
       373  18 -3.800965E+05 -2.976324E+04 -2.799345E+04  2.116324E+04 -1.408453E-08  7.968584E-09
       373  19 -6.516673E+04  4.689998E+04  3.899651E+04  2.210502E+04  4.211689E+03  1.015672E+04
       373  20 -9.986975E+04  3.852950E+04  3.277233E+04  1.479836E+04  3.374993E+03  8.202978E+03
       373  21 -1.348141E+05  3.010217E+04  2.596124E+04  2.194058E+04  2.538802E+03  6.227617E+03
       373  22 -2.574657E+05  1.870708E+01 -3.065351E+03  2.155241E+04  2.442081E+03  1.015076E+04
       373  23 -2.573413E+05  1.243914E+02 -1.740287E+03  1.432760E+04  1.585946E+03  8.196793E+03
       373  24 -2.574623E+05  1.699899E+02 -1.015611E+03  2.155188E+04  7.302699E+02  6.221195E+03
       373  25 -4.497301E+05 -4.686503E+04 -4.512944E+04  2.099995E+04  6.730147E+02  1.014481E+04
       373  26 -4.147897E+05 -3.828238E+04 -3.625439E+04  1.385693E+04 -2.026524E+02  8.190610E+03
       373  27 -3.800965E+05 -2.976320E+04 -2.799337E+04  2.116324E+04 -1.077910E+03  6.214775E+03
       374   1 -1.632643E+05  2.310573E+04  1.975623E+04  2.183939E+04 -2.375304E+03 -5.073594E+03
       374   2 -1.980615E+05  1.457851E+04  1.251149E+04  1.450105E+04 -2.143105E+03 -3.094437E+03
       374   3 -2.329944E+05  6.144493E+03  5.108355E+03  2.162929E+04 -1.911074E+03 -1.113958E+03
       374   4 -2.574368E+05  1.572131E+02 -7.853304E+02  2.155595E+04 -5.720323E+02 -5.067120E+03
       374   5 -2.573677E+05  1.138736E+02 -4.863006E+02  1.432261E+04 -3.387069E+02 -3.087899E+03
       374   6 -2.574356E+05  1.636129E+02 -3.464389E+02  2.155592E+04 -1.055365E+02 -1.107351E+03
       374   7 -3.516011E+05 -2.279190E+04 -2.132742E+04  2.127255E+04  1.230969E+03 -5.060647E+03
       374   8 -3.166706E+05 -1.435099E+04 -1.348430E+04  1.414418E+04  1.465521E+03 -3.081361E+03
       374   9 -2.818762E+05 -5.817306E+03 -5.801258E+03  2.148256E+04  1.699931E+03 -1.100744E+03
       374  10 -1.632643E+05  2.310570E+04  1.975618E+04  2.183938E+04  1.440700E-08 -6.323933E-09
       374  11 -1.980615E+05  1.457850E+04  1.251147E+04  1.450104E+04  3.554975E-09  2.904290E-09
       374  12 -2.329944E+05  6.144491E+03  5.108346E+03  2.162928E+04 -4.325993E-09  2.727908E-09
       374  13 -2.574368E+05  1.571855E+02 -7.853793E+02  2.155595E+04 -1.301884E-11  5.620715E-09
       374  14 -2.573677E+05  1.138633E+02 -4.863188E+02  1.432261E+04 -3.202717E-10 -3.231761E-09
       374  15 -2.574356E+05  1.636116E+02 -3.464412E+02  2.155592E+04 -1.090945E-09  4.926206E-09
       374  16 -3.516011E+05 -2.279192E+04 -2.132747E+04  2.127255E+04 -1.449728E-08  8.152884E-09
       374  17 -3.166706E+05 -1.435101E+04 -1.348432E+04  1.414418E+04 -5.720298E-09  1.579552E-08
       374  18 -2.818762E+05 -5.817308E+03 -5.801266E+03  2.148257E+04  3.543947E-09  8.776193E-09
       374  19 -1.632643E+05  2.310573E+04  1.975623E+04  2.183939E+04  2.375304E+03  5.073594E+03
       374  20 -1.980615E+05  1.457851E+04  1.251149E+04  1.450105E+04  2.143105E+03  3.094437E+03
       374  21 -2.329944E+05  6.144493E+03  5.108355E+03  2.162929E+04  1.911074E+03  1.113958E+03
       374  22 -2.574368E+05  1.572131E+02 -7.853304E+02  2.155595E+04  5.720323E+02  5.067120E+03
       374  23 -2.573677E+05  1.138736E+02 -4.863006E+02  1.432261E+04  3.387069E+02  3.087899E+03
       374  24 -2.574356E+05  1.636129E+02 -3.464389E+02  2.155592E+04  1.055365E+02  1.107351E+03
       374  25 -3.516011E+05 -2.279190E+04 -2.132742E+04  2.127255E+04 -1.230969E+03  5.060647E+03
       374  26 -3.166706E+05 -1.435099E+04 -1.348430E+04  1.414418E+04 -1.465521E+03  3.081361E+03
       374  27 -2.818762E+05 -5.817306E+03 -5.801258E+03  2.148256E+04 -1.699931E+03  1.100744E+03
       375   1 -2.614841E+05 -8.439186E+02 -1.304877E+03  2.154743E+04 -1.855033E+03  3.890622E+01
       375   2 -2.962879E+05 -9.380132E+03 -8.867828E+03  1.421019E+04 -1.694162E+03  2.019388E+03
       375   3 -3.312176E+05 -1.781890E+04 -1.654191E+04  2.134159E+04 -1.533200E+03  3.998748E+03
       375   4 -2.574333E+05  1.636796E+02 -3.190165E+02  2.155635E+04 -4.947518E+01  4.552017E+01
       375   5 -2.573700E+05  1.123722E+02 -3.378870E+02  1.432207E+04  1.103197E+02  2.025955E+03
       375   6 -2.574341E+05  1.586399E+02 -4.672385E+02  2.155637E+04  2.702148E+02  4.005272E+03
       375   7 -2.533825E+05  1.171278E+03  6.668548E+02  2.156528E+04  1.756095E+03  5.213416E+01
       375   8 -2.184507E+05  9.604777E+03  8.191974E+03  1.443396E+04  1.914913E+03  2.032522E+03
       375   9 -1.836455E+05  1.813582E+04  1.560712E+04  2.177117E+04  2.073841E+03  4.011796E+03
       375  10 -2.614841E+05 -8.439195E+02 -1.304883E+03  2.154743E+04 -1.553085E-08  1.320506E-09
       375  11 -2.962880E+05 -9.380137E+03 -8.867841E+03  1.421019E+04 -3.039395E-09 -3.786040E-09
       375  12 -3.312176E+05 -1.781891E+04 -1.654194E+04  2.134159E+04  7.915342E-09 -7.748194E-09
       375  13 -2.574333E+05  1.636796E+02 -3.190165E+02  2.155635E+04 -7.036041E-10  1.133111E-08
       375  14 -2.573700E+05  1.123678E+02 -3.378948E+02  1.432207E+04 -5.264387E-10 -3.324364E-09
       375  15 -2.574341E+05  1.586227E+02 -4.672688E+02  2.155637E+04 -1.170890E-09 -2.460480E-09
       375  16 -2.533825E+05  1.171278E+03  6.668490E+02  2.156528E+04  1.411609E-08  9.951105E-10
       375  17 -2.184507E+05  9.604772E+03  8.191959E+03  1.443396E+04  1.987727E-09 -1.188081E-08
       375  18 -1.836455E+05  1.813580E+04  1.560708E+04  2.177116E+04 -7.628991E-09 -3.849453E-09
       375  19 -2.614841E+05 -8.439186E+02 -1.304877E+03  2.154743E+04  1.855033E+03 -3.890622E+01
       375  20 -2.962879E+05 -9.380132E+03 -8.867828E+03  1.421019E+04  1.694162E+03 -2.019388E+03
       375  21 -3.312176E+05 -1.781890E+04 -1.654191E+04  2.134159E+04  1.533200E+03 -3.998748E+03
       375  22 -2.574333E+05  1.636796E+02 -3.190165E+02  2.155635E+04  4.947518E+01 -4.552017E+01
       375  23 -2.573700E+05  1.123722E+02 -3.378870E+02  1.432207E+04 -1.103197E+02 -2.025955E+03
       375  24 -2.574341E+05  1.586399E+02 -4.672385E+02  2.155637E+04 -2.702148E+02 -4.005272E+03
       375  25 -2.533825E+05  1.171278E+03  6.668548E+02  2.156528E+04 -1.756095E+03 -5.213416E+01
       375  26 -2.184507E+05  9.604777E+03  8.191974E+03  1.443396E+04 -1.914913E+03 -2.032522E+03
       375  27 -1.836455E+05  1.813582E+04  1.560712E+04  2.177117E+04 -2.073841E+03 -4.011796E+03
       376   1 -3.597078E+05 -2.479766E+04 -2.309287E+04  2.124462E+04 -1.447844E+03  5.152811E+03
       376   2 -3.944468E+05 -3.332450E+04 -3.100939E+04  1.393211E+04 -9.611957E+02  7.128174E+03
       376   3 -4.293676E+05 -4.183987E+04 -3.926895E+04  2.107148E+04 -4.741494E+02  9.083091E+03
       376   4 -2.574468E+05  1.655479E+02 -5.809391E+02  2.155252E+04  3.605803E+02  5.159296E+03
       376   5 -2.573586E+05  1.152568E+02 -9.586046E+02  1.432683E+04  8.286535E+02  7.134446E+03
       376   6 -2.574497E+05  7.989269E+01 -1.666172E+03  2.155282E+04  1.297151E+03  9.089156E+03
       376   7 -1.551760E+05  2.512806E+04  2.193037E+04  2.186046E+04  2.169299E+03  5.165781E+03
       376   8 -1.202529E+05  3.355376E+04  2.909105E+04  1.472162E+04  2.618893E+03  7.140718E+03
       376   9 -8.550405E+04  4.199768E+04  3.593483E+04  2.203427E+04  3.068936E+03  9.095222E+03
       376  10 -3.597078E+05 -2.479769E+04 -2.309293E+04  2.124463E+04 -1.738508E-08 -4.702457E-09
       376  11 -3.944468E+05 -3.332456E+04 -3.100949E+04  1.393211E+04 -1.044964E-08 -1.336332E-08
       376  12 -4.293677E+05 -4.183996E+04 -3.926911E+04  2.107149E+04  2.103718E-09 -2.880781E-09
       376  13 -2.574468E+05  1.655193E+02 -5.809893E+02  2.155252E+04 -5.154436E-10 -3.419942E-10
       376  14 -2.573586E+05  1.152020E+02 -9.587015E+02  1.432682E+04  2.730589E-10  1.072880E-09
       376  15 -2.574497E+05  7.980354E+01 -1.666331E+03  2.155281E+04 -1.046224E-09 -1.429964E-09
       376  16 -1.551760E+05  2.512803E+04  2.193031E+04  2.186046E+04  1.681366E-08  9.516730E-09
       376  17 -1.202529E+05  3.355370E+04  2.909094E+04  1.472160E+04  9.776780E-09 -4.953564E-09
       376  18 -8.550408E+04  4.199759E+04  3.593466E+04  2.203425E+04 -1.431362E-09  4.050959E-09
       376  19 -3.597078E+05 -2.479766E+04 -2.309287E+04  2.124462E+04  1.447844E+03 -5.152811E+03
       376  20 -3.944468E+05 -3.332450E+04 -3.100939E+04  1.393211E+04  9.611957E+02 -7.128174E+03
       376  21 -4.293676E+05 -4.183987E+04 -3.926895E+04  2.107148E+04  4.741494E+02 -9.083091E+03
       376  22 -2.574468E+05  1.655479E+02 -5.809391E+02  2.155252E+04 -3.605803E+02 -5.159296E+03
       376  23 -2.573586E+05  1.152568E+02 -9.586046E+02  1.432683E+04 -8.286535E+02 -7.134446E+03
       376  24 -2.574497E+05  7.989269E+01 -1.666172E+03  2.155282E+04 -1.297151E+03 -9.089156E+03
       376  25 -1.551760E+05  2.512806E+04  2.193037E+04  2.186046E+04 -2.169299E+03 -5.165781E+03
       376  26 -1.202529E+05  3.355376E+04  2.909105E+04  1.472162E+04 -2.618893E+03 -7.140718E+03
       376  27 -8.550405E+04  4.199768E+04  3.593483E+04  2.203427E+04 -3.068936E+03 -9.095222E+03
       377   1 -4.579218E+05 -4.866083E+04 -4.617725E+04  2.073266E+04 -2.654912E+02  1.027196E+04
       377   2 -4.923005E+05 -5.721946E+04 -5.533582E+04  1.385604E+04  2.004300E+03  1.214218E+04
       377   3 -5.274422E+05 -6.723901E+04 -6.636254E+04  2.138588E+04  4.275963E+03  1.357751E+04
       377   4 -2.575667E+05  2.332968E+02 -2.166462E+03  2.154111E+04  1.630493E+03  1.027834E+04
       377   5 -2.572218E+05  1.359776E+02 -3.745758E+03  1.434072E+04  3.504531E+03  1.214695E+04
       377   6 -2.575720E+05 -1.353070E+03 -6.917709E+03  2.154648E+04  5.380566E+03  1.358076E+04
       377   7 -5.717405E+04  4.912474E+04  4.184189E+04  2.234979E+04  3.527081E+03  1.028472E+04
       377   8 -2.209138E+04  5.748772E+04  4.784095E+04  1.482554E+04  5.005323E+03  1.215173E+04
       377   9  1.236639E+04  6.452798E+04  5.252266E+04  2.170709E+04  6.485643E+03  1.358401E+04
       377  10 -4.579218E+05 -4.866094E+04 -4.617745E+04  2.073266E+04  1.532052E-08 -1.962541E-09
       377  11 -4.923005E+05 -5.721962E+04 -5.533611E+04  1.385602E+04 -8.008000E-10  1.979811E-09
       377  12 -5.274423E+05 -6.723921E+04 -6.636292E+04  2.138584E+04 -1.175039E-08 -6.012218E-09
       377  13 -2.575667E+05  2.331826E+02 -2.166665E+03  2.154109E+04 -8.690951E-10 -9.326158E-09
       377  14 -2.572219E+05  1.358159E+02 -3.746058E+03  1.434069E+04 -1.608102E-09  3.826716E-09
       377  15 -2.575721E+05 -1.353276E+03 -6.918110E+03  2.154642E+04 -1.197761E-09 -2.023927E-09
       377  16 -5.717409E+04  4.912462E+04  4.184167E+04  2.234976E+04 -1.553221E-08 -4.632511E-09
       377  17 -2.209145E+04  5.748755E+04  4.784062E+04  1.482550E+04 -4.838736E-10 -1.466047E-08
       377  18  1.236629E+04  6.452777E+04  5.252223E+04  2.170702E+04  1.199017E-08  5.848540E-09
       377  19 -4.579218E+05 -4.866083E+04 -4.617725E+04  2.073266E+04  2.654912E+02 -1.027196E+04
       377  20 -4.923005E+05 -5.721946E+04 -5.533582E+04  1.385604E+04 -2.004300E+03 -1.214218E+04
       377  21 -5.274422E+05 -6.723901E+04 -6.636254E+04  2.138588E+04 -4.275963E+03 -1.357751E+04
       377  22 -2.575667E+05  2.332968E+02 -2.166462E+03  2.154111E+04 -1.630493E+03 -1.027834E+04
       377  23 -2.572218E+05  1.359776E+02 -3.745758E+03  1.434072E+04 -3.504531E+03 -1.214695E+04
       377  24 -2.575720E+05 -1.353070E+03 -6.917709E+03  2.154648E+04 -5.380566E+03 -1.358076E+04
       377  25 -5.717405E+04  4.912474E+04  4.184189E+04  2.234979E+04 -3.527081E+03 -1.028472E+04
       377  26 -2.209138E+04  5.748772E+04  4.784095E+04  1.482554E+04 -5.005323E+03 -1.215173E+04
       377  27  1.236639E+04  6.452798E+04  5.252266E+04  2.170709E+04 -6.485643E+03 -1.358401E+04
       378   1 -5.575136E+05 -7.136865E+04 -7.411003E+04  1.679945E+04  2.689880E+03  1.556607E+04
       378   2 -5.877646E+05 -8.119617E+04 -8.905676E+04  1.817556E+04  1.936822E+04  1.507573E+04
       378   3 -6.270923E+05 -1.183504E+05 -1.217129E+05  3.354594E+04  3.607451E+04  4.903453E+03
       378   4 -2.590964E+05  1.458139E+03 -8.700382E+03  2.142891E+04  6.607657E+03  1.557839E+04
       378   5 -2.553308E+05  1.373891E+02 -1.482868E+04  1.447619E+04  1.446636E+04  1.505951E+04
       378   6 -2.591069E+05 -2.697042E+04 -3.253405E+04  2.151802E+04  2.235425E+04  4.860566E+03
       378   7  3.940427E+04  7.427905E+04  5.670392E+04  2.606055E+04  1.052730E+04  1.559076E+04
       378   8  7.720614E+04  8.146351E+04  5.939254E+04  1.077474E+04  9.561890E+03  1.504335E+04
       378   9  1.090031E+05  6.440027E+04  5.663589E+04  9.482849E+03  8.625865E+03  4.818224E+03
       378  10 -5.575137E+05 -7.136891E+04 -7.411050E+04  1.679941E+04  1.417300E-09 -5.457749E-09
       378  11 -5.877650E+05 -8.119651E+04 -8.905789E+04  1.817532E+04  3.259257E-09 -4.575024E-09
       378  12 -6.270937E+05 -1.183507E+05 -1.217154E+05  3.354579E+04  4.943812E-09  4.868726E-09
       378  13 -2.590965E+05  1.457867E+03 -8.700921E+03  2.142882E+04 -1.863727E-11  3.169811E-09
       378  14 -2.553311E+05  1.370894E+02 -1.482950E+04  1.447601E+04  2.565414E-10  8.100566E-10
       378  15 -2.591074E+05 -2.697058E+04 -3.253503E+04  2.151793E+04 -1.123350E-09  4.854415E-09
       378  16  3.940408E+04  7.427876E+04  5.670325E+04  2.606042E+04 -2.046882E-09  1.163798E-08
       378  17  7.720598E+04  8.146324E+04  5.939195E+04  1.077462E+04 -4.053772E-09  7.885321E-09
       378  18  1.090030E+05  6.440022E+04  5.663570E+04  9.482816E+03 -5.111334E-09  1.587520E-09
       378  19 -5.575136E+05 -7.136865E+04 -7.411003E+04  1.679945E+04 -2.689880E+03 -1.556607E+04
       378  20 -5.877646E+05 -8.119617E+04 -8.905676E+04  1.817556E+04 -1.936822E+04 -1.507573E+04
       378  21 -6.270923E+05 -1.183504E+05 -1.217129E+05  3.354594E+04 -3.607451E+04 -4.903453E+03
       378  22 -2.590964E+05  1.458139E+03 -8.700382E+03  2.142891E+04 -6.607657E+03 -1.557839E+04
       378  23 -2.553308E+05  1.373891E+02 -1.482868E+04  1.447619E+04 -1.446636E+04 -1.505951E+04
       378  24 -2.591069E+05 -2.697042E+04 -3.253405E+04  2.151802E+04 -2.235425E+04 -4.860566E+03
       378  25  3.940427E+04  7.427905E+04  5.670392E+04  2.606055E+04 -1.052730E+04 -1.559076E+04
       378  26  7.720614E+04  8.146351E+04  5.939254E+04  1.077474E+04 -9.561890E+03 -1.504335E+04
       378  27  1.090031E+05  6.440027E+04  5.663589E+04  9.482849E+03 -8.625865E+03 -4.818224E+03
       379   1 -2.063373E+05 -8.192743E+05 -2.006204E+05  1.898012E+05 -8.439774E+03 -5.347923E+04
       379   2 -1.395248E+05 -6.193609E+05 -1.243932E+05  1.592598E+05 -2.515699E+04 -1.967802E+04
       379   3 -8.902046E+04 -4.275147E+05 -7.422742E+04  1.776544E+05 -2.196645E+04  1.419209E+04
       379   4 -1.764576E+04 -5.854534E+04 -1.863484E+04  1.784382E+05 -8.540231E+03 -1.396769E+04
       379   5 -3.738811E+03 -5.703086E+04 -8.165263E+03  1.539917E+05 -2.517976E+04 -9.750897E+03
       379   6 -9.900507E+02 -5.847419E+04 -3.189805E+03  1.784807E+05 -2.191910E+04 -5.476833E+03
       379   7  1.710051E+05  7.027181E+05  1.633158E+05  1.670615E+05 -8.642079E+03  2.559212E+04
       379   8  1.320273E+05  5.055995E+05  1.080459E+05  1.487189E+05 -2.520269E+04  1.850671E+02
       379   9  8.703249E+04  3.106982E+05  6.784297E+04  1.793075E+05 -2.187182E+04 -2.515719E+04
       379  10 -2.063382E+05 -8.192774E+05 -2.006260E+05  1.898009E+05 -8.847440E-11  1.037327E-08
       379  11 -1.395256E+05 -6.193615E+05 -1.243951E+05  1.592594E+05 -3.606394E-10 -1.490268E-08
       379  12 -8.902103E+04 -4.275150E+05 -7.422871E+04  1.776546E+05  3.542345E-09 -4.183913E-08
       379  13 -1.764589E+04 -5.854557E+04 -1.863534E+04  1.784381E+05  1.868248E-09  6.229675E-09
       379  14 -3.739518E+03 -5.703113E+04 -8.166633E+03  1.539915E+05 -1.601112E-09 -7.057506E-09
       379  15 -9.905746E+02 -5.847435E+04 -3.190764E+03  1.784806E+05  3.139203E-09 -3.104769E-10
       379  16  1.710049E+05  7.027173E+05  1.633145E+05  1.670617E+05  6.281901E-10 -6.728451E-09
       379  17  1.320266E+05  5.055993E+05  1.080447E+05  1.487189E+05  3.033936E-09  1.509194E-08
       379  18  8.703181E+04  3.106974E+05  6.784089E+04  1.793070E+05  3.769858E-10  3.952695E-08
       379  19 -2.063373E+05 -8.192743E+05 -2.006204E+05  1.898012E+05  8.439774E+03  5.347923E+04
       379  20 -1.395248E+05 -6.193609E+05 -1.243932E+05  1.592598E+05  2.515699E+04  1.967802E+04
       379  21 -8.902046E+04 -4.275147E+05 -7.422742E+04  1.776544E+05  2.196645E+04 -1.419209E+04
       379  22 -1.764576E+04 -5.854534E+04 -1.863484E+04  1.784382E+05  8.540231E+03  1.396769E+04
       379  23 -3.738811E+03 -5.703086E+04 -8.165263E+03  1.539917E+05  2.517976E+04  9.750897E+03
       379  24 -9.900507E+02 -5.847419E+04 -3.189805E+03  1.784807E+05  2.191910E+04  5.476833E+03
       379  25  1.710051E+05  7.027181E+05  1.633158E+05  1.670615E+05  8.642079E+03 -2.559212E+04
       379  26  1.320273E+05  5.055995E+05  1.080459E+05  1.487189E+05  2.520269E+04 -1.850671E+02
       379  27  8.703249E+04  3.106982E+05  6.784297E+04  1.793075E+05  2.187182E+04  2.515719E+04
       380   1 -5.807644E+04 -2.944115E+05 -4.700591E+04  1.791083E+05 -1.402927E+04  1.141543E+04
       380   2 -1.037656E+04 -9.886226E+04 -5.210147E+03  1.538994E+05 -2.798806E+03  1.050310E+04
       380   3  3.758276E+04  9.724529E+04  3.732601E+04  1.787818E+05  8.579566E+03  9.590472E+03
       380   4 -1.592398E+03 -5.767670E+04 -1.375001E+03  1.787291E+05 -1.399043E+04 -5.178337E+03
       380   5 -6.851214E+02 -5.795428E+04  2.330201E+03  1.536859E+05 -2.759684E+03 -6.312737E+03
       380   6  5.223534E+02 -5.767130E+04  6.931032E+03  1.787340E+05  8.618874E+03 -7.447153E+03
       380   7  5.488846E+04  1.791126E+05  4.425434E+04  1.783497E+05 -1.395157E+04 -2.177829E+04
       380   8  9.006376E+03 -1.704408E+04  9.871542E+03  1.534725E+05 -2.720551E+03 -2.312965E+04
       380   9 -3.653935E+04 -2.125643E+05 -2.346401E+04  1.786862E+05  8.658188E+03 -2.448062E+04
       380  10 -5.807669E+04 -2.944116E+05 -4.700652E+04  1.791085E+05  3.526763E-09  4.154489E-08
       380  11 -1.037660E+04 -9.886238E+04 -5.210369E+03  1.538994E+05 -1.724516E-10  2.010114E-08
       380  12  3.758266E+04  9.724517E+04  3.732570E+04  1.787817E+05 -8.027717E-10 -8.201516E-09
       380  13 -1.592615E+03 -5.767678E+04 -1.375419E+03  1.787290E+05  2.331296E-09  3.429184E-09
       380  14 -6.851402E+02 -5.795433E+04  2.330111E+03  1.536859E+05  2.039176E-09 -5.056818E-09
       380  15  5.222588E+02 -5.767138E+04  6.930789E+03  1.787340E+05  9.636469E-11 -3.844624E-10
       380  16  5.488813E+04  1.791120E+05  4.425309E+04  1.783494E+05  1.475768E-09 -3.883540E-08
       380  17  9.006224E+03 -1.704465E+04  9.870523E+03  1.534724E+05 -4.447000E-10 -1.929566E-08
       380  18 -3.653959E+04 -2.125649E+05 -2.346528E+04  1.786864E+05 -4.735757E-09  9.901632E-09
       380  19 -5.807644E+04 -2.944115E+05 -4.700591E+04  1.791083E+05  1.402927E+04 -1.141543E+04
       380  20 -1.037656E+04 -9.886226E+04 -5.210147E+03  1.538994E+05  2.798806E+03 -1.050310E+04
       380  21  3.758276E+04  9.724529E+04  3.732601E+04  1.787818E+05 -8.579566E+03 -9.590472E+03
       380  22 -1.592398E+03 -5.767670E+04 -1.375001E+03  1.787291E+05  1.399043E+04  5.178337E+03
       380  23 -6.851214E+02 -5.795428E+04  2.330201E+03  1.536859E+05  2.759684E+03  6.312737E+03
       380  24  5.223534E+02 -5.767130E+04  6.931032E+03  1.787340E+05 -8.618874E+03  7.447153E+03
       380  25  5.488846E+04  1.791126E+05  4.425434E+04  1.783497E+05  1.395157E+04  2.177829E+04
       380  26  9.006376E+03 -1.704408E+04  9.871542E+03  1.534725E+05  2.720551E+03  2.312965E+04
       380  27 -3.653935E+04 -2.125643E+05 -2.346401E+04  1.786862E+05 -8.658188E+03  2.448062E+04
       381   1  6.788916E+04  2.310162E+05  6.544736E+04  1.749421E+05  1.653625E+04  1.112224E+04
       381   2  1.213526E+05  4.210750E+05  1.185615E+05  1.620554E+05  2.095126E+04 -2.517579E+04
       381   3  2.024290E+05  6.231624E+05  2.022780E+05  1.983044E+05  7.466980E+03 -6.153559E+04
       381   4 -7.096637E+02 -5.616741E+04  9.699867E+03  1.785049E+05  1.658287E+04 -8.641215E+03
       381   5  5.239566E+03 -5.988698E+04  1.859703E+04  1.539818E+05  2.093605E+04 -1.828585E+04
       381   6  3.419066E+04 -5.622647E+04  3.960139E+04  1.785932E+05  7.384980E+03 -2.798069E+04
       381   7 -6.931316E+04 -3.432710E+05 -4.605004E+04  1.820660E+05  1.662927E+04 -2.839573E+04
       381   8 -1.108879E+05 -5.406297E+05 -8.137985E+04  1.459147E+05  2.092065E+04 -1.140115E+04
       381   9 -1.340790E+05 -7.351893E+05 -1.231033E+05  1.589038E+05  7.300810E+03  5.537682E+03
       381  10  6.788883E+04  2.310160E+05  6.544661E+04  1.749419E+05 -4.864405E-11  1.382010E-09
       381  11  1.213520E+05  4.210742E+05  1.185594E+05  1.620558E+05 -2.317272E-09  2.824235E-09
       381  12  2.024279E+05  6.231583E+05  2.022707E+05  1.983048E+05 -1.831989E-09 -1.019695E-09
       381  13 -7.099791E+02 -5.616756E+04  9.699210E+03  1.785050E+05 -4.071224E-09  5.630641E-09
       381  14  5.239005E+03 -5.988745E+04  1.859557E+04  1.539821E+05 -1.025450E-09 -5.320701E-09
       381  15  3.419039E+04 -5.622733E+04  3.959981E+04  1.785934E+05 -1.160823E-09  2.683140E-09
       381  16 -6.931368E+04 -3.432719E+05 -4.605208E+04  1.820664E+05 -4.354160E-09  9.070476E-10
       381  17 -1.108884E+05 -5.406299E+05 -8.138092E+04  1.459149E+05 -1.214816E-09 -6.305747E-10
       381  18 -1.340791E+05 -7.351894E+05 -1.231035E+05  1.589038E+05 -9.958504E-10 -3.017944E-09
       381  19  6.788916E+04  2.310162E+05  6.544736E+04  1.749421E+05 -1.653625E+04 -1.112224E+04
       381  20  1.213526E+05  4.210750E+05  1.185615E+05  1.620554E+05 -2.095126E+04  2.517579E+04
       381  21  2.024290E+05  6.231624E+05  2.022780E+05  1.983044E+05 -7.466980E+03  6.153559E+04
       381  22 -7.096637E+02 -5.616741E+04  9.699867E+03  1.785049E+05 -1.658287E+04  8.641215E+03
       381  23  5.239566E+03 -5.988698E+04  1.859703E+04  1.539818E+05 -2.093605E+04  1.828585E+04
       381  24  3.419066E+04 -5.622647E+04  3.960139E+04  1.785932E+05 -7.384980E+03  2.798069E+04
       381  25 -6.931316E+04 -3.432710E+05 -4.605004E+04  1.820660E+05 -1.662927E+04  2.839573E+04
       381  26 -1.108879E+05 -5.406297E+05 -8.137985E+04  1.459147E+05 -2.092065E+04  1.140115E+04
       381  27 -1.340790E+05 -7.351893E+05 -1.231033E+05  1.589038E+05 -7.300810E+03 -5.537682E+03
       382   1  6.167324E+05  2.436941E+05  1.522245E+05  2.269098E+05  6.400019E+04  2.007065E+04
       382   2  5.934620E+05  1.539933E+05  9.408472E+04  2.215892E+05  4.134564E+04  2.676878E+03
       382   3  5.906420E+05  1.349989E+05  7.241576E+04  2.080183E+05  1.590426E+04 -7.347338E+03
       382   4  3.777693E+05  1.246654E+05  8.287679E+04  1.319574E+05  5.424398E+04  1.637519E+04
       382   5  3.636258E+05  5.818653E+04  3.590574E+04  1.481016E+05  3.789388E+04  1.369295E+03
       382   6  3.686928E+05  6.117803E+04  2.041878E+04  1.559931E+05  1.875553E+04 -6.267996E+03
       382   7  1.388677E+05  5.655958E+03  1.352524E+04  3.704368E+04  4.449203E+04  1.268246E+04
       382   8  1.338432E+05 -3.761246E+04 -2.227713E+04  7.464035E+04  3.444354E+04  6.237911E+01
       382   9  1.467906E+05 -1.264225E+04 -3.158195E+04  1.039833E+05  2.160572E+04 -5.188962E+03
       382  10  6.167279E+05  2.436925E+05  1.522160E+05  2.269088E+05 -2.779821E-09  2.771435E-11
       382  11  5.934601E+05  1.539928E+05  9.408150E+04  2.215891E+05  1.334057E-09  6.556421E-09
       382  12  5.906417E+05  1.349988E+05  7.241518E+04  2.080184E+05  5.155953E-09  2.767752E-09
       382  13  3.777661E+05  1.246643E+05  8.287076E+04  1.319567E+05  1.315291E-09 -7.190416E-09
       382  14  3.636243E+05  5.818615E+04  3.590304E+04  1.481016E+05 -5.244426E-10  7.953696E-09
       382  15  3.686924E+05  6.117789E+04  2.041805E+04  1.559932E+05 -1.937674E-09  2.122596E-09
       382  16  1.388655E+05  5.655254E+03  1.352122E+04  3.704322E+04  3.061255E-09  3.776222E-09
       382  17  1.338419E+05 -3.761277E+04 -2.227935E+04  7.464035E+04 -4.149496E-09 -8.667515E-09
       382  18  1.467901E+05 -1.264240E+04 -3.158287E+04  1.039834E+05 -1.206482E-08  1.515803E-09
       382  19  6.167324E+05  2.436941E+05  1.522245E+05  2.269098E+05 -6.400019E+04 -2.007065E+04
       382  20  5.934620E+05  1.539933E+05  9.408472E+04  2.215892E+05 -4.134564E+04 -2.676878E+03
       382  21  5.906420E+05  1.349989E+05  7.241576E+04  2.080183E+05 -1.590426E+04  7.347338E+03
       382  22  3.777693E+05  1.246654E+05  8.287679E+04  1.319574E+05 -5.424398E+04 -1.637519E+04
       382  23  3.636258E+05  5.818653E+04  3.590574E+04  1.481016E+05 -3.789388E+04 -1.369295E+03
       382  24  3.686928E+05  6.117803E+04  2.041878E+04  1.559931E+05 -1.875553E+04  6.267996E+03
       382  25  1.388677E+05  5.655958E+03  1.352524E+04  3.704368E+04 -4.449203E+04 -1.268246E+04
       382  26  1.338432E+05 -3.761246E+04 -2.227713E+04  7.464035E+04 -3.444354E+04 -6.237911E+01
       382  27  1.467906E+05 -1.264225E+04 -3.158195E+04  1.039833E+05 -2.160572E+04  5.188962E+03
       383   1  5.615129E+05  1.419189E+05  6.392998E+04  2.075755E+05  1.495665E+04 -6.009676E+03
       383   2  5.425363E+05  1.255153E+05  5.055092E+04  1.978274E+05  1.011852E+04 -6.816112E+03
       383   3  5.185482E+05  1.202216E+05  4.160026E+04  1.952540E+05  5.156123E+03 -7.294640E+03
       383   4  3.660547E+05  6.744735E+04  1.619354E+04  1.521344E+05  1.558051E+04 -5.773773E+03
       383   5  3.683164E+05  6.001129E+04  8.305440E+03  1.492709E+05  1.102389E+04 -6.473462E+03
       383   6  3.655109E+05  6.363018E+04  4.623688E+03  1.535817E+05  6.342850E+03 -6.845273E+03
       383   7  1.706343E+05 -7.021101E+03 -3.154577E+04  9.670942E+04  1.620415E+04 -5.537956E+03
       383   8  1.941269E+05 -5.490254E+03 -3.394217E+04  1.007269E+05  1.192899E+04 -6.130919E+03
       383   9  2.124975E+05  7.040602E+03 -3.235439E+04  1.119189E+05  7.529252E+03 -6.396025E+03
       383  10  5.615127E+05  1.419188E+05  6.392949E+04  2.075755E+05 -4.832041E-10 -2.631891E-09
       383  11  5.425361E+05  1.255152E+05  5.055064E+04  1.978274E+05  6.543037E-09  5.887568E-10
       383  12  5.185481E+05  1.202215E+05  4.160011E+04  1.952540E+05  1.203750E-08  7.318334E-09
       383  13  3.660544E+05  6.744725E+04  1.619302E+04  1.521345E+05 -2.157347E-09 -4.073444E-09
       383  14  3.683162E+05  6.001121E+04  8.305133E+03  1.492709E+05  2.176592E-09  1.733822E-08
       383  15  3.655108E+05  6.363012E+04  4.623524E+03  1.535817E+05  1.621815E-09  1.068712E-08
       383  16  1.706340E+05 -7.021205E+03 -3.154632E+04  9.670949E+04 -3.966327E-09  8.723061E-09
       383  17  1.941268E+05 -5.490333E+03 -3.394251E+04  1.007269E+05 -3.026078E-09 -2.562087E-09
       383  18  2.124975E+05  7.040543E+03 -3.235457E+04  1.119190E+05 -7.280007E-09  4.409404E-09
       383  19  5.615129E+05  1.419189E+05  6.392998E+04  2.075755E+05 -1.495665E+04  6.009676E+03
       383  20  5.425363E+05  1.255153E+05  5.055092E+04  1.978274E+05 -1.011852E+04  6.816112E+03
       383  21  5.185482E+05  1.202216E+05  4.160026E+04  1.952540E+05 -5.156123E+03  7.294640E+03
       383  22  3.660547E+05  6.744735E+04  1.619354E+04  1.521344E+05 -1.558051E+04  5.773773E+03
       383  23  3.683164E+05  6.001129E+04  8.305440E+03  1.492709E+05 -1.102389E+04  6.473462E+03
       383  24  3.655109E+05  6.363018E+04  4.623688E+03  1.535817E+05 -6.342850E+03  6.845273E+03
       383  25  1.706343E+05 -7.021101E+03 -3.154577E+04  9.670942E+04 -1.620415E+04  5.537956E+03
       383  26  1.941269E+05 -5.490254E+03 -3.394217E+04  1.007269E+05 -1.192899E+04  6.130919E+03
       383  27  2.124975E+05  7.040602E+03 -3.235439E+04  1.119189E+05 -7.529252E+03  6.396025E+03
       384   1  4.992504E+05  1.140763E+05  3.586643E+04  1.903887E+05  4.307537E+03 -6.715829E+03
       384   2  4.808599E+05  1.021399E+05  2.905013E+04  1.803766E+05  2.853813E+03 -5.806467E+03
       384   3  4.556169E+05  9.754355E+04  2.302328E+04  1.783447E+05  1.394948E+03 -4.884102E+03
       384   4  3.652846E+05  6.398524E+04  3.521575E+03  1.533141E+05  5.392692E+03 -6.304863E+03
       384   5  3.686981E+05  6.021402E+04  1.917701E+03  1.493631E+05  3.950306E+03 -5.391107E+03
       384   6  3.652568E+05  6.378090E+04  1.094572E+03  1.533923E+05  2.502744E+03 -4.464360E+03
       384   7  2.313359E+05  1.389517E+04 -2.882478E+04  1.162467E+05  6.477598E+03 -5.893991E+03
       384   8  2.565485E+05  1.828894E+04 -2.521573E+04  1.183547E+05  5.046586E+03 -4.975828E+03
       384   9  2.749048E+05  3.001883E+04 -2.083474E+04  1.284431E+05  3.610365E+03 -4.044684E+03
       384  10  4.992504E+05  1.140763E+05  3.586631E+04  1.903887E+05 -1.141874E-08  9.573931E-10
       384  11  4.808599E+05  1.021399E+05  2.905005E+04  1.803766E+05 -9.225586E-10  5.540892E-09
       384  12  4.556169E+05  9.754352E+04  2.302323E+04  1.783447E+05  9.497619E-09  1.983413E-09
       384  13  3.652846E+05  6.398519E+04  3.521445E+03  1.533142E+05  7.757785E-10 -4.775430E-10
       384  14  3.686981E+05  6.021399E+04  1.917617E+03  1.493631E+05  3.348926E-09 -9.959506E-09
       384  15  3.652568E+05  6.378088E+04  1.094523E+03  1.533923E+05 -4.943473E-10  6.312672E-09
       384  16  2.313358E+05  1.389512E+04 -2.882493E+04  1.162467E+05  1.348436E-08 -4.573093E-09
       384  17  2.565484E+05  1.828890E+04 -2.521583E+04  1.183547E+05  1.139824E-09  6.758755E-09
       384  18  2.749047E+05  3.001881E+04 -2.083480E+04  1.284432E+05 -1.216170E-08  7.357782E-09
       384  19  4.992504E+05  1.140763E+05  3.586643E+04  1.903887E+05 -4.307537E+03  6.715829E+03
       384  20  4.808599E+05  1.021399E+05  2.905013E+04  1.803766E+05 -2.853813E+03  5.806467E+03
       384  21  4.556169E+05  9.754355E+04  2.302328E+04  1.783447E+05 -1.394948E+03  4.884102E+03
       384  22  3.652846E+05  6.398524E+04  3.521575E+03  1.533141E+05 -5.392692E+03  6.304863E+03
       384  23  3.686981E+05  6.021402E+04  1.917701E+03  1.493631E+05 -3.950306E+03  5.391107E+03
       384  24  3.652568E+05  6.378090E+04  1.094572E+03  1.533923E+05 -2.502744E+03  4.464360E+03
       384  25  2.313359E+05  1.389517E+04 -2.882478E+04  1.162467E+05 -6.477598E+03  5.893991E+03
       384  26  2.565485E+05  1.828894E+04 -2.521573E+04  1.183547E+05 -5.046586E+03  4.975828E+03
       384  27  2.749048E+05  3.001883E+04 -2.083474E+04  1.284431E+05 -3.610365E+03  4.044684E+03
       385   1  4.370523E+05  9.063444E+04  1.814961E+04  1.732389E+05  9.543389E+02 -4.189639E+03
       385   2  4.187970E+05  7.897200E+04  1.266167E+04  1.632272E+05  1.913070E+02 -3.003423E+03
       385   3  3.935268E+05  7.438902E+04  7.382048E+03  1.611994E+05 -5.717463E+02 -1.817362E+03
       385   4  3.652318E+05  6.379314E+04  8.515282E+02  1.533669E+05  2.056687E+03 -3.771919E+03
       385   5  3.687396E+05  6.025064E+04  5.510709E+02  1.493763E+05  1.293546E+03 -2.585704E+03
       385   6  3.652318E+05  6.378767E+04  4.590514E+02  1.533694E+05  5.303708E+02 -1.399643E+03
       385   7  2.934168E+05  3.695234E+04 -1.644683E+04  1.334972E+05  3.158890E+03 -3.354253E+03
       385   8  3.186846E+05  4.152946E+04 -1.155971E+04  1.355264E+05  2.395689E+03 -2.168022E+03
       385   9  3.369375E+05  5.318633E+04 -6.464039E+03  1.455396E+05  1.632438E+03 -9.819426E+02
       385  10  4.370522E+05  9.063442E+04  1.814958E+04  1.732389E+05 -1.055834E-08  1.484168E-09
       385  11  4.187970E+05  7.897199E+04  1.266165E+04  1.632272E+05 -8.986783E-09 -2.181522E-09
       385  12  3.935268E+05  7.438902E+04  7.382041E+03  1.611994E+05 -2.107386E-09  1.270634E-09
       385  13  3.652318E+05  6.379312E+04  8.514935E+02  1.533670E+05 -5.682662E-11  3.810711E-09
       385  14  3.687396E+05  6.025063E+04  5.510552E+02  1.493763E+05  3.566334E-09 -1.027589E-08
       385  15  3.652318E+05  6.378767E+04  4.590472E+02  1.533694E+05  1.039952E-09 -6.205910E-09
       385  16  2.934167E+05  3.695232E+04 -1.644687E+04  1.334972E+05  1.062602E-08  7.218917E-09
       385  17  3.186846E+05  4.152945E+04 -1.155973E+04  1.355264E+05  9.166680E-09  9.623180E-09
       385  18  3.369375E+05  5.318633E+04 -6.464045E+03  1.455396E+05  5.584590E-09  2.436823E-09
       385  19  4.370523E+05  9.063444E+04  1.814961E+04  1.732389E+05 -9.543389E+02  4.189639E+03
       385  20  4.187970E+05  7.897200E+04  1.266167E+04  1.632272E+05 -1.913070E+02  3.003423E+03
       385  21  3.935268E+05  7.438902E+04  7.382048E+03  1.611994E+05  5.717463E+02  1.817362E+03
       385  22  3.652318E+05  6.379314E+04  8.515282E+02  1.533669E+05 -2.056687E+03  3.771919E+03
       385  23  3.687396E+05  6.025064E+04  5.510709E+02  1.493763E+05 -1.293546E+03  2.585704E+03
       385  24  3.652318E+05  6.378767E+04  4.590514E+02  1.533694E+05 -5.303708E+02  1.399643E+03
       385  25  2.934168E+05  3.695234E+04 -1.644683E+04  1.334972E+05 -3.158890E+03  3.354253E+03
       385  26  3.186846E+05  4.152946E+04 -1.155971E+04  1.355264E+05 -2.395689E+03  2.168022E+03
       385  27  3.369375E+05  5.318633E+04 -6.464039E+03  1.455396E+05 -1.632438E+03  9.819426E+02
       386   1  3.750500E+05  6.745225E+04  2.773818E+03  1.560975E+05 -9.335425E+02 -1.096035E+03
       386   2  3.568063E+05  5.580318E+04 -2.247992E+03  1.460905E+05 -1.738588E+03  7.349684E+01
       386   3  3.315592E+05  5.123324E+04 -7.029123E+03  1.440625E+05 -2.543448E+03  1.242721E+03
       386   4  3.652344E+05  6.378678E+04  4.742447E+02  1.533686E+05  1.682550E+02 -6.784252E+02
       386   5  3.687369E+05  6.025155E+04  6.361533E+02  1.493776E+05 -6.370971E+02  4.909776E+02
       386   6  3.652355E+05  6.379541E+04  1.038960E+03  1.533653E+05 -1.442276E+03  1.660069E+03
       386   7  3.554189E+05  6.012131E+04 -1.825330E+03  1.506398E+05  1.270033E+03 -2.608228E+02
       386   8  3.806676E+05  6.469992E+04  3.520284E+03  1.526647E+05  4.644135E+02  9.084660E+02
       386   9  3.989127E+05  7.635760E+04  9.106919E+03  1.626685E+05 -3.410442E+02  2.077440E+03
       386  10  3.750500E+05  6.745225E+04  2.773814E+03  1.560975E+05 -5.403043E-10 -1.787042E-09
       386  11  3.568063E+05  5.580317E+04 -2.247997E+03  1.460905E+05 -4.685700E-09  2.107589E-09
       386  12  3.315592E+05  5.123323E+04 -7.029138E+03  1.440625E+05 -9.978100E-09 -2.796830E-10
       386  13  3.652344E+05  6.378678E+04  4.742438E+02  1.533686E+05 -3.023847E-10  4.976670E-09
       386  14  3.687369E+05  6.025155E+04  6.361521E+02  1.493776E+05 -7.870306E-10 -1.340498E-08
       386  15  3.652355E+05  6.379540E+04  1.038951E+03  1.533653E+05 -1.201138E-09  5.407649E-09
       386  16  3.554188E+05  6.012131E+04 -1.825333E+03  1.506398E+05  4.447318E-09 -4.674367E-09
       386  17  3.806676E+05  6.469992E+04  3.520282E+03  1.526647E+05  9.669559E-09  1.528376E-09
       386  18  3.989127E+05  7.635759E+04  9.106910E+03  1.626685E+05  1.027938E-08 -5.341589E-09
       386  19  3.750500E+05  6.745225E+04  2.773818E+03  1.560975E+05  9.335425E+02  1.096035E+03
       386  20  3.568063E+05  5.580318E+04 -2.247992E+03  1.460905E+05  1.738588E+03 -7.349684E+01
       386  21  3.315592E+05  5.123324E+04 -7.029123E+03  1.440625E+05  2.543448E+03 -1.242721E+03
       386  22  3.652344E+05  6.378678E+04  4.742447E+02  1.533686E+05 -1.682550E+02  6.784252E+02
       386  23  3.687369E+05  6.025155E+04  6.361533E+02  1.493776E+05  6.370971E+02 -4.909776E+02
       386  24  3.652355E+05  6.379541E+04  1.038960E+03  1.533653E+05  1.442276E+03 -1.660069E+03
       386  25  3.554189E+05  6.012131E+04 -1.825330E+03  1.506398E+05 -1.270033E+03  2.608228E+02
       386  26  3.806676E+05  6.469992E+04  3.520284E+03  1.526647E+05 -4.644135E+02 -9.084660E+02
       386  27  3.989127E+05  7.635760E+04  9.106919E+03  1.626685E+05  3.410442E+02 -2.077440E+03
       387   1  3.130721E+05  4.430840E+04 -1.134175E+04  1.390243E+05 -3.030115E+03  1.918450E+03
       387   2  2.947351E+05  3.258980E+04 -1.548995E+04  1.289411E+05 -4.706647E+03  2.756432E+03
       387   3  2.696091E+05  2.825870E+04 -1.867071E+04  1.268143E+05 -6.378603E+03  3.582857E+03
       387   4  3.652706E+05  6.377701E+04  1.351884E+03  1.533932E+05 -1.924613E+03  2.337417E+03
       387   5  3.686822E+05  6.021215E+04  2.396950E+03  1.493655E+05 -3.611204E+03  3.171524E+03
       387   6  3.653066E+05  6.403688E+04  4.417491E+03  1.532941E+05 -5.293262E+03  3.994060E+03
       387   7  4.174721E+05  8.324591E+04  1.404539E+04  1.677632E+05 -8.190038E+02  2.756423E+03
       387   8  4.426349E+05  8.783497E+04  2.028351E+04  1.697922E+05 -2.515616E+03  3.586671E+03
       387   9  4.610132E+05  9.981573E+04  2.750502E+04  1.797777E+05 -4.207738E+03  4.405332E+03
       387  10  3.130720E+05  4.430840E+04 -1.134177E+04  1.390243E+05 -1.420292E-09  8.160157E-09
       387  11  2.947351E+05  3.258978E+04 -1.549001E+04  1.289412E+05 -3.193660E-09 -3.292902E-09
       387  12  2.696091E+05  2.825868E+04 -1.867081E+04  1.268143E+05 -7.307675E-09 -2.765210E-09
       387  13  3.652706E+05  6.377700E+04  1.351866E+03  1.533932E+05 -2.482524E-09  4.560848E-09
       387  14  3.686822E+05  6.021214E+04  2.396906E+03  1.493655E+05 -2.435923E-09 -5.010280E-09
       387  15  3.653066E+05  6.403686E+04  4.417409E+03  1.532942E+05 -8.987401E-10 -4.850090E-09
       387  16  4.174721E+05  8.324590E+04  1.404538E+04  1.677632E+05  4.167766E-11  4.248397E-09
       387  17  4.426349E+05  8.783496E+04  2.028347E+04  1.697922E+05  2.120248E-09  6.741146E-09
       387  18  4.610132E+05  9.981570E+04  2.750496E+04  1.797777E+05  5.093762E-09  7.519410E-09
       387  19  3.130721E+05  4.430840E+04 -1.134175E+04  1.390243E+05  3.030115E+03 -1.918450E+03
       387  20  2.947351E+05  3.258980E+04 -1.548995E+04  1.289411E+05  4.706647E+03 -2.756432E+03
       387  21  2.696091E+05  2.825870E+04 -1.867071E+04  1.268143E+05  6.378603E+03 -3.582857E+03
       387  22  3.652706E+05  6.377701E+04  1.351884E+03  1.533932E+05  1.924613E+03 -2.337417E+03
       387  23  3.686822E+05  6.021215E+04  2.396950E+03  1.493655E+05  3.611204E+03 -3.171524E+03
       387  24  3.653066E+05  6.403688E+04  4.417491E+03  1.532941E+05  5.293262E+03 -3.994060E+03
       387  25  4.174721E+05  8.324591E+04  1.404539E+04  1.677632E+05  8.190038E+02 -2.756423E+03
       387  26  4.426349E+05  8.783497E+04  2.028351E+04  1.697922E+05  2.515616E+03 -3.586671E+03
       387  27  4.610132E+05  9.981573E+04  2.750502E+04  1.797777E+05  4.207738E+03 -4.405332E+03
       388   1  2.507643E+05  2.145038E+04 -2.190561E+04  1.227027E+05 -7.579075E+03  4.020734E+03
       388   2  2.324540E+05  8.748659E+03 -2.252359E+04  1.112488E+05 -1.310168E+04  3.337483E+03
       388   3  2.095676E+05  8.049515E+03 -1.804838E+04  1.067251E+05 -1.851749E+04  2.373565E+03
       388   4  3.655948E+05  6.358872E+04  5.804000E+03  1.536278E+05 -6.407071E+03  4.464725E+03
       388   5  3.682019E+05  5.996368E+04  1.043240E+04  1.492530E+05 -1.217068E+04  3.690027E+03
       388   6  3.662795E+05  6.838790E+04  2.034412E+04  1.518079E+05 -1.782773E+04  2.634593E+03
       388   7  4.804378E+05  1.057277E+05  3.351249E+04  1.845579E+05 -5.234836E+03  4.908798E+03
       388   8  5.039679E+05  1.111801E+05  4.338702E+04  1.872648E+05 -1.123947E+04  4.042656E+03
       388   9  5.230166E+05  1.287287E+05  5.873497E+04  1.969014E+05 -1.713777E+04  2.895699E+03
       388  10  2.507642E+05  2.145035E+04 -2.190574E+04  1.227027E+05  5.159615E-09  1.574879E-09
       388  11  2.324538E+05  8.748601E+03 -2.252394E+04  1.112488E+05  5.289180E-09  2.845836E-09
       388  12  2.095672E+05  8.049417E+03 -1.804904E+04  1.067252E+05 -5.997962E-10 -9.285389E-09
       388  13  3.655948E+05  6.358869E+04  5.803886E+03  1.536278E+05 -1.885047E-09 -1.260154E-08
       388  14  3.682017E+05  5.996363E+04  1.043209E+04  1.492530E+05 -1.900790E-09  7.667860E-10
       388  15  3.662792E+05  6.838781E+04  2.034351E+04  1.518080E+05  3.747069E-09 -4.191437E-09
       388  16  4.804377E+05  1.057276E+05  3.351239E+04  1.845580E+05 -5.511413E-09 -2.323537E-09
       388  17  5.039678E+05  1.111801E+05  4.338675E+04  1.872648E+05  2.116564E-09 -4.519001E-09
       388  18  5.230162E+05  1.287286E+05  5.873440E+04  1.969015E+05  6.260336E-09 -7.139309E-09
       388  19  2.507643E+05  2.145038E+04 -2.190561E+04  1.227027E+05  7.579075E+03 -4.020734E+03
       388  20  2.324540E+05  8.748659E+03 -2.252359E+04  1.112488E+05  1.310168E+04 -3.337483E+03
       388  21  2.095676E+05  8.049515E+03 -1.804838E+04  1.067251E+05  1.851749E+04 -2.373565E+03
       388  22  3.655948E+05  6.358872E+04  5.804000E+03  1.536278E+05  6.407071E+03 -4.464725E+03
       388  23  3.682019E+05  5.996368E+04  1.043240E+04  1.492530E+05  1.217068E+04 -3.690027E+03
       388  24  3.662795E+05  6.838790E+04  2.034412E+04  1.518079E+05  1.782773E+04 -2.634593E+03
       388  25  4.804378E+05  1.057277E+05  3.351249E+04  1.845579E+05  5.234836E+03 -4.908798E+03
       388  26  5.039679E+05  1.111801E+05  4.338702E+04  1.872648E+05  1.123947E+04 -4.042656E+03
       388  27  5.230166E+05  1.287287E+05  5.873497E+04  1.969014E+05  1.713777E+04 -2.895699E+03
       389   1  1.845217E+05  2.820871E+03 -1.704218E+04  1.172453E+05 -2.422667E+04  1.784274E+03
       389   2  1.729615E+05 -2.552677E+04 -3.608681E+03  8.289354E+04 -4.300104E+04 -5.449931E+03
       389   3  1.862488E+05  3.057413E+04  4.511312E+04  3.615599E+04 -5.938847E+04 -1.898669E+04
       389   4  3.695770E+05  6.052874E+04  2.565291E+04  1.566731E+05 -2.163208E+04  2.767189E+03
       389   5  3.623328E+05  5.765638E+04  4.511264E+04  1.477629E+05 -4.579794E+04 -6.510225E+03
       389   6  3.809925E+05  1.402825E+05  1.041261E+05  1.264698E+05 -6.757744E+04 -2.209100E+04
       389   7  5.546668E+05  1.182369E+05  6.834594E+04  1.961105E+05 -1.903663E+04  3.750307E+03
       389   8  5.517385E+05  1.408454E+05  9.383065E+04  2.126511E+05 -4.859574E+04 -7.571001E+03
       389   9  5.757729E+05  2.500077E+05  1.631348E+05  2.168123E+05 -7.576907E+04 -2.519750E+04
       389  10  1.845211E+05  2.820710E+03 -1.704329E+04  1.172453E+05 -5.578033E-09 -1.027466E-08
       389  11  1.729595E+05 -2.552730E+04 -3.612210E+03  8.289335E+04 -1.440171E-09  4.537518E-10
       389  12  1.862449E+05  3.057279E+04  4.510582E+04  3.615508E+04  4.932799E-09  8.121006E-09
       389  13  3.695765E+05  6.052860E+04  2.565201E+04  1.566731E+05  1.511207E-09 -9.171010E-09
       389  14  3.623305E+05  5.765577E+04  4.510862E+04  1.477627E+05  6.337873E-10 -1.024452E-08
       389  15  3.809874E+05  1.402808E+05  1.041166E+05  1.264686E+05 -1.720308E-09 -2.917351E-09
       389  16  5.546664E+05  1.182368E+05  6.834524E+04  1.961105E+05  8.451416E-09  7.072269E-09
       389  17  5.517360E+05  1.408447E+05  9.382611E+04  2.126509E+05 -7.676445E-10  4.082175E-09
       389  18  5.757665E+05  2.500055E+05  1.631228E+05  2.168107E+05 -9.125916E-09 -1.495585E-09
       389  19  1.845217E+05  2.820871E+03 -1.704218E+04  1.172453E+05  2.422667E+04 -1.784274E+03
       389  20  1.729615E+05 -2.552677E+04 -3.608681E+03  8.289354E+04  4.300104E+04  5.449931E+03
       389  21  1.862488E+05  3.057413E+04  4.511312E+04  3.615599E+04  5.938847E+04  1.898669E+04
       389  22  3.695770E+05  6.052874E+04  2.565291E+04  1.566731E+05  2.163208E+04 -2.767189E+03
       389  23  3.623328E+05  5.765638E+04  4.511264E+04  1.477629E+05  4.579794E+04  6.510225E+03
       389  24  3.809925E+05  1.402825E+05  1.041261E+05  1.264698E+05  6.757744E+04  2.209100E+04
       389  25  5.546668E+05  1.182369E+05  6.834594E+04  1.961105E+05  1.903663E+04 -3.750307E+03
       389  26  5.517385E+05  1.408454E+05  9.383065E+04  2.126511E+05  4.859574E+04  7.571001E+03
       389  27  5.757729E+05  2.500077E+05  1.631348E+05  2.168123E+05  7.576907E+04  2.519750E+04
       390   1 -1.318343E+05 -6.535054E+05 -1.316662E+05  9.324460E+04 -5.134073E+03 -2.534617E+04
       390   2 -8.340120E+04 -5.182786E+05 -8.418447E+04  6.157831E+04 -1.447481E+04 -9.026957E+03
       390   3 -5.051522E+04 -3.886263E+05 -5.115679E+04  8.420023E+04 -1.050193E+04  7.333927E+03
       390   4 -1.421053E+04 -1.809698E+05 -1.655484E+04  8.569907E+04 -5.174255E+03 -1.081357E+04
       390   5 -3.046593E+02 -1.792152E+05 -7.989165E+03  5.857527E+04 -1.448073E+04 -6.623066E+03
       390   6  1.666215E+02 -1.809423E+05 -5.445318E+03  8.573891E+04 -1.047660E+04 -2.394652E+03
       390   7  1.033971E+05  2.917703E+05  9.854114E+04  7.814790E+04 -5.214777E+03  3.730069E+03
       390   8  8.278405E+04  1.599552E+05  6.819886E+04  5.557064E+04 -1.448666E+04 -4.217875E+03
       390   9  5.084563E+04  2.678225E+04  4.026387E+04  8.727815E+04 -1.045133E+04 -1.212645E+04
       390  10 -1.318345E+05 -6.535061E+05 -1.316675E+05  9.324450E+04  1.557450E-09  9.657243E-10
       390  11 -8.340145E+04 -5.182787E+05 -8.418502E+04  6.157820E+04  2.311653E-09 -8.990816E-10
       390  12 -5.051536E+04 -3.886263E+05 -5.115710E+04  8.420029E+04  1.957536E-10  6.001330E-10
       390  13 -1.421059E+04 -1.809699E+05 -1.655511E+04  8.569902E+04  1.422398E-09 -1.279568E-08
       390  14 -3.048962E+02 -1.792153E+05 -7.989641E+03  5.857519E+04 -3.125288E-09  2.817602E-09
       390  15  1.665021E+02 -1.809423E+05 -5.445535E+03  8.573889E+04  1.196015E-09 -2.268649E-08
       390  16  1.033971E+05  2.917703E+05  9.854107E+04  7.814791E+04 -1.943642E-09 -9.712311E-10
       390  17  8.278382E+04  1.599551E+05  6.819843E+04  5.557059E+04 -3.353746E-09  5.739561E-09
       390  18  5.084548E+04  2.678206E+04  4.026339E+04  8.727804E+04  1.415135E-09 -3.972747E-09
       390  19 -1.318343E+05 -6.535054E+05 -1.316662E+05  9.324460E+04  5.134073E+03  2.534617E+04
       390  20 -8.340120E+04 -5.182786E+05 -8.418447E+04  6.157831E+04  1.447481E+04  9.026957E+03
       390  21 -5.051522E+04 -3.886263E+05 -5.115679E+04  8.420023E+04  1.050193E+04 -7.333927E+03
       390  22 -1.421053E+04 -1.809698E+05 -1.655484E+04  8.569907E+04  5.174255E+03  1.081357E+04
       390  23 -3.046593E+02 -1.792152E+05 -7.989165E+03  5.857527E+04  1.448073E+04  6.623066E+03
       390  24  1.666215E+02 -1.809423E+05 -5.445318E+03  8.573891E+04  1.047660E+04  2.394652E+03
       390  25  1.033971E+05  2.917703E+05  9.854114E+04  7.814790E+04  5.214777E+03 -3.730069E+03
       390  26  8.278405E+04  1.599552E+05  6.819886E+04  5.557064E+04  1.448666E+04  4.217875E+03
       390  27  5.084563E+04  2.678225E+04  4.026387E+04  8.727815E+04  1.045133E+04  1.212645E+04
       391   1 -2.537310E+04 -2.794537E+05 -2.682280E+04  8.651777E+04 -4.893138E+03  4.503257E+03
       391   2  7.849906E+03 -1.468338E+05  2.855770E+03  5.833186E+04  1.693236E+03  6.678124E+03
       391   3  3.898444E+04 -1.462695E+04  3.067962E+04  8.502232E+04  8.204252E+03  8.853525E+03
       391   4 -1.144124E+03 -1.802595E+05 -4.915458E+03  8.585917E+04 -4.877702E+03 -1.541368E+03
       391   5 -2.504153E+02 -1.800400E+05 -4.431888E+03  5.842042E+04  1.708651E+03  7.017036E+02
       391   6 -1.456009E+03 -1.802621E+05 -5.849776E+03  8.585837E+04  8.219587E+03  2.944863E+03
       391   7  2.308421E+04 -8.105597E+04  1.699142E+04  8.520047E+04 -4.862254E+03 -7.586949E+03
       391   8 -8.350791E+03 -2.132452E+05 -1.171948E+04  5.850898E+04  1.724064E+03 -5.274401E+03
       391   9 -4.189828E+04 -3.458715E+05 -4.238072E+04  8.669422E+04  8.234908E+03 -2.962242E+03
       391  10 -2.537314E+04 -2.794537E+05 -2.682289E+04  8.651779E+04 -2.314108E-09 -3.899391E-09
       391  11  7.849891E+03 -1.468338E+05  2.855681E+03  5.833185E+04 -3.673615E-11 -3.033662E-10
       391  12  3.898434E+04 -1.462705E+04  3.067934E+04  8.502226E+04 -9.332292E-10 -5.046466E-09
       391  13 -1.144150E+03 -1.802595E+05 -4.915507E+03  8.585917E+04  6.993138E-10 -1.226287E-08
       391  14 -2.504186E+02 -1.800400E+05 -4.431895E+03  5.842042E+04  1.772131E-09  5.883136E-09
       391  15 -1.456084E+03 -1.802621E+05 -5.849919E+03  8.585835E+04  2.662573E-09 -1.557564E-08
       391  16  2.308417E+04 -8.105604E+04  1.699127E+04  8.520044E+04  2.729919E-09  6.653331E-10
       391  17 -8.350802E+03 -2.132452E+05 -1.171954E+04  5.850899E+04 -1.958362E-09  7.972982E-09
       391  18 -4.189835E+04 -3.458715E+05 -4.238087E+04  8.669423E+04  2.215667E-09 -2.609808E-10
       391  19 -2.537310E+04 -2.794537E+05 -2.682280E+04  8.651777E+04  4.893138E+03 -4.503257E+03
       391  20  7.849906E+03 -1.468338E+05  2.855770E+03  5.833186E+04 -1.693236E+03 -6.678124E+03
       391  21  3.898444E+04 -1.462695E+04  3.067962E+04  8.502232E+04 -8.204252E+03 -8.853525E+03
       391  22 -1.144124E+03 -1.802595E+05 -4.915458E+03  8.585917E+04  4.877702E+03  1.541368E+03
       391  23 -2.504153E+02 -1.800400E+05 -4.431888E+03  5.842042E+04 -1.708651E+03 -7.017036E+02
       391  24 -1.456009E+03 -1.802621E+05 -5.849776E+03  8.585837E+04 -8.219587E+03 -2.944863E+03
       391  25  2.308421E+04 -8.105597E+04  1.699142E+04  8.520047E+04  4.862254E+03  7.586949E+03
       391  26 -8.350791E+03 -2.132452E+05 -1.171948E+04  5.850898E+04 -1.724064E+03  5.274401E+03
       391  27 -4.189828E+04 -3.458715E+05 -4.238072E+04  8.669422E+04 -8.234908E+03  2.962242E+03
       392   1  6.730428E+04  9.293584E+04  5.342621E+04  8.788107E+04  1.393152E+04  1.408194E+04
       392   2  9.900220E+04  2.266745E+05  8.023556E+04  5.457589E+04  1.753361E+04  6.087322E+03
       392   3  1.146567E+05  3.579117E+05  1.083332E+05  7.545981E+04  6.143188E+03 -1.952581E+03
       392   4  4.270578E+02 -1.812618E+05 -6.829376E+03  8.572194E+04  1.395829E+04  3.975453E+03
       392   5 -3.107135E+02 -1.788316E+05 -1.072144E+04  5.859758E+04  1.752458E+04  9.655388E+03
       392   6 -1.947048E+04 -1.812949E+05 -2.282298E+04  8.566560E+04  6.093834E+03  1.529146E+04
       392   7 -6.645513E+04 -4.553889E+05 -6.708917E+04  8.356382E+04  1.398513E+04 -6.126626E+03
       392   8 -9.963480E+04 -5.841846E+05 -1.016888E+05  6.261671E+04  1.751560E+04  1.322115E+04
       392   9 -1.536185E+05 -7.202355E+05 -1.539990E+05  9.586267E+04  6.045025E+03  3.252057E+04
       392  10  6.730402E+04  9.293557E+04  5.342548E+04  8.788091E+04  1.647142E-09 -6.352175E-10
       392  11  9.900186E+04  2.266744E+05  8.023492E+04  5.457580E+04  3.911009E-09  4.339145E-09
       392  12  1.146567E+05  3.579117E+05  1.083331E+05  7.545982E+04  8.744439E-10  1.075872E-09
       392  13  4.268444E+02 -1.812619E+05 -6.829772E+03  8.572190E+04  4.348664E-10 -3.830473E-09
       392  14 -3.110683E+02 -1.788318E+05 -1.072219E+04  5.859744E+04  4.112629E-09  7.357537E-09
       392  15 -1.947058E+04 -1.812952E+05 -2.282349E+04  8.566553E+04  2.870511E-10 -1.634618E-08
       392  16 -6.645535E+04 -4.553890E+05 -6.708961E+04  8.356388E+04  3.400324E-09  4.983993E-09
       392  17 -9.963518E+04 -5.841849E+05 -1.016897E+05  6.261652E+04  2.587643E-09  1.371444E-08
       392  18 -1.536189E+05 -7.202366E+05 -1.540011E+05  9.586252E+04 -3.963133E-10 -3.146454E-09
       392  19  6.730428E+04  9.293584E+04  5.342621E+04  8.788107E+04 -1.393152E+04 -1.408194E+04
       392  20  9.900220E+04  2.266745E+05  8.023556E+04  5.457589E+04 -1.753361E+04 -6.087322E+03
       392  21  1.146567E+05  3.579117E+05  1.083332E+05  7.545981E+04 -6.143188E+03  1.952581E+03
       392  22  4.270578E+02 -1.812618E+05 -6.829376E+03  8.572194E+04 -1.395829E+04 -3.975453E+03
       392  23 -3.107135E+02 -1.788316E+05 -1.072144E+04  5.859758E+04 -1.752458E+04 -9.655388E+03
       392  24 -1.947048E+04 -1.812949E+05 -2.282298E+04  8.566560E+04 -6.093834E+03 -1.529146E+04
       392  25 -6.645513E+04 -4.553889E+05 -6.708917E+04  8.356382E+04 -1.398513E+04  6.126626E+03
       392  26 -9.963480E+04 -5.841846E+05 -1.016888E+05  6.261671E+04 -1.751560E+04 -1.322115E+04
       392  27 -1.536185E+05 -7.202355E+05 -1.539990E+05  9.586267E+04 -6.045025E+03 -3.252057E+04
       393   1  1.961776E+05 -1.212087E+05 -1.136122E+05 -1.874974E+04 -5.115129E+03  7.482696E+03
       393   2  2.389502E+05 -1.278433E+05 -1.056210E+05 -1.596016E+04  2.638096E+03  2.365487E+04
       393   3  2.850142E+05 -1.178027E+05 -9.848823E+04 -3.087580E+04  1.040652E+04  2.500618E+04
       393   4  7.641423E+05  1.979860E+04  2.385601E+04 -2.781643E+04  1.640067E+04  7.502386E+03
       393   5  7.613374E+05 -1.312850E+02  1.086028E+04 -1.895599E+04  1.063191E+04  2.365954E+04
       393   6  7.641634E+05 -1.047452E+03  6.387836E+03 -2.779966E+04  4.877696E+03  2.500159E+04
       393   7  1.332403E+06  1.607828E+05  1.613029E+05 -3.689149E+04  3.793607E+04  7.521439E+03
       393   8  1.283979E+06  1.275623E+05  1.273246E+05 -2.195441E+04  1.863238E+04  2.366414E+04
       393   9  1.243527E+06  1.156925E+05  1.112501E+05 -2.472114E+04 -6.553443E+02  2.499694E+04
       393  10  1.961776E+05 -1.212087E+05 -1.136124E+05 -1.874971E+04 -1.018034E-10  5.202834E-11
       393  11  2.389501E+05 -1.278439E+05 -1.056220E+05 -1.596021E+04 -3.012459E-10 -5.621979E-11
       393  12  2.850140E+05 -1.178034E+05 -9.848960E+04 -3.087601E+04  6.037306E-11 -2.625103E-11
       393  13  7.641420E+05  1.979846E+04  2.385540E+04 -2.781653E+04 -2.106373E-11  1.321226E-11
       393  14  7.613371E+05 -1.319167E+02  1.085901E+04 -1.895619E+04 -1.285933E-11 -5.989145E-11
       393  15  7.641632E+05 -1.048130E+03  6.386616E+03 -2.779976E+04 -8.901430E-12 -1.010484E-10
       393  16  1.332401E+06  1.607824E+05  1.613000E+05 -3.689172E+04  3.453067E-11  3.301531E-11
       393  17  1.283978E+06  1.275616E+05  1.273229E+05 -2.195477E+04  4.611150E-10  2.000573E-11
       393  18  1.243527E+06  1.156918E+05  1.112489E+05 -2.472113E+04 -5.170286E-10 -1.052405E-10
       393  19  1.961776E+05 -1.212087E+05 -1.136122E+05 -1.874974E+04  5.115129E+03 -7.482696E+03
       393  20  2.389502E+05 -1.278433E+05 -1.056210E+05 -1.596016E+04 -2.638096E+03 -2.365487E+04
       393  21  2.850142E+05 -1.178027E+05 -9.848823E+04 -3.087580E+04 -1.040652E+04 -2.500618E+04
       393  22  7.641423E+05  1.979860E+04  2.385601E+04 -2.781643E+04 -1.640067E+04 -7.502386E+03
       393  23  7.613374E+05 -1.312850E+02  1.086028E+04 -1.895599E+04 -1.063191E+04 -2.365954E+04
       393  24  7.641634E+05 -1.047452E+03  6.387836E+03 -2.779966E+04 -4.877696E+03 -2.500159E+04
       393  25  1.332403E+06  1.607828E+05  1.613029E+05 -3.689149E+04 -3.793607E+04 -7.521439E+03
       393  26  1.283979E+06  1.275623E+05  1.273246E+05 -2.195441E+04 -1.863238E+04 -2.366414E+04
       393  27  1.243527E+06  1.156925E+05  1.112501E+05 -2.472114E+04  6.553443E+02 -2.499694E+04
       394   1  3.201183E+05 -1.069985E+05 -9.237320E+04 -2.768608E+04  5.176751E+03  2.225437E+04
       394   2  3.636295E+05 -9.736081E+04 -8.474279E+04 -1.887216E+04  4.394876E+03  2.060382E+04
       394   3  4.075652E+05 -8.673748E+04 -7.634005E+04 -2.816114E+04  3.612102E+03  1.829905E+04
       394   4  7.630351E+05  1.023039E+03  5.078742E+03 -2.789263E+04  3.971630E+03  2.225262E+04
       394   5  7.627777E+05 -8.139374E+01  2.750414E+03 -1.884133E+04  2.591986E+03  2.060219E+04
       394   6  7.630463E+05 -9.677450E+01  1.608784E+03 -2.789220E+04  1.211497E+03  1.829774E+04
       394   7  1.206135E+06  1.090314E+05  1.025187E+05 -2.809935E+04  2.765659E+03  2.225086E+04
       394   8  1.162075E+06  9.718739E+04  9.023395E+04 -1.881049E+04  7.879509E+02  2.060056E+04
       394   9  1.118645E+06  8.653550E+04  7.954996E+04 -2.762311E+04 -1.190464E+03  1.829642E+04
       394  10  3.201181E+05 -1.069990E+05 -9.237418E+04 -2.768617E+04 -2.298093E-10 -1.228837E-10
       394  11  3.636294E+05 -9.736127E+04 -8.474362E+04 -1.887223E+04 -2.020542E-10  7.877151E-11
       394  12  4.075651E+05 -8.673785E+04 -7.634070E+04 -2.816119E+04  1.451088E-10  6.996221E-11
       394  13  7.630350E+05  1.022503E+03  5.077782E+03 -2.789270E+04  3.974827E-13 -2.264466E-11
       394  14  7.627776E+05 -8.185149E+01  2.749603E+03 -1.884137E+04 -9.405311E-12  7.413745E-12
       394  15  7.630462E+05 -9.713455E+01  1.608151E+03 -2.789222E+04  2.752673E-11  4.009340E-11
       394  16  1.206135E+06  1.090309E+05  1.025177E+05 -2.809940E+04  2.552821E-10 -4.863244E-12
       394  17  1.162075E+06  9.718693E+04  9.023315E+04 -1.881050E+04  3.024715E-10  2.657630E-10
       394  18  1.118645E+06  8.653514E+04  7.954933E+04 -2.762309E+04 -3.220846E-10  1.543167E-11
       394  19  3.201183E+05 -1.069985E+05 -9.237320E+04 -2.768608E+04 -5.176751E+03 -2.225437E+04
       394  20  3.636295E+05 -9.736081E+04 -8.474279E+04 -1.887216E+04 -4.394876E+03 -2.060382E+04
       394  21  4.075652E+05 -8.673748E+04 -7.634005E+04 -2.816114E+04 -3.612102E+03 -1.829905E+04
       394  22  7.630351E+05  1.023039E+03  5.078742E+03 -2.789263E+04 -3.971630E+03 -2.225262E+04
       394  23  7.627777E+05 -8.139374E+01  2.750414E+03 -1.884133E+04 -2.591986E+03 -2.060219E+04
       394  24  7.630463E+05 -9.677450E+01  1.608784E+03 -2.789220E+04 -1.211497E+03 -1.829774E+04
       394  25  1.206135E+06  1.090314E+05  1.025187E+05 -2.809935E+04 -2.765659E+03 -2.225086E+04
       394  26  1.162075E+06  9.718739E+04  9.023395E+04 -1.881049E+04 -7.879509E+02 -2.060056E+04
       394  27  1.118645E+06  8.653550E+04  7.954996E+04 -2.762311E+04  1.190464E+03 -1.829642E+04
       395   1  4.429987E+05 -7.792268E+04 -6.871488E+04 -2.792366E+04  3.161315E+03  1.680442E+04
       395   2  4.862712E+05 -6.743482E+04 -5.983612E+04 -1.891926E+04  2.817647E+03  1.438023E+04
       395   3  5.296369E+05 -5.688742E+04 -5.071151E+04 -2.787690E+04  2.473098E+03  1.193268E+04
       395   4  7.629560E+05  1.837223E+01  1.244233E+03 -2.786107E+04  9.603105E+02  1.680343E+04
       395   5  7.629118E+05 -2.977725E+01  7.383590E+02 -1.888030E+04  5.951070E+02  1.437959E+04
       395   6  7.629632E+05 -1.442025E+01  4.934109E+02 -2.786107E+04  2.290464E+02  1.193240E+04
       395   7  1.083009E+06  7.795261E+04  7.119717E+04 -2.779845E+04 -1.241814E+03  1.680243E+04
       395   8  1.039624E+06  6.737016E+04  6.130822E+04 -1.884132E+04 -1.628411E+03  1.437895E+04
       395   9  9.963404E+05  5.685495E+04  5.169504E+04 -2.784524E+04 -2.015837E+03  1.193212E+04
       395  10  4.429986E+05 -7.792299E+04 -6.871543E+04 -2.792370E+04  1.863500E-11 -4.115317E-11
       395  11  4.862712E+05 -6.743504E+04 -5.983652E+04 -1.891929E+04  3.309814E-11 -4.249792E-13
       395  12  5.296368E+05 -5.688758E+04 -5.071179E+04 -2.787692E+04 -1.999411E-12 -7.844439E-11
       395  13  7.629559E+05  1.806868E+01  1.243700E+03 -2.786108E+04 -2.564388E-11 -4.808268E-11
       395  14  7.629117E+05 -2.999946E+01  7.379696E+02 -1.888030E+04  1.682493E-11  1.822533E-10
       395  15  7.629631E+05 -1.457321E+01  4.931431E+02 -2.786107E+04  7.347049E-11  2.132225E-11
       395  16  1.083009E+06  7.795231E+04  7.119664E+04 -2.779844E+04 -1.231958E-10 -1.202635E-12
       395  17  1.039624E+06  6.736994E+04  6.130782E+04 -1.884130E+04  4.483853E-11 -2.663706E-12
       395  18  9.963403E+05  5.685479E+04  5.169476E+04 -2.784522E+04 -9.529762E-11  6.448699E-11
       395  19  4.429987E+05 -7.792268E+04 -6.871488E+04 -2.792366E+04 -3.161315E+03 -1.680442E+04
       395  20  4.862712E+05 -6.743482E+04 -5.983612E+04 -1.891926E+04 -2.817647E+03 -1.438023E+04
       395  21  5.296369E+05 -5.688742E+04 -5.071151E+04 -2.787690E+04 -2.473098E+03 -1.193268E+04
       395  22  7.629560E+05  1.837223E+01  1.244233E+03 -2.786107E+04 -9.603105E+02 -1.680343E+04
       395  23  7.629118E+05 -2.977725E+01  7.383590E+02 -1.888030E+04 -5.951070E+02 -1.437959E+04
       395  24  7.629632E+05 -1.442025E+01  4.934109E+02 -2.786107E+04 -2.290464E+02 -1.193240E+04
       395  25  1.083009E+06  7.795261E+04  7.119717E+04 -2.779845E+04  1.241814E+03 -1.680243E+04
       395  26  1.039624E+06  6.737016E+04  6.130822E+04 -1.884132E+04  1.628411E+03 -1.437895E+04
       395  27  9.963404E+05  5.685495E+04  5.169504E+04 -2.784524E+04  2.015837E+03 -1.193212E+04
       396   1  5.648724E+05 -4.824401E+04 -4.281759E+04 -2.783887E+04  2.376775E+03  1.050453E+04
       396   2  6.079193E+05 -3.777527E+04 -3.354240E+04 -1.889530E+04  2.178938E+03  8.060830E+03
       396   3  6.510022E+05 -2.729759E+04 -2.413496E+04 -2.781214E+04  1.980600E+03  5.619391E+03
       396   4  7.629527E+05 -7.719945E+00  4.289445E+02 -2.783854E+04  1.455893E+02  1.050443E+04
       396   5  7.629381E+05 -7.291541E+00  3.965540E+02 -1.890847E+04 -5.031514E+01  8.060922E+03
       396   6  7.629566E+05  1.693640E+00  4.949384E+02 -2.783854E+04 -2.467071E+02  5.619687E+03
       396   7  9.610697E+05  4.822596E+04  4.367313E+04 -2.783820E+04 -2.086298E+03  1.050432E+04
       396   8  9.179793E+05  3.775909E+04  3.433407E+04 -1.892164E+04 -2.280117E+03  8.061013E+03
       396   9  8.749227E+05  2.730014E+04  2.512409E+04 -2.786494E+04 -2.474411E+03  5.619984E+03
       396  10  5.648724E+05 -4.824413E+04 -4.281781E+04 -2.783889E+04 -1.199207E-10 -6.983538E-11
       396  11  6.079193E+05 -3.777534E+04 -3.354253E+04 -1.889532E+04  2.670825E-11  9.260058E-11
       396  12  6.510022E+05 -2.729763E+04 -2.413502E+04 -2.781215E+04  1.620983E-10 -9.390106E-11
       396  13  7.629527E+05 -7.838482E+00  4.287370E+02 -2.783854E+04 -2.445560E-11 -1.212667E-11
       396  14  7.629380E+05 -7.361342E+00  3.964319E+02 -1.890847E+04  1.605151E-11 -1.400869E-11
       396  15  7.629566E+05  1.659699E+00  4.948789E+02 -2.783853E+04  2.229957E-11 -3.875911E-11
       396  16  9.610697E+05  4.822584E+04  4.367292E+04 -2.783818E+04  1.838825E-10  6.472942E-11
       396  17  9.179792E+05  3.775902E+04  3.433394E+04 -1.892162E+04  6.822768E-11  1.401699E-10
       396  18  8.749227E+05  2.730011E+04  2.512402E+04 -2.786493E+04 -3.858661E-11 -4.907014E-12
       396  19  5.648724E+05 -4.824401E+04 -4.281759E+04 -2.783887E+04 -2.376775E+03 -1.050453E+04
       396  20  6.079193E+05 -3.777527E+04 -3.354240E+04 -1.889530E+04 -2.178938E+03 -8.060830E+03
       396  21  6.510022E+05 -2.729759E+04 -2.413496E+04 -2.781214E+04 -1.980600E+03 -5.619391E+03
       396  22  7.629527E+05 -7.719945E+00  4.289445E+02 -2.783854E+04 -1.455893E+02 -1.050443E+04
       396  23  7.629381E+05 -7.291541E+00  3.965540E+02 -1.890847E+04  5.031514E+01 -8.060922E+03
       396  24  7.629566E+05  1.693640E+00  4.949384E+02 -2.783854E+04  2.467071E+02 -5.619687E+03
       396  25  9.610697E+05  4.822596E+04  4.367313E+04 -2.783820E+04  2.086298E+03 -1.050432E+04
       396  26  9.179793E+05  3.775909E+04  3.433407E+04 -1.892164E+04  2.280117E+03 -8.061013E+03
       396  27  8.749227E+05  2.730014E+04  2.512409E+04 -2.786494E+04  2.474411E+03 -5.619984E+03
       397   1  6.861085E+05 -1.869748E+04 -1.610734E+04 -2.780094E+04  1.879212E+03  4.199860E+03
       397   2  7.290329E+05 -8.266548E+03 -6.468532E+03 -1.887923E+04  1.406318E+03  1.762746E+03
       397   3  7.720212E+05  2.190901E+03  3.482865E+03 -2.777004E+04  9.332864E+02 -6.727374E+02
       397   4  7.629645E+05  2.235681E+00  5.972484E+02 -2.782794E+04 -3.461468E+02  4.200232E+03
       397   5  7.629338E+05 -7.712773E+00  9.528521E+02 -1.892171E+04 -8.176421E+02  1.763158E+03
       397   6  7.629651E+05  8.732564E+00  1.620134E+03 -2.782793E+04 -1.289243E+03 -6.722782E+02
       397   7  8.398260E+05  1.870156E+04  1.730151E+04 -2.785494E+04 -2.571777E+03  4.200604E+03
       397   8  7.968359E+05  8.251049E+03  8.374185E+03 -1.896419E+04 -3.041722E+03  1.763570E+03
       397   9  7.539091E+05 -2.173439E+03 -2.425830E+02 -2.788582E+04 -3.511741E+03 -6.718186E+02
       397  10  6.861085E+05 -1.869750E+04 -1.610738E+04 -2.780094E+04 -2.025218E-10 -1.715847E-10
       397  11  7.290329E+05 -8.266552E+03 -6.468541E+03 -1.887924E+04  5.514046E-11 -9.114621E-11
       397  12  7.720212E+05  2.190901E+03  3.482863E+03 -2.777004E+04  3.146215E-12  2.164696E-11
       397  13  7.629645E+05  2.216697E+00  5.972150E+02 -2.782794E+04 -1.109927E-10  5.531113E-11
       397  14  7.629338E+05 -7.716292E+00  9.528450E+02 -1.892171E+04 -1.354464E-10  1.394595E-10
       397  15  7.629651E+05  8.731633E+00  1.620130E+03 -2.782793E+04 -1.493950E-10 -1.174729E-11
       397  16  8.398260E+05  1.870154E+04  1.730146E+04 -2.785494E+04  1.663512E-10 -5.524474E-11
       397  17  7.968359E+05  8.251043E+03  8.374162E+03 -1.896418E+04 -1.918802E-10  1.074962E-10
       397  18  7.539091E+05 -2.173443E+03 -2.426070E+02 -2.788582E+04 -9.791041E-12 -5.236626E-11
       397  19  6.861085E+05 -1.869748E+04 -1.610734E+04 -2.780094E+04 -1.879212E+03 -4.199860E+03
       397  20  7.290329E+05 -8.266548E+03 -6.468532E+03 -1.887923E+04 -1.406318E+03 -1.762746E+03
       397  21  7.720212E+05  2.190901E+03  3.482865E+03 -2.777004E+04 -9.332864E+02  6.727374E+02
       397  22  7.629645E+05  2.235681E+00  5.972484E+02 -2.782794E+04  3.461468E+02 -4.200232E+03
       397  23  7.629338E+05 -7.712773E+00  9.528521E+02 -1.892171E+04  8.176421E+02 -1.763158E+03
       397  24  7.629651E+05  8.732564E+00  1.620134E+03 -2.782793E+04  1.289243E+03  6.722782E+02
       397  25  8.398260E+05  1.870156E+04  1.730151E+04 -2.785494E+04  2.571777E+03 -4.200604E+03
       397  26  7.968359E+05  8.251049E+03  8.374185E+03 -1.896419E+04  3.041722E+03 -1.763570E+03
       397  27  7.539091E+05 -2.173439E+03 -2.425830E+02 -2.788582E+04  3.511741E+03  6.718186E+02
       398   1  8.071479E+05  1.075400E+04  1.189969E+04 -2.771867E+04  6.016181E+02 -2.092342E+03
       398   2  8.499765E+05  2.117371E+04  2.273855E+04 -1.881805E+04 -1.233364E+03 -4.524642E+03
       398   3  8.931293E+05  3.194274E+04  3.485701E+04 -2.774254E+04 -3.068175E+03 -6.939076E+03
       398   4  7.630221E+05 -1.925233E+01  2.120212E+03 -2.783079E+04 -1.627238E+03 -2.091903E+03
       398   5  7.628603E+05 -4.824518E+01  3.665924E+03 -1.891812E+04 -3.445725E+03 -4.524321E+03
       398   6  7.630190E+05  2.695772E+02  6.480221E+03 -2.783072E+04 -5.263917E+03 -6.938867E+03
       398   7  7.188981E+05 -1.079264E+04 -7.659372E+03 -2.794291E+04 -3.855937E+03 -2.091463E+03
       398   8  6.757512E+05 -2.127070E+04 -1.540715E+04 -1.901819E+04 -5.657779E+03 -4.524000E+03
       398   9  6.329245E+05 -3.140471E+04 -2.189757E+04 -2.791888E+04 -7.459205E+03 -6.938657E+03
       398  10  8.071479E+05  1.075400E+04  1.189968E+04 -2.771867E+04 -8.583264E-11 -1.412667E-10
       398  11  8.499765E+05  2.117368E+04  2.273851E+04 -1.881805E+04  8.630406E-11 -2.397240E-11
       398  12  8.931293E+05  3.194269E+04  3.485690E+04 -2.774256E+04  4.641365E-11 -2.016448E-11
       398  13  7.630221E+05 -1.925774E+01  2.120199E+03 -2.783080E+04  6.884657E-11 -7.528987E-11
       398  14  7.628603E+05 -4.827035E+01  3.665864E+03 -1.891814E+04 -9.948008E-11 -8.258174E-11
       398  15  7.630189E+05  2.695180E+02  6.480078E+03 -2.783075E+04  2.220285E-10  4.483805E-12
       398  16  7.188981E+05 -1.079265E+04 -7.659408E+03 -2.794292E+04  6.976509E-11 -6.733389E-12
       398  17  6.757512E+05 -2.127073E+04 -1.540724E+04 -1.901821E+04 -9.634026E-11  1.410647E-11
       398  18  6.329244E+05 -3.140477E+04 -2.189776E+04 -2.791893E+04 -4.595710E-11 -7.704094E-14
       398  19  8.071479E+05  1.075400E+04  1.189969E+04 -2.771867E+04 -6.016181E+02  2.092342E+03
       398  20  8.499765E+05  2.117371E+04  2.273855E+04 -1.881805E+04  1.233364E+03  4.524642E+03
       398  21  8.931293E+05  3.194274E+04  3.485701E+04 -2.774254E+04  3.068175E+03  6.939076E+03
       398  22  7.630221E+05 -1.925233E+01  2.120212E+03 -2.783079E+04  1.627238E+03  2.091903E+03
       398  23  7.628603E+05 -4.824518E+01  3.665924E+03 -1.891812E+04  3.445725E+03  4.524321E+03
       398  24  7.630190E+05  2.695772E+02  6.480221E+03 -2.783072E+04  5.263917E+03  6.938867E+03
       398  25  7.188981E+05 -1.079264E+04 -7.659372E+03 -2.794291E+04  3.855937E+03  2.091463E+03
       398  26  6.757512E+05 -2.127070E+04 -1.540715E+04 -1.901819E+04  5.657779E+03  4.524000E+03
       398  27  6.329245E+05 -3.140471E+04 -2.189757E+04 -2.791888E+04  7.459205E+03  6.938657E+03
       399   1  9.287652E+05  3.994757E+04  4.475127E+04 -2.675363E+04 -4.253121E+03 -8.399064E+03
       399   2  9.706851E+05  5.058992E+04  6.033290E+04 -1.936738E+04 -1.201302E+04 -1.072985E+04
       399   3  1.015108E+06  6.714387E+04  8.244181E+04 -2.985752E+04 -1.977304E+04 -1.262226E+04
       399   4  7.634862E+05 -3.350552E+02  8.458404E+03 -2.784219E+04 -6.580744E+03 -8.398952E+03
       399   5  7.622648E+05 -1.899860E+02  1.465039E+04 -1.890377E+04 -1.393821E+04 -1.073005E+04
       399   6  7.634760E+05  5.798143E+03  2.709215E+04 -2.784199E+04 -2.129527E+04 -1.262273E+04
       399   7  5.982327E+05 -4.061950E+04 -2.783611E+04 -2.893045E+04 -8.907756E+03 -8.398831E+03
       399   8  5.538852E+05 -5.097279E+04 -3.103473E+04 -1.844032E+04 -1.586277E+04 -1.073025E+04
       399   9  5.119028E+05 -5.555181E+04 -2.826137E+04 -2.582729E+04 -2.281689E+04 -1.262321E+04
       399  10  9.287651E+05  3.994749E+04  4.475111E+04 -2.675366E+04  1.875036E-10  6.969952E-11
       399  11  9.706849E+05  5.058976E+04  6.033241E+04 -1.936748E+04  3.448130E-10 -1.083310E-10
       399  12  1.015108E+06  6.714359E+04  8.244078E+04 -2.985772E+04 -4.910362E-11  1.189776E-11
       399  13  7.634861E+05 -3.351426E+02  8.458190E+03 -2.784223E+04 -2.652408E-11  7.517925E-11
       399  14  7.622646E+05 -1.901618E+02  1.464981E+04 -1.890389E+04 -5.828045E-11 -1.181036E-12
       399  15  7.634755E+05  5.797851E+03  2.709100E+04 -2.784221E+04  4.623621E-11  5.848983E-11
       399  16  5.982326E+05 -4.061960E+04 -2.783639E+04 -2.893051E+04 -2.337486E-10 -1.439515E-11
       399  17  5.538849E+05 -5.097298E+04 -3.103542E+04 -1.844046E+04 -2.263202E-10  2.152411E-11
       399  18  5.119022E+05 -5.555212E+04 -2.826265E+04 -2.582752E+04 -7.345738E-11  2.754444E-11
       399  19  9.287652E+05  3.994757E+04  4.475127E+04 -2.675363E+04  4.253121E+03  8.399064E+03
       399  20  9.706851E+05  5.058992E+04  6.033290E+04 -1.936738E+04  1.201302E+04  1.072985E+04
       399  21  1.015108E+06  6.714387E+04  8.244181E+04 -2.985752E+04  1.977304E+04  1.262226E+04
       399  22  7.634862E+05 -3.350552E+02  8.458404E+03 -2.784219E+04  6.580744E+03  8.398952E+03
       399  23  7.622648E+05 -1.899860E+02  1.465039E+04 -1.890377E+04  1.393821E+04  1.073005E+04
       399  24  7.634760E+05  5.798143E+03  2.709215E+04 -2.784199E+04  2.129527E+04  1.262273E+04
       399  25  5.982327E+05 -4.061950E+04 -2.783611E+04 -2.893045E+04  8.907756E+03  8.398831E+03
       399  26  5.538852E+05 -5.097279E+04 -3.103473E+04 -1.844032E+04  1.586277E+04  1.073025E+04
       399  27  5.119028E+05 -5.555181E+04 -2.826137E+04 -2.582729E+04  2.281689E+04  1.262321E+04
       400   1  1.056689E+06  6.473734E+04  9.695789E+04 -1.248947E+04 -2.172101E+04 -1.491961E+04
       400   2  1.084792E+06  8.038468E+04  1.316996E+05 -3.655979E+04 -6.154490E+04 -1.481280E+04
       400   3  1.143848E+06  1.989930E+05  2.180879E+05 -7.824050E+04 -1.013752E+05 -4.800605E+03
       400   4  7.694710E+05 -5.225352E+03  3.408544E+04 -2.777600E+04 -2.613386E+04 -1.491992E+04
       400   5  7.547482E+05 -2.742214E+02  5.806719E+04 -1.898463E+04 -5.690105E+04 -1.481421E+04
       400   6  7.694223E+05  1.060933E+05  1.274291E+05 -2.780085E+04 -8.767127E+04 -4.804975E+03
       400   7  4.823302E+05 -7.519266E+04 -2.879181E+04 -4.305538E+04 -3.054470E+04 -1.492001E+04
       400   8  4.248066E+05 -8.093934E+04 -1.557183E+04 -1.418896E+03 -5.225963E+04 -1.481536E+04
       400   9  3.951305E+05  1.319304E+04  3.676229E+04  2.260833E+04 -7.397552E+04 -4.807125E+03
       400  10  1.056689E+06  6.473698E+04  9.695658E+04 -1.248973E+04 -2.912167E-11  5.681900E-11
       400  11  1.084788E+06  8.038343E+04  1.316921E+05 -3.656052E+04 -4.922625E-10 -2.169534E-11
       400  12  1.143837E+06  1.989902E+05  2.180685E+05 -7.824089E+04  1.803840E-11  9.117480E-12
       400  13  7.694702E+05 -5.225775E+03  3.408374E+04 -2.777631E+04 -7.576290E-11  9.798026E-11
       400  14  7.547447E+05 -2.753250E+02  5.806070E+04 -1.898530E+04  1.010765E-10  2.094327E-10
       400  15  7.694141E+05  1.060912E+05  1.274146E+05 -2.780119E+04  1.158206E-10 -2.166671E-11
       400  16  4.823291E+05 -7.519315E+04 -2.879398E+04 -4.305575E+04  1.677328E-10  1.279377E-10
       400  17  4.248036E+05 -8.094031E+04 -1.557737E+04 -1.419520E+03  3.395273E-10  3.535591E-10
       400  18  3.951246E+05  1.319155E+04  3.675197E+04  2.260804E+04 -3.125540E-10  8.340187E-11
       400  19  1.056689E+06  6.473734E+04  9.695789E+04 -1.248947E+04  2.172101E+04  1.491961E+04
       400  20  1.084792E+06  8.038468E+04  1.316996E+05 -3.655979E+04  6.154490E+04  1.481280E+04
       400  21  1.143848E+06  1.989930E+05  2.180879E+05 -7.824050E+04  1.013752E+05  4.800605E+03
       400  22  7.694710E+05 -5.225352E+03  3.408544E+04 -2.777600E+04  2.613386E+04  1.491992E+04
       400  23  7.547482E+05 -2.742214E+02  5.806719E+04 -1.898463E+04  5.690105E+04  1.481421E+04
       400  24  7.694223E+05  1.060933E+05  1.274291E+05 -2.780085E+04  8.767127E+04  4.804975E+03
       400  25  4.823302E+05 -7.519266E+04 -2.879181E+04 -4.305538E+04  3.054470E+04  1.492001E+04
       400  26  4.248066E+05 -8.093934E+04 -1.557183E+04 -1.418896E+03  5.225963E+04  1.481536E+04
       400  27  3.951305E+05  1.319304E+04  3.676229E+04  2.260833E+04  7.397552E+04  4.807125E+03
       401   1 -2.469717E+05 -1.011973E+05 -9.790336E+04 -2.305508E+04 -1.301224E+04  5.484479E+03
       401   2 -2.082114E+05 -9.331416E+04 -8.328682E+04 -1.635486E+04 -3.903636E+03  1.722257E+04
       401   3 -1.702194E+05 -8.399584E+04 -7.423273E+04 -2.502902E+04  5.209106E+03  1.791911E+04
       401   4  1.735227E+05  3.279692E+03  3.967277E+03 -2.453914E+04  2.722206E+03  5.488939E+03
       401   5  1.730378E+05 -4.384828E+01  1.802506E+03 -1.685183E+04  1.764475E+03  1.722281E+04
       401   6  1.735314E+05 -1.847698E+02  1.066716E+03 -2.453842E+04  8.104401E+02  1.791820E+04
       401   7  5.941791E+05  1.077439E+05  1.058261E+05 -2.602421E+04  1.846728E+04  5.493323E+03
       401   8  5.544225E+05  9.321661E+04  8.688283E+04 -1.734911E+04  7.436029E+03  1.722305E+04
       401   9  5.173929E+05  8.361842E+04  7.635906E+04 -2.404754E+04 -3.590632E+03  1.791728E+04
       401  10 -2.469719E+05 -1.011974E+05 -9.790373E+04 -2.305502E+04 -1.887680E-11  1.403855E-10
       401  11 -2.082115E+05 -9.331449E+04 -8.328741E+04 -1.635481E+04 -8.998066E-11 -6.874322E-11
       401  12 -1.702196E+05 -8.399619E+04 -7.423338E+04 -2.502910E+04  1.762773E-11 -1.278291E-10
       401  13  1.735227E+05  3.279658E+03  3.967206E+03 -2.453915E+04  1.190387E-10 -8.974231E-11
       401  14  1.730377E+05 -4.416766E+01  1.801942E+03 -1.685186E+04  6.732490E-11  2.049736E-11
       401  15  1.735313E+05 -1.851148E+02  1.066112E+03 -2.453843E+04  1.274192E-11 -1.121337E-10
       401  16  5.941788E+05  1.077437E+05  1.058254E+05 -2.602429E+04  1.223417E-10  1.574859E-10
       401  17  5.544224E+05  9.321628E+04  8.688217E+04 -1.734922E+04  1.538590E-10 -1.814559E-10
       401  18  5.173928E+05  8.361807E+04  7.635844E+04 -2.404749E+04 -1.008443E-10 -1.795484E-10
       401  19 -2.469717E+05 -1.011973E+05 -9.790336E+04 -2.305508E+04  1.301224E+04 -5.484479E+03
       401  20 -2.082114E+05 -9.331416E+04 -8.328682E+04 -1.635486E+04  3.903636E+03 -1.722257E+04
       401  21 -1.702194E+05 -8.399584E+04 -7.423273E+04 -2.502902E+04 -5.209106E+03 -1.791911E+04
       401  22  1.735227E+05  3.279692E+03  3.967277E+03 -2.453914E+04 -2.722206E+03 -5.488939E+03
       401  23  1.730378E+05 -4.384828E+01  1.802506E+03 -1.685183E+04 -1.764475E+03 -1.722281E+04
       401  24  1.735314E+05 -1.847698E+02  1.066716E+03 -2.453842E+04 -8.104401E+02 -1.791820E+04
       401  25  5.941791E+05  1.077439E+05  1.058261E+05 -2.602421E+04 -1.846728E+04 -5.493323E+03
       401  26  5.544225E+05  9.321661E+04  8.688283E+04 -1.734911E+04 -7.436029E+03 -1.722305E+04
       401  27  5.173929E+05  8.361842E+04  7.635906E+04 -2.404754E+04  3.590632E+03 -1.791728E+04
       402   1 -1.389401E+05 -7.604398E+04 -6.790414E+04 -2.457352E+04  1.843676E+03  1.569029E+04
       402   2 -1.007694E+05 -6.685229E+04 -5.965023E+04 -1.669442E+04  2.059703E+03  1.414396E+04
       402   3 -6.257358E+04 -5.754948E+04 -5.150365E+04 -2.463613E+04  2.275031E+03  1.210508E+04
       402   4  1.733410E+05  1.626606E+02  8.495495E+02 -2.463781E+04  6.584855E+02  1.568974E+04
       402   5  1.732935E+05 -1.811750E+01  4.654245E+02 -1.672762E+04  4.252526E+02  1.414368E+04
       402   6  1.733472E+05 -9.867364E+00  2.858200E+02 -2.463782E+04  1.913016E+02  1.210517E+04
       402   7  4.857133E+05  7.636276E+04  6.959727E+04 -2.470213E+04 -5.272938E+02  1.568919E+04
       402   8  4.474267E+05  6.681104E+04  6.057652E+04 -1.676084E+04 -1.209910E+03  1.414339E+04
       402   9  4.093200E+05  5.752603E+04  5.207191E+04 -2.463951E+04 -1.893210E+03  1.210525E+04
       402  10 -1.389402E+05 -7.604424E+04 -6.790461E+04 -2.457354E+04 -4.976996E-11 -1.652116E-10
       402  11 -1.007695E+05 -6.685251E+04 -5.965061E+04 -1.669444E+04 -4.160213E-11 -1.089815E-10
       402  12 -6.257363E+04 -5.754964E+04 -5.150393E+04 -2.463615E+04  4.652032E-11  7.504150E-11
       402  13  1.733410E+05  1.623962E+02  8.490860E+02 -2.463781E+04  3.602548E-11 -1.309129E-10
       402  14  1.732935E+05 -1.833238E+01  4.650482E+02 -1.672763E+04 -1.393608E-10 -6.101123E-11
       402  15  1.733471E+05 -1.002474E+01  2.855446E+02 -2.463782E+04  4.418165E-11 -6.732739E-11
       402  16  4.857133E+05  7.636249E+04  6.959680E+04 -2.470212E+04  9.399003E-11 -1.231375E-10
       402  17  4.474267E+05  6.681082E+04  6.057614E+04 -1.676083E+04  7.171141E-11 -5.546550E-11
       402  18  4.093200E+05  5.752587E+04  5.207163E+04 -2.463949E+04  1.209828E-10 -1.671857E-10
       402  19 -1.389401E+05 -7.604398E+04 -6.790414E+04 -2.457352E+04 -1.843676E+03 -1.569029E+04
       402  20 -1.007694E+05 -6.685229E+04 -5.965023E+04 -1.669442E+04 -2.059703E+03 -1.414396E+04
       402  21 -6.257358E+04 -5.754948E+04 -5.150365E+04 -2.463613E+04 -2.275031E+03 -1.210508E+04
       402  22  1.733410E+05  1.626606E+02  8.495495E+02 -2.463781E+04 -6.584855E+02 -1.568974E+04
       402  23  1.732935E+05 -1.811750E+01  4.654245E+02 -1.672762E+04 -4.252526E+02 -1.414368E+04
       402  24  1.733472E+05 -9.867364E+00  2.858200E+02 -2.463782E+04 -1.913016E+02 -1.210517E+04
       402  25  4.857133E+05  7.636276E+04  6.959727E+04 -2.470213E+04  5.272938E+02 -1.568919E+04
       402  26  4.474267E+05  6.681104E+04  6.057652E+04 -1.676084E+04  1.209910E+03 -1.414339E+04
       402  27  4.093200E+05  5.752603E+04  5.207191E+04 -2.463951E+04  1.893210E+03 -1.210525E+04
       403   1 -3.142196E+04 -4.989177E+04 -4.454089E+04 -2.460342E+04  2.084524E+03  1.080145E+04
       403   2  6.693835E+03 -4.062365E+04 -3.634608E+04 -1.669531E+04  2.022942E+03  8.664538E+03
       403   3  4.482267E+04 -3.133902E+04 -2.810725E+04 -2.460235E+04  1.960891E+03  6.506397E+03
       403   4  1.733311E+05  1.018325E+01  2.300942E+02 -2.463660E+04  1.454345E+02  1.080167E+04
       403   5  1.733255E+05  1.397927E+00  1.630039E+02 -1.672915E+04  6.442025E+01  8.664948E+03
       403   6  1.733349E+05  1.259146E+01  1.534642E+02 -2.463660E+04 -1.705886E+01  6.507008E+03
       403   7  3.781235E+05  4.990934E+04  4.499856E+04 -2.466978E+04 -1.794287E+03  1.080189E+04
       403   8  3.399831E+05  4.062460E+04  3.667042E+04 -1.676300E+04 -1.894621E+03  8.665358E+03
       403   9  3.018625E+05  3.136309E+04  2.841318E+04 -2.467085E+04 -1.995414E+03  6.507618E+03
       403  10 -3.142199E+04 -4.989189E+04 -4.454112E+04 -2.460343E+04 -4.681784E-12  6.384161E-12
       403  11  6.693811E+03 -4.062373E+04 -3.634623E+04 -1.669532E+04 -5.168182E-11 -4.359667E-11
       403  12  4.482266E+04 -3.133906E+04 -2.810733E+04 -2.460236E+04  1.098451E-10 -1.850200E-10
       403  13  1.733311E+05  1.005794E+01  2.298749E+02 -2.463660E+04 -1.472688E-10 -6.010166E-12
       403  14  1.733255E+05  1.317295E+00  1.628627E+02 -1.672915E+04  2.201978E-10  1.228994E-10
       403  15  1.733349E+05  1.254599E+01  1.533846E+02 -2.463660E+04 -7.807037E-11  1.777672E-10
       403  16  3.781235E+05  4.990921E+04  4.499834E+04 -2.466977E+04  7.191983E-11 -9.856200E-11
       403  17  3.399831E+05  4.062451E+04  3.667027E+04 -1.676299E+04 -2.200197E-10 -1.732290E-11
       403  18  3.018625E+05  3.136305E+04  2.841309E+04 -2.467084E+04  1.842785E-10 -1.572882E-10
       403  19 -3.142196E+04 -4.989177E+04 -4.454089E+04 -2.460342E+04 -2.084524E+03 -1.080145E+04
       403  20  6.693835E+03 -4.062365E+04 -3.634608E+04 -1.669531E+04 -2.022942E+03 -8.664538E+03
       403  21  4.482267E+04 -3.133902E+04 -2.810725E+04 -2.460235E+04 -1.960891E+03 -6.506397E+03
       403  22  1.733311E+05  1.018325E+01  2.300942E+02 -2.463660E+04 -1.454345E+02 -1.080167E+04
       403  23  1.733255E+05  1.397927E+00  1.630039E+02 -1.672915E+04 -6.442025E+01 -8.664948E+03
       403  24  1.733349E+05  1.259146E+01  1.534642E+02 -2.463660E+04  1.705886E+01 -6.507008E+03
       403  25  3.781235E+05  4.990934E+04  4.499856E+04 -2.466978E+04  1.794287E+03 -1.080189E+04
       403  26  3.399831E+05  4.062460E+04  3.667042E+04 -1.676300E+04  1.894621E+03 -8.665358E+03
       403  27  3.018625E+05  3.136309E+04  2.841318E+04 -2.467085E+04  1.995414E+03 -6.507618E+03
       404   1  7.594450E+04 -2.370683E+04 -2.106412E+04 -2.460508E+04  1.924661E+03  5.245584E+03
       404   2  1.140357E+05 -1.444689E+04 -1.276108E+04 -1.670757E+04  1.811441E+03  3.084269E+03
       404   3  1.521328E+05 -5.174324E+03 -4.384464E+03 -2.461269E+04  1.698052E+03  9.223097E+02
       404   4  1.733343E+05  1.433754E+01  1.650267E+02 -2.463385E+04 -4.642698E+01  5.246273E+03
       404   5  1.733323E+05  8.590691E+00  2.290129E+02 -1.673258E+04 -1.602843E+02  3.085024E+03
       404   6  1.733356E+05  1.581667E+01  3.672206E+02 -2.463385E+04 -2.743043E+02  9.231354E+02
       404   7  2.707329E+05  2.373487E+04  2.139361E+04 -2.466262E+04 -2.017820E+03  5.246962E+03
       404   8  2.326322E+05  1.446384E+04  1.321891E+04 -1.675760E+04 -2.132196E+03  3.085778E+03
       404   9  1.945388E+05  5.205929E+03  5.118891E+03 -2.465501E+04 -2.246728E+03  9.239613E+02
       404  10  7.594449E+04 -2.370686E+04 -2.106417E+04 -2.460509E+04  2.077465E-10 -3.363780E-11
       404  11  1.140357E+05 -1.444690E+04 -1.276111E+04 -1.670758E+04  1.681016E-10 -2.428479E-11
       404  12  1.521328E+05 -5.174326E+03 -4.384471E+03 -2.461269E+04 -3.461297E-10  1.341926E-11
       404  13  1.733343E+05  1.430798E+01  1.649750E+02 -2.463385E+04 -1.012947E-10 -3.144410E-10
       404  14  1.733323E+05  8.580463E+00  2.289949E+02 -1.673258E+04 -3.679082E-10  4.120904E-12
       404  15  1.733356E+05  1.581574E+01  3.672189E+02 -2.463385E+04 -3.312346E-10 -5.836953E-11
       404  16  2.707329E+05  2.373484E+04  2.139355E+04 -2.466262E+04 -1.234357E-10 -7.563438E-11
       404  17  2.326322E+05  1.446383E+04  1.321888E+04 -1.675759E+04 -5.853216E-10 -8.073451E-11
       404  18  1.945388E+05  5.205926E+03  5.118880E+03 -2.465501E+04  4.905655E-10 -2.104520E-10
       404  19  7.594450E+04 -2.370683E+04 -2.106412E+04 -2.460508E+04 -1.924661E+03 -5.245584E+03
       404  20  1.140357E+05 -1.444689E+04 -1.276108E+04 -1.670757E+04 -1.811441E+03 -3.084269E+03
       404  21  1.521328E+05 -5.174324E+03 -4.384464E+03 -2.461269E+04 -1.698052E+03 -9.223097E+02
       404  22  1.733343E+05  1.433754E+01  1.650267E+02 -2.463385E+04  4.642698E+01 -5.246273E+03
       404  23  1.733323E+05  8.590691E+00  2.290129E+02 -1.673258E+04  1.602843E+02 -3.085024E+03
       404  24  1.733356E+05  1.581667E+01  3.672206E+02 -2.463385E+04  2.743043E+02 -9.231354E+02
       404  25  2.707329E+05  2.373487E+04  2.139361E+04 -2.466262E+04  2.017820E+03 -5.246962E+03
       404  26  2.326322E+05  1.446384E+04  1.321891E+04 -1.675760E+04  2.132196E+03 -3.085778E+03
       404  27  1.945388E+05  5.205929E+03  5.118891E+03 -2.465501E+04  2.246728E+03 -9.239613E+02
       405   1  1.832548E+05  2.453085E+03  2.753097E+03 -2.461924E+04  1.621040E+03 -3.361218E+02
       405   2  2.213258E+05  1.170237E+04  1.132824E+04 -1.671124E+04  1.217902E+03 -2.497794E+03
       405   3  2.594453E+05  2.098192E+04  2.017005E+04 -2.460517E+04  8.148664E+02 -4.658781E+03
       405   4  1.733448E+05  1.592854E+01  4.752573E+02 -2.463373E+04 -3.513271E+02 -3.352920E+02
       405   5  1.733210E+05  4.359417E-01  8.125102E+02 -1.673273E+04 -7.538806E+02 -2.497022E+03
       405   6  1.733437E+05  1.505419E+01  1.415942E+03 -2.463373E+04 -1.156307E+03 -4.658063E+03
       405   7  1.634349E+05 -2.421233E+03 -1.802575E+03 -2.464823E+04 -2.323663E+03 -3.344621E+02
       405   8  1.253184E+05 -1.170165E+04 -9.703346E+03 -1.675422E+04 -2.725513E+03 -2.496250E+03
       405   9  8.724910E+04 -2.095230E+04 -1.733860E+04 -2.466228E+04 -3.127211E+03 -4.657343E+03
       405  10  1.832548E+05  2.453084E+03  2.753092E+03 -2.461924E+04  1.024991E-11  2.917484E-10
       405  11  2.213258E+05  1.170236E+04  1.132823E+04 -1.671124E+04 -1.447641E-10  4.499955E-10
       405  12  2.594453E+05  2.098189E+04  2.017001E+04 -2.460516E+04  6.740289E-11 -2.504479E-10
       405  13  1.733448E+05  1.592839E+01  4.752569E+02 -2.463373E+04 -2.671477E-10  4.822761E-11
       405  14  1.733210E+05  4.290931E-01  8.124975E+02 -1.673273E+04 -3.570165E-10 -3.568564E-10
       405  15  1.733437E+05  1.503053E+01  1.415899E+03 -2.463373E+04 -2.720629E-10  1.064749E-10
       405  16  1.634349E+05 -2.421235E+03 -1.802585E+03 -2.464823E+04  2.372650E-11  2.258794E-11
       405  17  1.253184E+05 -1.170166E+04 -9.703371E+03 -1.675422E+04 -2.934245E-10 -3.182380E-10
       405  18  8.724908E+04 -2.095232E+04 -1.733865E+04 -2.466229E+04  5.056361E-11  8.983314E-11
       405  19  1.832548E+05  2.453085E+03  2.753097E+03 -2.461924E+04 -1.621040E+03  3.361218E+02
       405  20  2.213258E+05  1.170237E+04  1.132824E+04 -1.671124E+04 -1.217902E+03  2.497794E+03
       405  21  2.594453E+05  2.098192E+04  2.017005E+04 -2.460517E+04 -8.148664E+02  4.658781E+03
       405  22  1.733448E+05  1.592854E+01  4.752573E+02 -2.463373E+04  3.513271E+02  3.352920E+02
       405  23  1.733210E+05  4.359417E-01  8.125102E+02 -1.673273E+04  7.538806E+02  2.497022E+03
       405  24  1.733437E+05  1.505419E+01  1.415942E+03 -2.463373E+04  1.156307E+03  4.658063E+03
       405  25  1.634349E+05 -2.421233E+03 -1.802575E+03 -2.464823E+04  2.323663E+03  3.344621E+02
       405  26  1.253184E+05 -1.170165E+04 -9.703346E+03 -1.675422E+04  2.725513E+03  2.496250E+03
       405  27  8.724910E+04 -2.095230E+04 -1.733860E+04 -2.466228E+04  3.127211E+03  4.657343E+03
       406   1  2.906230E+05  2.858618E+04  2.764792E+04 -2.456250E+04  5.252134E+02 -5.919208E+03
       406   2  3.286037E+05  3.782656E+04  3.726770E+04 -1.666665E+04 -1.099391E+03 -8.076434E+03
       406   3  3.668738E+05  4.738328E+04  4.802289E+04 -2.458356E+04 -2.723662E+03 -1.021302E+04
       406   4  1.733953E+05 -1.002749E+01  1.863208E+03 -2.463620E+04 -1.452656E+03 -5.918559E+03
       406   5  1.732510E+05 -4.126405E+01  3.236369E+03 -1.672965E+04 -3.058117E+03 -8.075973E+03
       406   6  1.733916E+05  2.406934E+02  5.731953E+03 -2.463610E+04 -4.663149E+03 -1.021274E+04
       406   7  5.618037E+04 -2.860715E+04 -2.392233E+04 -2.470988E+04 -3.430156E+03 -5.917910E+03
       406   8  1.792087E+04 -3.791070E+04 -3.079641E+04 -1.679263E+04 -5.016360E+03 -8.075512E+03
       406   9 -2.005557E+04 -4.690438E+04 -3.656123E+04 -2.468862E+04 -6.602039E+03 -1.021246E+04
       406  10  2.906230E+05  2.858614E+04  2.764786E+04 -2.456250E+04  1.111745E-10 -2.821237E-10
       406  11  3.286037E+05  3.782649E+04  3.726757E+04 -1.666665E+04  1.738785E-10 -2.763004E-11
       406  12  3.668738E+05  4.738316E+04  4.802268E+04 -2.458359E+04 -2.448493E-10  1.180247E-10
       406  13  1.733952E+05 -1.006568E+01  1.863138E+03 -2.463621E+04 -1.594997E-10  1.554975E-10
       406  14  1.732510E+05 -4.133660E+01  3.236229E+03 -1.672967E+04  1.005908E-10 -1.609396E-10
       406  15  1.733916E+05  2.405755E+02  5.731717E+03 -2.463614E+04  6.942670E-11 -6.469516E-11
       406  16  5.618035E+04 -2.860720E+04 -2.392242E+04 -2.470990E+04 -2.747989E-10  2.254880E-10
       406  17  1.792083E+04 -3.791077E+04 -3.079658E+04 -1.679266E+04 -3.797256E-10  3.425383E-10
       406  18 -2.005565E+04 -4.690450E+04 -3.656151E+04 -2.468867E+04  4.072167E-10  6.468971E-11
       406  19  2.906230E+05  2.858618E+04  2.764792E+04 -2.456250E+04 -5.252134E+02  5.919208E+03
       406  20  3.286037E+05  3.782656E+04  3.726770E+04 -1.666665E+04  1.099391E+03  8.076434E+03
       406  21  3.668738E+05  4.738328E+04  4.802289E+04 -2.458356E+04  2.723662E+03  1.021302E+04
       406  22  1.733953E+05 -1.002749E+01  1.863208E+03 -2.463620E+04  1.452656E+03  5.918559E+03
       406  23  1.732510E+05 -4.126405E+01  3.236369E+03 -1.672965E+04  3.058117E+03  8.075973E+03
       406  24  1.733916E+05  2.406934E+02  5.731953E+03 -2.463610E+04  4.663149E+03  1.021274E+04
       406  25  5.618037E+04 -2.860715E+04 -2.392233E+04 -2.470988E+04  3.430156E+03  5.917910E+03
       406  26  1.792087E+04 -3.791070E+04 -3.079641E+04 -1.679263E+04  5.016360E+03  8.075512E+03
       406  27 -2.005557E+04 -4.690438E+04 -3.656123E+04 -2.468862E+04  6.602039E+03  1.021246E+04
       407   1  3.984634E+05  5.448229E+04  5.679266E+04 -2.369840E+04 -3.747431E+03 -1.151491E+04
       407   2  4.355307E+05  6.389783E+04  7.059735E+04 -1.715873E+04 -1.069836E+04 -1.355539E+04
       407   3  4.748376E+05  7.857105E+04  9.024374E+04 -2.643647E+04 -1.764896E+04 -1.511709E+04
       407   4  1.738062E+05 -2.954396E+02  7.484727E+03 -2.463737E+04 -5.827563E+03 -1.151474E+04
       407   5  1.727210E+05 -1.717404E+02  1.296786E+04 -1.672815E+04 -1.233914E+04 -1.355560E+04
       407   6  1.737995E+05  5.135044E+03  2.398976E+04 -2.463670E+04 -1.884998E+04 -1.511761E+04
       407   7 -5.080367E+04 -5.507654E+04 -4.182626E+04 -2.557598E+04 -7.906952E+03 -1.151456E+04
       407   8 -9.002416E+04 -6.424593E+04 -4.466582E+04 -1.629775E+04 -1.397924E+04 -1.355581E+04
       407   9 -1.271539E+05 -6.830703E+04 -4.226977E+04 -2.283781E+04 -2.005042E+04 -1.511815E+04
       407  10  3.984633E+05  5.448214E+04  5.679238E+04 -2.369844E+04  1.036533E-10  2.003371E-10
       407  11  4.355305E+05  6.389760E+04  7.059679E+04 -1.715885E+04 -6.390393E-11 -1.966635E-10
       407  12  4.748372E+05  7.857072E+04  9.024273E+04 -2.643668E+04  7.991578E-11 -9.838107E-11
       407  13  1.738062E+05 -2.955911E+02  7.484414E+03 -2.463742E+04 -1.346066E-10  1.534587E-10
       407  14  1.727207E+05 -1.719786E+02  1.296723E+04 -1.672829E+04 -3.307570E-10  5.519919E-11
       407  15  1.737991E+05  5.134703E+03  2.398866E+04 -2.463693E+04  3.081772E-11 -9.332969E-11
       407  16 -5.080378E+04 -5.507670E+04 -4.182663E+04 -2.557606E+04 -1.897464E-10  1.414631E-10
       407  17 -9.002442E+04 -6.424618E+04 -4.466654E+04 -1.629791E+04 -1.906317E-10  2.446129E-11
       407  18 -1.271544E+05 -6.830738E+04 -4.227096E+04 -2.283805E+04  1.605390E-10 -5.171965E-11
       407  19  3.984634E+05  5.448229E+04  5.679266E+04 -2.369840E+04  3.747431E+03  1.151491E+04
       407  20  4.355307E+05  6.389783E+04  7.059735E+04 -1.715873E+04  1.069836E+04  1.355539E+04
       407  21  4.748376E+05  7.857105E+04  9.024374E+04 -2.643647E+04  1.764896E+04  1.511709E+04
       407  22  1.738062E+05 -2.954396E+02  7.484727E+03 -2.463737E+04  5.827563E+03  1.151474E+04
       407  23  1.727210E+05 -1.717404E+02  1.296786E+04 -1.672815E+04  1.233914E+04  1.355560E+04
       407  24  1.737995E+05  5.135044E+03  2.398976E+04 -2.463670E+04  1.884998E+04  1.511761E+04
       407  25 -5.080367E+04 -5.507654E+04 -4.182626E+04 -2.557598E+04  7.906952E+03  1.151456E+04
       407  26 -9.002416E+04 -6.424593E+04 -4.466582E+04 -1.629775E+04  1.397924E+04  1.355581E+04
       407  27 -1.271539E+05 -6.830703E+04 -4.226977E+04 -2.283781E+04  2.005042E+04  1.511815E+04
       408   1  5.116148E+05  7.640530E+04  1.029924E+05 -1.101608E+04 -1.880330E+04 -1.732038E+04
       408   2  5.361176E+05  9.023015E+04  1.339814E+05 -3.240879E+04 -5.586076E+04 -1.670426E+04
       408   3  5.883742E+05  1.955882E+05  2.119783E+05 -6.920704E+04 -9.292473E+04 -5.345406E+03
       408   4  1.791077E+05 -4.632551E+03  3.018384E+04 -2.454073E+04 -2.313279E+04 -1.732071E+04
       408   5  1.660681E+05 -2.562150E+02  5.142386E+04 -1.684768E+04 -5.037461E+04 -1.670560E+04
       408   6  1.790923E+05  9.397636E+04  1.128740E+05 -2.455764E+04 -7.761987E+04 -5.348361E+03
       408   7 -1.532957E+05 -8.567708E+04 -4.263128E+04 -3.805805E+04 -2.745998E+04 -1.732084E+04
       408   8 -2.038532E+05 -9.075095E+04 -3.114202E+04 -1.295939E+03 -4.489168E+04 -1.670667E+04
       408   9 -2.300319E+05 -7.640110E+03  1.375961E+04  2.006226E+04 -6.232505E+04 -5.349119E+03
       408  10  5.116144E+05  7.640488E+04  1.029912E+05 -1.101634E+04 -1.653067E-10 -2.685204E-11
       408  11  5.361142E+05  9.022901E+04  1.339750E+05 -3.240954E+04 -8.011011E-11 -8.144937E-11
       408  12  5.883650E+05  1.955858E+05  2.119620E+05 -6.920744E+04 -1.067448E-10 -9.043795E-11
       408  13  1.791070E+05 -4.633017E+03  3.018227E+04 -2.454105E+04  6.682632E-11 -4.208838E-11
       408  14  1.660653E+05 -2.571957E+02  5.141857E+04 -1.684835E+04  2.030321E-11  1.837289E-10
       408  15  1.790858E+05  9.397472E+04  1.128626E+05 -2.455797E+04 -5.134626E-11 -7.080417E-11
       408  16 -1.532965E+05 -8.567761E+04 -4.263326E+04 -3.805843E+04 -4.996390E-11 -8.638184E-11
       408  17 -2.038554E+05 -9.075179E+04 -3.114633E+04 -1.296543E+03 -6.063359E-12 -2.479309E-11
       408  18 -2.300361E+05 -7.641184E+03  1.375225E+04  2.006199E+04 -1.176646E-10 -1.206162E-10
       408  19  5.116148E+05  7.640530E+04  1.029924E+05 -1.101608E+04  1.880330E+04  1.732038E+04
       408  20  5.361176E+05  9.023015E+04  1.339814E+05 -3.240879E+04  5.586076E+04  1.670426E+04
       408  21  5.883742E+05  1.955882E+05  2.119783E+05 -6.920704E+04  9.292473E+04  5.345406E+03
       408  22  1.791077E+05 -4.632551E+03  3.018384E+04 -2.454073E+04  2.313279E+04  1.732071E+04
       408  23  1.660681E+05 -2.562150E+02  5.142386E+04 -1.684768E+04  5.037461E+04  1.670560E+04
       408  24  1.790923E+05  9.397636E+04  1.128740E+05 -2.455764E+04  7.761987E+04  5.348361E+03
       408  25 -1.532957E+05 -8.567708E+04 -4.263128E+04 -3.805805E+04  2.745998E+04  1.732084E+04
       408  26 -2.038532E+05 -9.075095E+04 -3.114202E+04 -1.295939E+03  4.489168E+04  1.670667E+04
       408  27 -2.300319E+05 -7.640110E+03  1.375961E+04  2.006226E+04  6.232505E+04  5.349119E+03
       409   1 -1.363782E+06 -2.048650E+05 -2.220875E+05 -7.763393E+04 -9.730987E+04  5.447372E+03
       409   2 -1.301796E+06 -9.208713E+04 -1.384179E+05 -3.742504E+04 -5.835799E+04  1.696075E+04
       409   3 -1.268967E+06 -7.578899E+04 -1.042569E+05 -1.631132E+04 -1.939945E+04  1.719509E+04
       409   4 -9.387340E+05 -9.908276E+04 -1.189241E+05 -3.051593E+04 -8.173036E+04  5.443602E+03
       409   5 -9.250258E+05  2.146711E+02 -5.417758E+04 -2.097554E+04 -5.303241E+04  1.695916E+04
       409   6 -9.386773E+05  4.844329E+03 -3.178936E+04 -3.053290E+04 -2.433144E+04  1.719488E+04
       409   7 -5.135158E+05  6.694639E+03 -1.577166E+04  1.663447E+04 -6.614019E+04  5.442204E+03
       409   8 -5.481229E+05  9.250783E+04  3.005406E+04 -4.515932E+03 -4.770361E+04  1.695784E+04
       409   9 -6.082843E+05  8.547112E+04  4.067177E+04 -4.476216E+04 -2.926602E+04  1.719490E+04
       409  10 -1.363792E+06 -2.048675E+05 -2.221054E+05 -7.763350E+04  9.231809E-11  6.915814E-12
       409  11 -1.301799E+06 -9.208835E+04 -1.384249E+05 -3.742425E+04  2.908068E-10 -1.611936E-10
       409  12 -1.268968E+06 -7.578941E+04 -1.042582E+05 -1.631105E+04 -2.959441E-10  1.224034E-10
       409  13 -9.387412E+05 -9.908459E+04 -1.189367E+05 -3.051558E+04  3.365382E-11 -8.278809E-11
       409  14 -9.250289E+05  2.136060E+02 -5.418341E+04 -2.097482E+04  3.022987E-10 -3.929167E-10
       409  15 -9.386780E+05  4.843853E+03 -3.179103E+04 -3.053257E+04 -9.297109E-11  5.855145E-11
       409  16 -5.135205E+05  6.693432E+03 -1.577994E+04  1.663476E+04 -4.610797E-11 -1.404530E-10
       409  17 -5.481255E+05  9.250691E+04  3.004924E+04 -4.515280E+03  2.309838E-10 -3.234446E-10
       409  18 -6.082853E+05  8.547057E+04  4.066960E+04 -4.476175E+04  3.171695E-10  8.285305E-11
       409  19 -1.363782E+06 -2.048650E+05 -2.220875E+05 -7.763393E+04  9.730987E+04 -5.447372E+03
       409  20 -1.301796E+06 -9.208713E+04 -1.384179E+05 -3.742504E+04  5.835799E+04 -1.696075E+04
       409  21 -1.268967E+06 -7.578899E+04 -1.042569E+05 -1.631132E+04  1.939945E+04 -1.719509E+04
       409  22 -9.387340E+05 -9.908276E+04 -1.189241E+05 -3.051593E+04  8.173036E+04 -5.443602E+03
       409  23 -9.250258E+05  2.146711E+02 -5.417758E+04 -2.097554E+04  5.303241E+04 -1.695916E+04
       409  24 -9.386773E+05  4.844329E+03 -3.178936E+04 -3.053290E+04  2.433144E+04 -1.719488E+04
       409  25 -5.135158E+05  6.694639E+03 -1.577166E+04  1.663447E+04  6.614019E+04 -5.442204E+03
       409  26 -5.481229E+05  9.250783E+04  3.005406E+04 -4.515932E+03  4.770361E+04 -1.695784E+04
       409  27 -6.082843E+05  8.547112E+04  4.067177E+04 -4.476216E+04  2.926602E+04 -1.719490E+04
       410   1 -1.224273E+06 -7.659015E+04 -8.946276E+04 -3.256190E+04 -1.816463E+04  1.463728E+04
       410   2 -1.175374E+06 -5.926760E+04 -6.712848E+04 -2.119611E+04 -1.084385E+04  1.256230E+04
       410   3 -1.128796E+06 -4.747883E+04 -5.094722E+04 -2.962384E+04 -3.523377E+03  9.976068E+03
       410   4 -9.330980E+05 -5.445594E+03 -2.526924E+04 -3.068360E+04 -1.982694E+04  1.463683E+04
       410   5 -9.319712E+05  1.638752E+02 -1.366276E+04 -2.078666E+04 -1.296882E+04  1.256223E+04
       410   6 -9.330856E+05  3.218277E+02 -7.885043E+03 -3.068285E+04 -6.111551E+03  9.976432E+03
       410   7 -6.418436E+05  6.569328E+04  3.891908E+04 -2.880440E+04 -2.149003E+04  1.463637E+04
       410   8 -6.885130E+05  5.959138E+04  3.979936E+04 -2.037704E+04 -1.509461E+04  1.256215E+04
       410   9 -7.373390E+05  4.811992E+04  3.517481E+04 -3.174219E+04 -8.700532E+03  9.976806E+03
       410  10 -1.224273E+06 -7.659047E+04 -8.946378E+04 -3.256168E+04  6.558985E-11  2.110013E-10
       410  11 -1.175374E+06 -5.926780E+04 -6.712899E+04 -2.119600E+04 -2.583168E-10  1.704966E-10
       410  12 -1.128796E+06 -4.747894E+04 -5.094743E+04 -2.962381E+04  2.524243E-10  9.351631E-11
       410  13 -9.330985E+05 -5.445930E+03 -2.527038E+04 -3.068336E+04 -1.177559E-10  1.960910E-10
       410  14 -9.319714E+05  1.636606E+02 -1.366337E+04 -2.078652E+04 -1.429664E-10  1.386753E-10
       410  15 -9.330857E+05  3.217108E+02 -7.885301E+03 -3.068280E+04  3.412946E-10  1.276744E-10
       410  16 -6.418442E+05  6.569292E+04  3.891781E+04 -2.880415E+04 -1.233326E-10  1.619056E-10
       410  17 -6.885133E+05  5.959115E+04  3.979863E+04 -2.037689E+04  2.621144E-10  1.826071E-10
       410  18 -7.373391E+05  4.811979E+04  3.517448E+04 -3.174212E+04  2.173257E-10  8.320766E-11
       410  19 -1.224273E+06 -7.659015E+04 -8.946276E+04 -3.256190E+04  1.816463E+04 -1.463728E+04
       410  20 -1.175374E+06 -5.926760E+04 -6.712848E+04 -2.119611E+04  1.084385E+04 -1.256230E+04
       410  21 -1.128796E+06 -4.747883E+04 -5.094722E+04 -2.962384E+04  3.523377E+03 -9.976068E+03
       410  22 -9.330980E+05 -5.445594E+03 -2.526924E+04 -3.068360E+04  1.982694E+04 -1.463683E+04
       410  23 -9.319712E+05  1.638752E+02 -1.366276E+04 -2.078666E+04  1.296882E+04 -1.256223E+04
       410  24 -9.330856E+05  3.218277E+02 -7.885043E+03 -3.068285E+04  6.111551E+03 -9.976432E+03
       410  25 -6.418436E+05  6.569328E+04  3.891908E+04 -2.880440E+04  2.149003E+04 -1.463637E+04
       410  26 -6.885130E+05  5.959138E+04  3.979936E+04 -2.037704E+04  1.509461E+04 -1.256215E+04
       410  27 -7.373390E+05  4.811992E+04  3.517481E+04 -3.174219E+04  8.700532E+03 -9.976806E+03
       411   1 -1.089208E+06 -3.843370E+04 -4.027238E+04 -3.059184E+04 -2.440468E+03  8.347593E+03
       411   2 -1.041063E+06 -2.644285E+04 -2.724417E+04 -2.062716E+04 -7.194880E+02  5.649952E+03
       411   3 -9.932277E+05 -1.476743E+04 -1.541872E+04 -3.058711E+04  1.001268E+03  2.926751E+03
       411   4 -9.326529E+05 -2.414895E+02 -6.044883E+03 -3.071224E+04 -4.886174E+03  8.348079E+03
       411   5 -9.324972E+05  5.803508E+01 -3.426917E+03 -2.074998E+04 -3.188174E+03  5.650596E+03
       411   6 -9.326488E+05  4.618189E+01 -1.995539E+03 -3.071213E+04 -1.490528E+03  2.927564E+03
       411   7 -7.760751E+05  3.794909E+04  2.818116E+04 -3.083267E+04 -7.332490E+03  8.348566E+03
       411   8 -8.239200E+05  2.655813E+04  2.038964E+04 -2.087282E+04 -5.657287E+03  5.651242E+03
       411   9 -8.720664E+05  1.485955E+04  1.142744E+04 -3.083717E+04 -3.982564E+03  2.928379E+03
       411  10 -1.089208E+06 -3.843378E+04 -4.027252E+04 -3.059182E+04 -4.534350E-10 -3.189182E-10
       411  11 -1.041063E+06 -2.644288E+04 -2.724423E+04 -2.062716E+04 -2.936030E-11 -1.804272E-10
       411  12 -9.932277E+05 -1.476744E+04 -1.541874E+04 -3.058711E+04  3.208093E-10  2.435393E-10
       411  13 -9.326530E+05 -2.415708E+02 -6.045059E+03 -3.071221E+04  2.270744E-10 -1.179096E-11
       411  14 -9.324973E+05  5.799807E+01 -3.426996E+03 -2.074996E+04 -1.684263E-10 -1.034527E-10
       411  15 -9.326488E+05  4.617209E+01 -1.995560E+03 -3.071213E+04 -1.051649E-11 -1.247098E-10
       411  16 -7.760752E+05  3.794900E+04  2.818092E+04 -3.083262E+04  3.976058E-10  1.607411E-10
       411  17 -8.239200E+05  2.655809E+04  2.038952E+04 -2.087279E+04 -1.786919E-10  1.580936E-10
       411  18 -8.720664E+05  1.485953E+04  1.142739E+04 -3.083716E+04  1.836444E-10  2.433043E-10
       411  19 -1.089208E+06 -3.843370E+04 -4.027238E+04 -3.059184E+04  2.440468E+03 -8.347593E+03
       411  20 -1.041063E+06 -2.644285E+04 -2.724417E+04 -2.062716E+04  7.194880E+02 -5.649952E+03
       411  21 -9.932277E+05 -1.476743E+04 -1.541872E+04 -3.058711E+04 -1.001268E+03 -2.926751E+03
       411  22 -9.326529E+05 -2.414895E+02 -6.044883E+03 -3.071224E+04  4.886174E+03 -8.348079E+03
       411  23 -9.324972E+05  5.803508E+01 -3.426917E+03 -2.074998E+04  3.188174E+03 -5.650596E+03
       411  24 -9.326488E+05  4.618189E+01 -1.995539E+03 -3.071213E+04  1.490528E+03 -2.927564E+03
       411  25 -7.760751E+05  3.794909E+04  2.818116E+04 -3.083267E+04  7.332490E+03 -8.348566E+03
       411  26 -8.239200E+05  2.655813E+04  2.038964E+04 -2.087282E+04  5.657287E+03 -5.651242E+03
       411  27 -8.720664E+05  1.485955E+04  1.142744E+04 -3.083717E+04  3.982564E+03 -2.928379E+03
       412   1 -9.538973E+05 -5.151932E+03 -6.075579E+03 -3.065988E+04  1.313615E+03  1.335366E+03
       412   2 -9.058066E+05  6.556005E+03  4.927220E+03 -2.071624E+04  1.777647E+03 -1.394158E+03
       412   3 -8.577905E+05  1.825275E+04  1.562122E+04 -3.072191E+04  2.241808E+03 -4.123855E+03
       412   4 -9.325968E+05  2.026259E+01 -1.537931E+03 -3.071770E+04 -1.172676E+03  1.336215E+03
       412   5 -9.325587E+05  2.660324E+01 -9.402588E+02 -2.074302E+04 -7.088713E+02 -1.393353E+03
       412   6 -9.325973E+05  2.193435E+01 -6.511255E+02 -3.071769E+04 -2.449728E+02 -4.123084E+03
       412   7 -9.112959E+05  5.192431E+03  2.999714E+03 -3.077552E+04 -3.659051E+03  1.337064E+03
       412   8 -9.593101E+05 -6.502843E+03 -6.807758E+03 -2.076979E+04 -3.195284E+03 -1.392547E+03
       412   9 -1.007399E+06 -1.820925E+04 -1.692378E+04 -3.071348E+04 -2.731458E+03 -4.122313E+03
       412  10 -9.538973E+05 -5.151934E+03 -6.075586E+03 -3.065988E+04  9.627863E-11  1.305291E-10
       412  11 -9.058066E+05  6.556002E+03  4.927211E+03 -2.071623E+04  2.239008E-10  3.346889E-10
       412  12 -8.577905E+05  1.825273E+04  1.562118E+04 -3.072190E+04 -1.123929E-11  2.212604E-10
       412  13 -9.325968E+05  2.026030E+01 -1.537937E+03 -3.071770E+04  3.538701E-10  3.042390E-10
       412  14 -9.325587E+05  2.660102E+01 -9.402634E+02 -2.074302E+04 -3.031180E-10 -1.999725E-10
       412  15 -9.325973E+05  2.191609E+01 -6.511575E+02 -3.071769E+04 -2.791897E-10 -5.817818E-11
       412  16 -9.112959E+05  5.192425E+03  2.999686E+03 -3.077552E+04 -2.423356E-10 -4.872594E-10
       412  17 -9.593101E+05 -6.502848E+03 -6.807781E+03 -2.076980E+04  5.502429E-11 -6.326189E-12
       412  18 -1.007399E+06 -1.820927E+04 -1.692383E+04 -3.071349E+04  1.251093E-10 -1.663551E-10
       412  19 -9.538973E+05 -5.151932E+03 -6.075579E+03 -3.065988E+04 -1.313615E+03 -1.335366E+03
       412  20 -9.058066E+05  6.556005E+03  4.927220E+03 -2.071624E+04 -1.777647E+03  1.394158E+03
       412  21 -8.577905E+05  1.825275E+04  1.562122E+04 -3.072191E+04 -2.241808E+03  4.123855E+03
       412  22 -9.325968E+05  2.026259E+01 -1.537931E+03 -3.071770E+04  1.172676E+03 -1.336215E+03
       412  23 -9.325587E+05  2.660324E+01 -9.402588E+02 -2.074302E+04  7.088713E+02  1.393353E+03
       412  24 -9.325973E+05  2.193435E+01 -6.511255E+02 -3.071769E+04  2.449728E+02  4.123084E+03
       412  25 -9.112959E+05  5.192431E+03  2.999714E+03 -3.077552E+04  3.659051E+03 -1.337064E+03
       412  26 -9.593101E+05 -6.502843E+03 -6.807758E+03 -2.076979E+04  3.195284E+03  1.392547E+03
       412  27 -1.007399E+06 -1.820925E+04 -1.692378E+04 -3.071348E+04  2.731458E+03  4.122313E+03
       413   1 -8.185327E+05  2.788558E+04  2.456533E+04 -3.072436E+04  2.351215E+03 -5.711999E+03
       413   2 -7.705947E+05  3.954417E+04  3.493173E+04 -2.079232E+04  2.638035E+03 -8.436141E+03
       413   3 -7.226936E+05  5.120075E+04  4.510990E+04 -3.075344E+04  2.925438E+03 -1.115437E+04
       413   4 -9.325907E+05  2.144842E+01 -5.859512E+02 -3.070528E+04 -1.334701E+02 -5.711314E+03
       413   5 -9.325733E+05  1.283826E+01 -5.927574E+02 -2.075854E+04  1.586079E+02 -8.435697E+03
       413   6 -9.325953E+05  1.623002E+00 -7.912025E+02 -3.070528E+04  4.512473E+02 -1.115416E+04
       413   7 -1.046636E+06 -2.784355E+04 -2.573801E+04 -3.068620E+04 -2.617703E+03 -5.710629E+03
       413   8 -1.094527E+06 -3.952024E+04 -3.611882E+04 -2.072477E+04 -2.320179E+03 -8.435253E+03
       413   9 -1.142456E+06 -5.120045E+04 -4.669495E+04 -3.065714E+04 -2.022116E+03 -1.115395E+04
       413  10 -8.185327E+05  2.788554E+04  2.456526E+04 -3.072435E+04 -2.127926E-10 -6.920281E-12
       413  11 -7.705947E+05  3.954409E+04  3.493158E+04 -2.079230E+04 -3.700525E-10 -1.244013E-10
       413  12 -7.226937E+05  5.120062E+04  4.510966E+04 -3.075341E+04 -1.592892E-10 -1.613959E-10
       413  13 -9.325907E+05  2.141341E+01 -5.860125E+02 -3.070528E+04  4.968903E-10  3.702790E-10
       413  14 -9.325733E+05  1.276187E+01 -5.928912E+02 -2.075854E+04  3.623167E-10  1.938503E-10
       413  15 -9.325953E+05  1.489406E+00 -7.914366E+02 -3.070528E+04 -6.329928E-10 -3.210920E-10
       413  16 -1.046637E+06 -2.784359E+04 -2.573809E+04 -3.068621E+04  1.904390E-10  3.903868E-11
       413  17 -1.094527E+06 -3.952032E+04 -3.611896E+04 -2.072478E+04  4.350330E-10  1.700871E-10
       413  18 -1.142456E+06 -5.120058E+04 -4.669519E+04 -3.065716E+04 -9.474996E-11  9.027805E-11
       413  19 -8.185327E+05  2.788558E+04  2.456533E+04 -3.072436E+04 -2.351215E+03  5.711999E+03
       413  20 -7.705947E+05  3.954417E+04  3.493173E+04 -2.079232E+04 -2.638035E+03  8.436141E+03
       413  21 -7.226936E+05  5.120075E+04  4.510990E+04 -3.075344E+04 -2.925438E+03  1.115437E+04
       413  22 -9.325907E+05  2.144842E+01 -5.859512E+02 -3.070528E+04  1.334701E+02  5.711314E+03
       413  23 -9.325733E+05  1.283826E+01 -5.927574E+02 -2.075854E+04 -1.586079E+02  8.435697E+03
       413  24 -9.325953E+05  1.623002E+00 -7.912025E+02 -3.070528E+04 -4.512473E+02  1.115416E+04
       413  25 -1.046636E+06 -2.784355E+04 -2.573801E+04 -3.068620E+04  2.617703E+03  5.710629E+03
       413  26 -1.094527E+06 -3.952024E+04 -3.611882E+04 -2.072477E+04  2.320179E+03  8.435253E+03
       413  27 -1.142456E+06 -5.120045E+04 -4.669495E+04 -3.065714E+04  2.022116E+03  1.115395E+04
       414   1 -6.836483E+05  6.079723E+04  5.376153E+04 -3.074691E+04  3.088100E+03 -1.273716E+04
       414   2 -6.360085E+05  7.237632E+04  6.344490E+04 -2.084702E+04  3.841250E+03 -1.543614E+04
       414   3 -5.884669E+05  8.382069E+04  7.261055E+04 -3.069613E+04  4.595487E+03 -1.809495E+04
       414   4 -9.326145E+05  1.246050E+01 -9.733561E+02 -3.067330E+04  6.101264E+02 -1.273715E+04
       414   5 -9.325651E+05  5.976051E+00 -1.593441E+03 -2.079853E+04  1.399454E+03 -1.543657E+04
       414   6 -9.326232E+05 -1.416395E+02 -2.756736E+03 -3.067332E+04  2.189812E+03 -1.809580E+04
       414   7 -1.181523E+06 -6.077647E+04 -5.571200E+04 -3.059971E+04 -1.866864E+03 -1.273714E+04
       414   8 -1.229039E+06 -7.237025E+04 -6.663712E+04 -2.075005E+04 -1.041190E+03 -1.543700E+04
       414   9 -1.276668E+06 -8.411188E+04 -7.813119E+04 -3.065052E+04 -2.145446E+02 -1.809665E+04
       414  10 -6.836484E+05  6.079706E+04  5.376120E+04 -3.074688E+04 -3.925642E-11 -1.667970E-11
       414  11 -6.360086E+05  7.237606E+04  6.344443E+04 -2.084698E+04 -1.246718E-10  2.305896E-11
       414  12 -5.884670E+05  8.382033E+04  7.260989E+04 -3.069606E+04  1.549241E-10 -7.226741E-11
       414  13 -9.326145E+05  1.228626E+01 -9.736615E+02 -3.067329E+04 -3.874696E-10 -4.667997E-11
       414  14 -9.325652E+05  5.719758E+00 -1.593892E+03 -2.079851E+04 -5.727696E-10  1.672188E-10
       414  15 -9.326233E+05 -1.419922E+02 -2.757360E+03 -3.067329E+04  1.120716E-10 -1.435141E-10
       414  16 -1.181523E+06 -6.077664E+04 -5.571232E+04 -3.059973E+04  4.402610E-10  2.110012E-10
       414  17 -1.229039E+06 -7.237051E+04 -6.663757E+04 -2.075006E+04 -5.630004E-10  7.506094E-11
       414  18 -1.276669E+06 -8.411223E+04 -7.813180E+04 -3.065053E+04 -5.537946E-10  1.155383E-10
       414  19 -6.836483E+05  6.079723E+04  5.376153E+04 -3.074691E+04 -3.088100E+03  1.273716E+04
       414  20 -6.360085E+05  7.237632E+04  6.344490E+04 -2.084702E+04 -3.841250E+03  1.543614E+04
       414  21 -5.884669E+05  8.382069E+04  7.261055E+04 -3.069613E+04 -4.595487E+03  1.809495E+04
       414  22 -9.326145E+05  1.246050E+01 -9.733561E+02 -3.067330E+04 -6.101264E+02  1.273715E+04
       414  23 -9.325651E+05  5.976051E+00 -1.593441E+03 -2.079853E+04 -1.399454E+03  1.543657E+04
       414  24 -9.326232E+05 -1.416395E+02 -2.756736E+03 -3.067332E+04 -2.189812E+03  1.809580E+04
       414  25 -1.181523E+06 -6.077647E+04 -5.571200E+04 -3.059971E+04  1.866864E+03  1.273714E+04
       414  26 -1.229039E+06 -7.237025E+04 -6.663712E+04 -2.075005E+04  1.041190E+03  1.543700E+04
       414  27 -1.276668E+06 -8.411188E+04 -7.813119E+04 -3.065052E+04  2.145446E+02  1.809665E+04
       415   1 -5.499278E+05  9.356876E+04  8.050827E+04 -3.104560E+04  5.351825E+03 -1.972261E+04
       415   2 -5.024440E+05  1.049507E+05  8.817671E+04 -2.057778E+04  7.803138E+03 -2.221611E+04
       415   3 -4.557857E+05  1.139801E+05  9.367795E+04 -2.961012E+04  1.025569E+04 -2.398616E+04
       415   4 -9.328151E+05  1.112990E+02 -3.580995E+03 -3.061829E+04  2.747868E+03 -1.972380E+04
       415   5 -9.323510E+05  2.780404E+01 -6.192776E+03 -2.086740E+04  5.856616E+03 -2.221776E+04
       415   6 -9.328295E+05 -2.523326E+03 -1.142991E+04 -3.061756E+04  8.966421E+03 -2.398804E+04
       415   7 -1.315565E+06 -9.335598E+04 -8.767918E+04 -3.019126E+04  1.454991E+02 -1.972499E+04
       415   8 -1.362085E+06 -1.049074E+05 -1.005735E+05 -2.115684E+04  3.911425E+03 -2.221941E+04
       415   9 -1.409660E+06 -1.190420E+05 -1.165517E+05 -3.162424E+04  7.678128E+03 -2.398992E+04
       415  10 -5.499279E+05  9.356833E+04  8.050748E+04 -3.104551E+04 -2.482446E-12 -1.789067E-10
       415  11 -5.024442E+05  1.049501E+05  8.817566E+04 -2.057764E+04 -3.455484E-10 -8.504522E-11
       415  12 -4.557860E+05  1.139794E+05  9.367667E+04 -2.960992E+04 -8.888950E-10  2.915505E-10
       415  13 -9.328152E+05  1.108794E+02 -3.581740E+03 -3.061825E+04 -8.371411E-12 -2.859377E-10
       415  14 -9.323512E+05  2.726498E+01 -6.193768E+03 -2.086730E+04 -2.187136E-10 -5.624902E-11
       415  15 -9.328298E+05 -2.523966E+03 -1.143114E+04 -3.061739E+04  1.273669E-10  3.198896E-10
       415  16 -1.315565E+06 -9.335640E+04 -8.767991E+04 -3.019125E+04 -4.011884E-10 -2.633747E-10
       415  17 -1.362085E+06 -1.049080E+05 -1.005745E+05 -2.115677E+04  2.300989E-10 -2.498573E-10
       415  18 -1.409661E+06 -1.190427E+05 -1.165529E+05 -3.162410E+04  2.024000E-10  8.332810E-10
       415  19 -5.499278E+05  9.356876E+04  8.050827E+04 -3.104560E+04 -5.351825E+03  1.972261E+04
       415  20 -5.024440E+05  1.049507E+05  8.817671E+04 -2.057778E+04 -7.803138E+03  2.221611E+04
       415  21 -4.557857E+05  1.139801E+05  9.367795E+04 -2.961012E+04 -1.025569E+04  2.398616E+04
       415  22 -9.328151E+05  1.112990E+02 -3.580995E+03 -3.061829E+04 -2.747868E+03  1.972380E+04
       415  23 -9.323510E+05  2.780404E+01 -6.192776E+03 -2.086740E+04 -5.856616E+03  2.221776E+04
       415  24 -9.328295E+05 -2.523326E+03 -1.142991E+04 -3.061756E+04 -8.966421E+03  2.398804E+04
       415  25 -1.315565E+06 -9.335598E+04 -8.767918E+04 -3.019126E+04 -1.454991E+02  1.972499E+04
       415  26 -1.362085E+06 -1.049074E+05 -1.005735E+05 -2.115684E+04 -3.911425E+03  2.221941E+04
       415  27 -1.409660E+06 -1.190420E+05 -1.165517E+05 -3.162424E+04 -7.678128E+03  2.398992E+04
       416   1 -4.197137E+05  1.279193E+05  9.864008E+04 -3.663226E+04  1.690870E+04 -2.691922E+04
       416   2 -3.683784E+05  1.373251E+05  1.007031E+05 -1.342145E+04  1.539527E+04 -2.543349E+04
       416   3 -3.267568E+05  1.065028E+05  9.372675E+04 -8.697859E+03  1.386725E+04 -8.037320E+03
       416   4 -9.353461E+05  2.122066E+03 -1.437430E+04 -3.040173E+04  1.100460E+04 -2.692365E+04
       416   5 -9.292418E+05  1.919403E+01 -2.450732E+04 -2.114019E+04  2.398732E+04 -2.542935E+04
       416   6 -9.353825E+05 -4.485079E+04 -5.376350E+04 -3.036719E+04  3.695499E+04 -8.018090E+03
       416   7 -1.450729E+06 -1.236928E+05 -1.274047E+05 -2.417646E+04  5.105350E+03 -2.692819E+04
       416   8 -1.489811E+06 -1.373079E+05 -1.497372E+05 -2.885193E+04  3.257167E+04 -2.542542E+04
       416   9 -1.543667E+06 -1.962296E+05 -2.012782E+05 -5.201526E+04  6.002014E+04 -8.000465E+03
       416  10 -4.197142E+05  1.279185E+05  9.863818E+04 -3.663190E+04  3.807143E-10  5.858711E-10
       416  11 -3.683788E+05  1.373244E+05  1.007015E+05 -1.342113E+04 -7.867269E-12  5.058112E-10
       416  12 -3.267571E+05  1.065027E+05  9.372627E+04 -8.697769E+03  3.568587E-11  5.518083E-10
       416  13 -9.353465E+05  2.121256E+03 -1.437589E+04 -3.040149E+04  6.347875E-10 -3.134372E-10
       416  14 -9.292425E+05  1.834521E+01 -2.450962E+04 -2.113970E+04  8.083740E-12  4.919436E-10
       416  15 -9.353840E+05 -4.485123E+04 -5.376619E+04 -3.036695E+04  1.709619E-10 -2.378925E-10
       416  16 -1.450729E+06 -1.236936E+05 -1.274061E+05 -2.417635E+04 -3.186021E-10  7.369255E-10
       416  17 -1.489813E+06 -1.373089E+05 -1.497404E+05 -2.885126E+04  4.950204E-10 -1.287455E-10
       416  18 -1.543671E+06 -1.962306E+05 -2.012851E+05 -5.201487E+04 -1.258354E-09  8.121560E-10
       416  19 -4.197137E+05  1.279193E+05  9.864008E+04 -3.663226E+04 -1.690870E+04  2.691922E+04
       416  20 -3.683784E+05  1.373251E+05  1.007031E+05 -1.342145E+04 -1.539527E+04  2.543349E+04
       416  21 -3.267568E+05  1.065028E+05  9.372675E+04 -8.697859E+03 -1.386725E+04  8.037320E+03
       416  22 -9.353461E+05  2.122066E+03 -1.437430E+04 -3.040173E+04 -1.100460E+04  2.692365E+04
       416  23 -9.292418E+05  1.919403E+01 -2.450732E+04 -2.114019E+04 -2.398732E+04  2.542935E+04
       416  24 -9.353825E+05 -4.485079E+04 -5.376350E+04 -3.036719E+04 -3.695499E+04  8.018090E+03
       416  25 -1.450729E+06 -1.236928E+05 -1.274047E+05 -2.417646E+04 -5.105350E+03  2.692819E+04
       416  26 -1.489811E+06 -1.373079E+05 -1.497372E+05 -2.885193E+04 -3.257167E+04  2.542542E+04
       416  27 -1.543667E+06 -1.962296E+05 -2.012782E+05 -5.201526E+04 -6.002014E+04  8.000465E+03
       417   1  7.986624E+05  2.154330E+05  2.875906E+05  1.254830E+05  2.654617E+05  6.942945E+03
       417   2  8.127754E+05 -1.129303E+05  8.611994E+04  3.131233E+04  1.782022E+05  2.072045E+04
       417   3  9.201232E+05 -1.143131E+05  2.321157E+04 -8.749572E+04  9.094112E+04  2.079026E+04
       417   4  1.319374E+06  3.442511E+05  4.135944E+05 -3.807248E+04  2.845833E+05  6.889209E+03
       417   5  1.271832E+06 -8.504087E+02  1.885080E+05 -2.561571E+04  1.847091E+05  2.070769E+04
       417   6  1.319605E+06 -1.696134E+04  1.106486E+05 -3.779477E+04  8.484409E+04  2.079309E+04
       417   7  1.840392E+06  4.731501E+05  5.395946E+05 -2.017654E+05  3.037208E+05  6.825457E+03
       417   8  1.731092E+06  1.112274E+05  2.908848E+05 -8.258628E+04  1.912206E+05  2.069375E+04
       417   9  1.719240E+06  8.038903E+04  1.980774E+05  1.193850E+04  7.874318E+04  2.079495E+04
       417  10  7.985868E+05  2.154140E+05  2.874582E+05  1.254816E+05  9.973439E-10 -1.033695E-09
       417  11  8.127413E+05 -1.129393E+05  8.605954E+04  3.130936E+04 -3.636102E-10  3.354890E-11
       417  12  9.201142E+05 -1.143158E+05  2.319523E+04 -8.749725E+04 -2.382340E-09 -4.054508E-10
       417  13  1.319287E+06  3.442293E+05  4.134425E+05 -3.807406E+04  4.314095E-10  5.031759E-10
       417  14  1.271795E+06 -8.600041E+02  1.884432E+05 -2.561879E+04  4.085405E-10 -2.084424E-10
       417  15  1.319597E+06 -1.696373E+04  1.106343E+05 -3.779619E+04 -5.073469E-10 -4.309226E-10
       417  16  1.840293E+06  4.731254E+05  5.394216E+05 -2.017671E+05 -5.241085E-10  3.771541E-10
       417  17  1.731052E+06  1.112172E+05  2.908154E+05 -8.258947E+04  1.532119E-09  3.902277E-11
       417  18  1.719234E+06  8.038691E+04  1.980649E+05  1.193718E+04  2.443895E-09  1.455202E-09
       417  19  7.986624E+05  2.154330E+05  2.875906E+05  1.254830E+05 -2.654617E+05 -6.942945E+03
       417  20  8.127754E+05 -1.129303E+05  8.611994E+04  3.131233E+04 -1.782022E+05 -2.072045E+04
       417  21  9.201232E+05 -1.143131E+05  2.321157E+04 -8.749572E+04 -9.094112E+04 -2.079026E+04
       417  22  1.319374E+06  3.442511E+05  4.135944E+05 -3.807248E+04 -2.845833E+05 -6.889209E+03
       417  23  1.271832E+06 -8.504087E+02  1.885080E+05 -2.561571E+04 -1.847091E+05 -2.070769E+04
       417  24  1.319605E+06 -1.696134E+04  1.106486E+05 -3.779477E+04 -8.484409E+04 -2.079309E+04
       417  25  1.840392E+06  4.731501E+05  5.395946E+05 -2.017654E+05 -3.037208E+05 -6.825457E+03
       417  26  1.731092E+06  1.112274E+05  2.908848E+05 -8.258628E+04 -1.912206E+05 -2.069375E+04
       417  27  1.719240E+06  8.038903E+04  1.980774E+05  1.193850E+04 -7.874318E+04 -2.079495E+04
       418   1  9.498110E+05 -6.658807E+04  1.091427E+04 -3.145798E+04  7.121216E+04  1.760330E+04
       418   2  1.005547E+06 -7.142583E+04 -1.610352E+04 -2.413246E+04  4.787659E+04  1.497936E+04
       418   3  1.069089E+06 -5.742982E+04 -2.322027E+04 -4.150319E+04  2.453867E+04  1.175281E+04
       418   4  1.300146E+06  1.879192E+04  8.795256E+04 -3.788388E+04  6.912784E+04  1.760080E+04
       418   5  1.296217E+06 -6.289474E+02  4.758640E+04 -2.553226E+04  4.522917E+04  1.497766E+04
       418   6  1.300182E+06 -1.124588E+03  2.750257E+04 -3.787562E+04  2.133033E+04  1.175168E+04
       418   7  1.650595E+06  1.041639E+05  1.649834E+05 -4.431346E+04  6.704234E+04  1.759835E+04
       418   8  1.586965E+06  7.016231E+04  1.112712E+05 -2.693272E+04  4.258052E+04  1.497598E+04
       418   9  1.531324E+06  5.517713E+04  7.822221E+04 -3.424669E+04  1.812081E+04  1.175051E+04
       418  10  9.498055E+05 -6.658976E+04  1.090417E+04 -3.145899E+04  5.310312E-10 -1.573562E-10
       418  11  1.005545E+06 -7.142668E+04 -1.610824E+04 -2.413303E+04  3.715638E-10  1.349684E-10
       418  12  1.069089E+06 -5.743013E+04 -2.322166E+04 -4.150343E+04 -3.131028E-10 -4.412948E-10
       418  13  1.300140E+06  1.879031E+04  8.794301E+04 -3.788486E+04  3.971538E-10  1.085062E-09
       418  14  1.296215E+06 -6.297362E+02  4.758215E+04 -2.553280E+04  6.468630E-10  2.766495E-10
       418  15  1.300181E+06 -1.124858E+03  2.750146E+04 -3.787583E+04 -5.979002E-10 -7.650244E-10
       418  16  1.650590E+06  1.041623E+05  1.649744E+05 -4.431441E+04 -7.421640E-10  9.627178E-10
       418  17  1.586963E+06  7.016159E+04  1.112674E+05 -2.693324E+04  3.356081E-10 -1.789176E-11
       418  18  1.531324E+06  5.517689E+04  7.822133E+04 -3.424686E+04 -1.510891E-10 -4.964628E-10
       418  19  9.498110E+05 -6.658807E+04  1.091427E+04 -3.145798E+04 -7.121216E+04 -1.760330E+04
       418  20  1.005547E+06 -7.142583E+04 -1.610352E+04 -2.413246E+04 -4.787659E+04 -1.497936E+04
       418  21  1.069089E+06 -5.742982E+04 -2.322027E+04 -4.150319E+04 -2.453867E+04 -1.175281E+04
       418  22  1.300146E+06  1.879192E+04  8.795256E+04 -3.788388E+04 -6.912784E+04 -1.760080E+04
       418  23  1.296217E+06 -6.289474E+02  4.758640E+04 -2.553226E+04 -4.522917E+04 -1.497766E+04
       418  24  1.300182E+06 -1.124588E+03  2.750257E+04 -3.787562E+04 -2.133033E+04 -1.175168E+04
       418  25  1.650595E+06  1.041639E+05  1.649834E+05 -4.431346E+04 -6.704234E+04 -1.759835E+04
       418  26  1.586965E+06  7.016231E+04  1.112712E+05 -2.693272E+04 -4.258052E+04 -1.497598E+04
       418  27  1.531324E+06  5.517713E+04  7.822221E+04 -3.424669E+04 -1.812081E+04 -1.175051E+04
       419   1  1.116034E+06 -4.360665E+04 -1.872206E+04 -3.820737E+04  2.006898E+04  9.738353E+03
       419   2  1.174708E+06 -3.024153E+04 -1.500677E+04 -2.594859E+04  1.413934E+04  6.411562E+03
       419   3  1.234453E+06 -1.578296E+04 -7.157552E+03 -3.823074E+04  8.208775E+03  3.061871E+03
       419   4  1.298669E+06  8.353589E+02  2.109585E+04 -3.784380E+04  1.704560E+04  9.737375E+03
       419   5  1.298138E+06 -1.872814E+02  1.200302E+04 -2.557343E+04  1.109329E+04  6.410787E+03
       419   6  1.298678E+06 -1.125377E+02  7.058907E+03 -3.784369E+04  5.140595E+03  3.061314E+03
       419   7  1.481336E+06  4.527516E+04  6.091179E+04 -3.748012E+04  1.402134E+04  9.736392E+03
       419   8  1.421583E+06  2.986596E+04  3.901193E+04 -2.519819E+04  8.046632E+03  6.410008E+03
       419   9  1.362908E+06  1.555761E+04  2.127515E+04 -3.745661E+04  2.072101E+03  3.060753E+03
       419  10  1.116033E+06 -4.360686E+04 -1.872300E+04 -3.820753E+04 -4.602294E-10 -4.211131E-10
       419  11  1.174708E+06 -3.024163E+04 -1.500723E+04 -2.594866E+04 -1.096728E-09 -5.086117E-10
       419  12  1.234453E+06 -1.578299E+04 -7.157696E+03 -3.823076E+04  1.218706E-10 -1.522960E-10
       419  13  1.298669E+06  8.351792E+02  2.109512E+04 -3.784393E+04 -5.186117E-10 -3.357759E-10
       419  14  1.298138E+06 -1.873585E+02  1.200271E+04 -2.557349E+04  6.730884E-11  1.621818E-10
       419  15  1.298678E+06 -1.125548E+02  7.058840E+03 -3.784371E+04 -1.100857E-09 -3.549124E-10
       419  16  1.481335E+06  4.527501E+04  6.091124E+04 -3.748023E+04 -2.199364E-10 -2.687251E-10
       419  17  1.421582E+06  2.986590E+04  3.901173E+04 -2.519824E+04 -4.052129E-10 -3.560322E-11
       419  18  1.362908E+06  1.555760E+04  2.127512E+04 -3.745661E+04 -5.130788E-10  1.238060E-10
       419  19  1.116034E+06 -4.360665E+04 -1.872206E+04 -3.820737E+04 -2.006898E+04 -9.738353E+03
       419  20  1.174708E+06 -3.024153E+04 -1.500677E+04 -2.594859E+04 -1.413934E+04 -6.411562E+03
       419  21  1.234453E+06 -1.578296E+04 -7.157552E+03 -3.823074E+04 -8.208775E+03 -3.061871E+03
       419  22  1.298669E+06  8.353589E+02  2.109585E+04 -3.784380E+04 -1.704560E+04 -9.737375E+03
       419  23  1.298138E+06 -1.872814E+02  1.200302E+04 -2.557343E+04 -1.109329E+04 -6.410787E+03
       419  24  1.298678E+06 -1.125377E+02  7.058907E+03 -3.784369E+04 -5.140595E+03 -3.061314E+03
       419  25  1.481336E+06  4.527516E+04  6.091179E+04 -3.748012E+04 -1.402134E+04 -9.736392E+03
       419  26  1.421583E+06  2.986596E+04  3.901193E+04 -2.519819E+04 -8.046632E+03 -6.410008E+03
       419  27  1.362908E+06  1.555761E+04  2.127515E+04 -3.745661E+04 -2.072101E+03 -3.060753E+03
       420   1  1.282525E+06 -3.877410E+03  2.161310E+03 -3.802225E+04  7.066169E+03  1.108580E+03
       420   2  1.341528E+06  1.044424E+04  1.293795E+04 -2.568008E+04  5.340720E+03 -2.242124E+03
       420   3  1.400791E+06  2.482612E+04  2.485482E+04 -3.784667E+04  3.615274E+03 -5.595794E+03
       420   4  1.298498E+06 -2.120480E+01  5.491374E+03 -3.783671E+04  4.007085E+03  1.108066E+03
       420   5  1.298370E+06 -6.281078E+01  3.496334E+03 -2.558229E+04  2.278729E+03 -2.242723E+03
       420   6  1.298498E+06 -4.375432E+01  2.643294E+03 -3.783674E+04  5.505378E+02 -5.596464E+03
       420   7  1.314472E+06  3.834989E+03  8.821459E+03 -3.765117E+04  9.479223E+02  1.107550E+03
       420   8  1.255214E+06 -1.056998E+04 -5.945360E+03 -2.548451E+04 -7.830519E+02 -2.243323E+03
       420   9  1.196215E+06 -2.491432E+04 -1.956882E+04 -3.782681E+04 -2.513702E+03 -5.597135E+03
       420  10  1.282525E+06 -3.877425E+03  2.161214E+03 -3.802226E+04  2.083237E-10 -1.823282E-10
       420  11  1.341528E+06  1.044423E+04  1.293789E+04 -2.568007E+04 -1.708241E-10 -3.444712E-10
       420  12  1.400791E+06  2.482608E+04  2.485474E+04 -3.784665E+04 -6.905324E-10 -9.133385E-11
       420  13  1.298498E+06 -2.121042E+01  5.491341E+03 -3.783672E+04  6.739846E-11  5.313481E-11
       420  14  1.298370E+06 -6.281758E+01  3.496315E+03 -2.558229E+04 -5.374306E-10 -1.460360E-10
       420  15  1.298498E+06 -4.378806E+01  2.643235E+03 -3.783674E+04  4.273551E-10  2.533382E-10
       420  16  1.314472E+06  3.834988E+03  8.821455E+03 -3.765117E+04 -5.677952E-11 -4.135838E-13
       420  17  1.255214E+06 -1.056999E+04 -5.945371E+03 -2.548451E+04 -2.544022E-10 -3.443052E-10
       420  18  1.196215E+06 -2.491435E+04 -1.956890E+04 -3.782682E+04  3.145148E-10 -6.051210E-11
       420  19  1.282525E+06 -3.877410E+03  2.161310E+03 -3.802225E+04 -7.066169E+03 -1.108580E+03
       420  20  1.341528E+06  1.044424E+04  1.293795E+04 -2.568008E+04 -5.340720E+03  2.242124E+03
       420  21  1.400791E+06  2.482612E+04  2.485482E+04 -3.784667E+04 -3.615274E+03  5.595794E+03
       420  22  1.298498E+06 -2.120480E+01  5.491374E+03 -3.783671E+04 -4.007085E+03 -1.108066E+03
       420  23  1.298370E+06 -6.281078E+01  3.496334E+03 -2.558229E+04 -2.278729E+03  2.242723E+03
       420  24  1.298498E+06 -4.375432E+01  2.643294E+03 -3.783674E+04 -5.505378E+02  5.596464E+03
       420  25  1.314472E+06  3.834989E+03  8.821459E+03 -3.765117E+04 -9.479223E+02 -1.107550E+03
       420  26  1.255214E+06 -1.056998E+04 -5.945360E+03 -2.548451E+04  7.830519E+02  2.243323E+03
       420  27  1.196215E+06 -2.491432E+04 -1.956882E+04 -3.782681E+04  2.513702E+03  5.597135E+03
       421   1  1.449112E+06  3.665608E+04  3.564984E+04 -3.783878E+04  3.149868E+03 -7.549502E+03
       421   2  1.508388E+06  5.105762E+04  4.884904E+04 -2.543879E+04  1.718904E+03 -1.091243E+04
       421   3  1.567901E+06  6.549834E+04  6.299601E+04 -3.765372E+04  2.887124E+02 -1.428184E+04
       421   4  1.298490E+06 -4.469710E+01  2.535440E+03 -3.786042E+04  8.061870E+01 -7.550314E+03
       421   5  1.298369E+06 -6.839875E+01  2.906795E+03 -2.555270E+04 -1.356001E+03 -1.091362E+04
       421   6  1.298483E+06 -5.168002E+01  4.230184E+03 -3.786040E+04 -2.791716E+03 -1.428340E+04
       421   7  1.147890E+06 -3.674698E+04 -3.058031E+04 -3.788205E+04 -2.987896E+03 -7.551125E+03
       421   8  1.088392E+06 -5.119734E+04 -4.303808E+04 -2.566656E+04 -4.429882E+03 -1.091482E+04
       421   9  1.029132E+06 -6.560651E+04 -5.453998E+04 -3.806700E+04 -5.870828E+03 -1.428497E+04
       421  10  1.449112E+06  3.665601E+04  3.564971E+04 -3.783876E+04 -6.483466E-10  7.836425E-11
       421  11  1.508388E+06  5.105749E+04  4.884881E+04 -2.543878E+04  6.007245E-10  5.999356E-10
       421  12  1.567901E+06  6.549812E+04  6.299563E+04 -3.765371E+04  2.140399E-10 -3.302718E-10
       421  13  1.298490E+06 -4.475836E+01  2.535333E+03 -3.786042E+04  9.543819E-10  1.025414E-09
       421  14  1.298369E+06 -6.852723E+01  2.906567E+03 -2.555271E+04  8.196569E-10  9.244294E-10
       421  15  1.298483E+06 -5.190132E+01  4.229786E+03 -3.786043E+04  7.006150E-11  2.531594E-11
       421  16  1.147890E+06 -3.674705E+04 -3.058043E+04 -3.788207E+04  5.168423E-10  5.409846E-10
       421  17  1.088392E+06 -5.119748E+04 -4.303834E+04 -2.566660E+04 -3.622698E-10  1.994798E-10
       421  18  1.029132E+06 -6.560674E+04 -5.454042E+04 -3.806707E+04 -1.003938E-09 -1.914915E-10
       421  19  1.449112E+06  3.665608E+04  3.564984E+04 -3.783878E+04 -3.149868E+03  7.549502E+03
       421  20  1.508388E+06  5.105762E+04  4.884904E+04 -2.543879E+04 -1.718904E+03  1.091243E+04
       421  21  1.567901E+06  6.549834E+04  6.299601E+04 -3.765372E+04 -2.887124E+02  1.428184E+04
       421  22  1.298490E+06 -4.469710E+01  2.535440E+03 -3.786042E+04 -8.061870E+01  7.550314E+03
       421  23  1.298369E+06 -6.839875E+01  2.906795E+03 -2.555270E+04  1.356001E+03  1.091362E+04
       421  24  1.298483E+06 -5.168002E+01  4.230184E+03 -3.786040E+04  2.791716E+03  1.428340E+04
       421  25  1.147890E+06 -3.674698E+04 -3.058031E+04 -3.788205E+04  2.987896E+03  7.551125E+03
       421  26  1.088392E+06 -5.119734E+04 -4.303808E+04 -2.566656E+04  4.429882E+03  1.091482E+04
       421  27  1.029132E+06 -6.560651E+04 -5.453998E+04 -3.806700E+04  5.870828E+03  1.428497E+04
       422   1  1.616718E+06  7.734404E+04  7.508232E+04 -3.754012E+04 -5.532462E+02 -1.625304E+04
       422   2  1.676277E+06  9.184910E+04  9.160996E+04 -2.506261E+04 -4.993026E+03 -1.963820E+04
       422   3  1.736702E+06  1.071514E+05  1.112409E+05 -3.744714E+04 -9.431566E+03 -2.299764E+04
       422   4  1.298615E+06 -1.212894E+02  5.337566E+03 -3.791528E+04 -3.655356E+03 -1.625494E+04
       422   5  1.298177E+06 -1.860638E+02  8.902492E+03 -2.548394E+04 -8.069324E+03 -1.964077E+04
       422   6  1.298598E+06  5.429284E+02  1.555469E+04 -3.791558E+04 -1.248164E+04 -2.300086E+04
       422   7  9.806069E+05 -7.759337E+04 -6.441330E+04 -3.829025E+04 -6.755898E+03 -1.625684E+04
       422   8  9.202098E+05 -9.223073E+04 -7.381359E+04 -2.590504E+04 -1.114378E+04 -1.964334E+04
       422   9  8.606734E+05 -1.060783E+05 -8.014308E+04 -3.838370E+04 -1.552958E+04 -2.300408E+04
       422  10  1.616718E+06  7.734376E+04  7.508182E+04 -3.754013E+04 -7.662122E-10  3.610045E-10
       422  11  1.676277E+06  9.184867E+04  9.160919E+04 -2.506269E+04 -1.511786E-09 -5.871361E-10
       422  12  1.736702E+06  1.071508E+05  1.112398E+05 -3.744732E+04  1.063644E-09  2.121396E-11
       422  13  1.298615E+06 -1.215769E+02  5.337044E+03 -3.791533E+04 -5.057956E-11  2.117169E-10
       422  14  1.298176E+06 -1.864957E+02  8.901644E+03 -2.548407E+04 -5.527228E-10 -3.253649E-10
       422  15  1.298598E+06  5.423182E+02  1.555340E+04 -3.791581E+04 -4.968390E-11 -4.157924E-10
       422  16  9.806068E+05 -7.759366E+04 -6.441388E+04 -3.829034E+04  6.669893E-10 -7.005780E-10
       422  17  9.202096E+05 -9.223118E+04 -7.381455E+04 -2.590521E+04 -1.112021E-10 -3.376462E-10
       422  18  8.606730E+05 -1.060790E+05 -8.014453E+04 -3.838399E+04 -1.200221E-09  1.996712E-10
       422  19  1.616718E+06  7.734404E+04  7.508232E+04 -3.754012E+04  5.532462E+02  1.625304E+04
       422  20  1.676277E+06  9.184910E+04  9.160996E+04 -2.506261E+04  4.993026E+03  1.963820E+04
       422  21  1.736702E+06  1.071514E+05  1.112409E+05 -3.744714E+04  9.431566E+03  2.299764E+04
       422  22  1.298615E+06 -1.212894E+02  5.337566E+03 -3.791528E+04  3.655356E+03  1.625494E+04
       422  23  1.298177E+06 -1.860638E+02  8.902492E+03 -2.548394E+04  8.069324E+03  1.964077E+04
       422  24  1.298598E+06  5.429284E+02  1.555469E+04 -3.791558E+04  1.248164E+04  2.300086E+04
       422  25  9.806069E+05 -7.759337E+04 -6.441330E+04 -3.829025E+04  6.755898E+03  1.625684E+04
       422  26  9.202098E+05 -9.223073E+04 -7.381359E+04 -2.590504E+04  1.114378E+04  1.964334E+04
       422  27  8.606734E+05 -1.060783E+05 -8.014308E+04 -3.838370E+04  1.552958E+04  2.300408E+04
       423   1  1.787150E+06  1.177746E+05  1.270195E+05 -3.507853E+04 -1.230700E+04 -2.507271E+04
       423   2  1.845058E+06  1.329330E+05  1.550416E+05 -2.608398E+04 -3.070552E+04 -2.829595E+04
       423   3  1.909031E+06  1.621209E+05  1.985618E+05 -4.230181E+04 -4.910524E+04 -3.062906E+04
       423   4  1.299714E+06 -9.006613E+02  2.025496E+04 -3.798935E+04 -1.563793E+04 -2.507662E+04
       423   5  1.296732E+06 -5.455886E+02  3.499068E+04 -2.538974E+04 -3.320905E+04 -2.830021E+04
       423   6  1.299675E+06  1.370329E+04  6.466098E+04 -3.800352E+04 -5.077958E+04 -3.063351E+04
       423   7  8.125001E+05 -1.195917E+05 -8.652397E+04 -4.089790E+04 -1.896628E+04 -2.508050E+04
       423   8  7.486879E+05 -1.340442E+05 -8.507839E+04 -2.469619E+04 -3.571039E+04 -2.830447E+04
       423   9  6.906655E+05 -1.347390E+05 -6.926249E+04 -3.370957E+04 -5.245228E+04 -3.063797E+04
       423  10  1.787149E+06  1.177739E+05  1.270181E+05 -3.507878E+04  4.001860E-10 -4.842686E-10
       423  11  1.845056E+06  1.329319E+05  1.550383E+05 -2.608467E+04  2.730446E-10 -1.036346E-09
       423  12  1.909028E+06  1.621192E+05  1.985555E+05 -4.230302E+04  1.045526E-09 -1.774508E-09
       423  13  1.299713E+06 -9.014025E+02  2.025332E+04 -3.798967E+04  1.713903E-11 -4.739153E-10
       423  14  1.296731E+06 -5.467445E+02  3.498711E+04 -2.539050E+04  7.572113E-13 -1.075242E-09
       423  15  1.299672E+06  1.370159E+04  6.465438E+04 -3.800477E+04  2.814763E-10 -1.357841E-09
       423  16  8.124995E+05 -1.195925E+05 -8.652583E+04 -4.089828E+04 -8.534404E-11  6.868735E-11
       423  17  7.486863E+05 -1.340454E+05 -8.508229E+04 -2.469700E+04  4.125342E-10  2.302552E-09
       423  18  6.906623E+05 -1.347408E+05 -6.926942E+04 -3.371086E+04 -1.658667E-09 -2.726143E-10
       423  19  1.787150E+06  1.177746E+05  1.270195E+05 -3.507853E+04  1.230700E+04  2.507271E+04
       423  20  1.845058E+06  1.329330E+05  1.550416E+05 -2.608398E+04  3.070552E+04  2.829595E+04
       423  21  1.909031E+06  1.621209E+05  1.985618E+05 -4.230181E+04  4.910524E+04  3.062906E+04
       423  22  1.299714E+06 -9.006613E+02  2.025496E+04 -3.798935E+04  1.563793E+04  2.507662E+04
       423  23  1.296732E+06 -5.455886E+02  3.499068E+04 -2.538974E+04  3.320905E+04  2.830021E+04
       423  24  1.299675E+06  1.370329E+04  6.466098E+04 -3.800352E+04  5.077958E+04  3.063351E+04
       423  25  8.125001E+05 -1.195917E+05 -8.652397E+04 -4.089790E+04  1.896628E+04  2.508050E+04
       423  26  7.486879E+05 -1.340442E+05 -8.507839E+04 -2.469619E+04  3.571039E+04  2.830447E+04
       423  27  6.906655E+05 -1.347390E+05 -6.926249E+04 -3.370957E+04  5.245228E+04  3.063797E+04
       424   1  1.973915E+06  1.481213E+05  2.256146E+05 -8.080208E+02 -5.468225E+04 -3.445889E+04
       424   2  1.999758E+06  1.751407E+05  2.990752E+05 -6.676298E+04 -1.468124E+05 -3.278299E+04
       424   3  2.099032E+06  4.471358E+05  4.936927E+05 -1.579002E+05 -2.389909E+05 -1.068505E+04
       424   4  1.313986E+06 -1.258832E+04  8.134209E+04 -3.788079E+04 -6.233046E+04 -3.446789E+04
       424   5  1.278765E+06 -7.506018E+02  1.385418E+05 -2.550147E+04 -1.357344E+05 -3.277905E+04
       424   6  1.313799E+06  2.529493E+05  3.039995E+05 -3.829231E+04 -2.091742E+05 -1.068074E+04
       424   7  6.544657E+05 -1.733218E+05 -6.295582E+04 -7.491388E+04 -6.997064E+04 -3.447598E+04
       424   8  5.582583E+05 -1.766705E+05 -2.202263E+04  1.571157E+04 -1.246690E+05 -3.277364E+04
       424   9  5.291613E+05  5.877236E+04  1.142732E+05  8.116402E+04 -1.793948E+05 -1.066499E+04
       424  10  1.973911E+06  1.481193E+05  2.256068E+05 -8.095369E+02  2.498320E-10 -2.953408E-09
       424  11  1.999735E+06  1.751337E+05  2.990328E+05 -6.676685E+04 -1.828891E-09 -4.678105E-09
       424  12  2.098971E+06  4.471204E+05  4.935855E+05 -1.579022E+05 -2.021551E-09 -1.149987E-09
       424  13  1.313981E+06 -1.259064E+04  8.133257E+04 -3.788252E+04 -1.349426E-09 -6.531675E-09
       424  14  1.278745E+06 -7.566893E+02  1.385053E+05 -2.550505E+04  1.355381E-09  2.267023E-09
       424  15  1.313752E+06  2.529375E+05  3.039172E+05 -3.829411E+04  8.909930E-11 -2.944877E-10
       424  16  6.544601E+05 -1.733244E+05 -6.296725E+04 -7.491582E+04 -1.995300E-10 -1.345204E-09
       424  17  5.582413E+05 -1.766758E+05 -2.205383E+04  1.570828E+04  1.738956E-09  2.257266E-09
       424  18  5.291267E+05  5.876361E+04  1.142125E+05  8.116248E+04  4.040568E-10 -1.563121E-09
       424  19  1.973915E+06  1.481213E+05  2.256146E+05 -8.080208E+02  5.468225E+04  3.445889E+04
       424  20  1.999758E+06  1.751407E+05  2.990752E+05 -6.676298E+04  1.468124E+05  3.278299E+04
       424  21  2.099032E+06  4.471358E+05  4.936927E+05 -1.579002E+05  2.389909E+05  1.068505E+04
       424  22  1.313986E+06 -1.258832E+04  8.134209E+04 -3.788079E+04  6.233046E+04  3.446789E+04
       424  23  1.278765E+06 -7.506018E+02  1.385418E+05 -2.550147E+04  1.357344E+05  3.277905E+04
       424  24  1.313799E+06  2.529493E+05  3.039995E+05 -3.829231E+04  2.091742E+05  1.068074E+04
       424  25  6.544657E+05 -1.733218E+05 -6.295582E+04 -7.491388E+04  6.997064E+04  3.447598E+04
       424  26  5.582583E+05 -1.766705E+05 -2.202263E+04  1.571157E+04  1.246690E+05  3.277364E+04
       424  27  5.291613E+05  5.877236E+04  1.142732E+05  8.116402E+04  1.793948E+05  1.066499E+04
       425   1  4.341113E+05  1.641921E+05  1.470165E+05  2.426976E+04  1.599499E+04 -1.268628E+04
       425   2  3.731977E+05  1.885836E+05  1.350605E+05  3.603868E+04 -9.700670E+02 -4.216176E+04
       425   3  3.066623E+05  1.815351E+05  1.263298E+05  6.268584E+04 -1.797361E+04 -4.954669E+04
       425   4 -4.582887E+05 -5.627910E+04 -6.372795E+04  5.668231E+04 -4.424114E+04 -1.280788E+04
       425   5 -4.525923E+05 -9.623865E+03 -3.053456E+04  4.918027E+04 -2.832629E+04 -4.222581E+04
       425   6 -4.582434E+05 -1.422567E+02 -1.695877E+04  5.655805E+04 -1.245161E+04 -4.953871E+04
       425   7 -1.349946E+06 -2.768013E+05 -2.745132E+05  8.904766E+04 -1.043912E+05 -1.293586E+04
       425   8 -1.277730E+06 -2.078723E+05 -1.961613E+05  6.230367E+04 -5.564684E+04 -4.229106E+04
       425   9 -1.222583E+06 -1.818533E+05 -1.602725E+05  5.043765E+04 -6.936242E+03 -4.953084E+04
       425  10  4.341110E+05  1.641918E+05  1.470157E+05  2.426992E+04  3.401166E-09 -4.074282E-10
       425  11  3.731973E+05  1.885817E+05  1.350571E+05  3.603865E+04  2.946368E-09 -4.429972E-09
       425  12  3.066613E+05  1.815323E+05  1.263245E+05  6.268513E+04  4.677287E-10 -3.725399E-09
       425  13 -4.582909E+05 -5.627980E+04 -6.373194E+04  5.668186E+04 -1.556170E-10  1.760342E-09
       425  14 -4.525937E+05 -9.625995E+03 -3.053942E+04  4.917930E+04 -4.939892E-10 -2.563805E-09
       425  15 -4.582442E+05 -1.449330E+02 -1.696368E+04  5.655755E+04  1.825649E-09 -3.574032E-11
       425  16 -1.349958E+06 -2.768044E+05 -2.745340E+05  8.904658E+04 -2.647177E-09  3.383686E-10
       425  17 -1.277734E+06 -2.078750E+05 -1.961705E+05  6.230178E+04 -8.852951E-10 -7.506551E-09
       425  18 -1.222584E+06 -1.818560E+05 -1.602772E+05  5.043737E+04 -1.513364E-09 -6.484593E-09
       425  19  4.341113E+05  1.641921E+05  1.470165E+05  2.426976E+04 -1.599499E+04  1.268628E+04
       425  20  3.731977E+05  1.885836E+05  1.350605E+05  3.603868E+04  9.700670E+02  4.216176E+04
       425  21  3.066623E+05  1.815351E+05  1.263298E+05  6.268584E+04  1.797361E+04  4.954669E+04
       425  22 -4.582887E+05 -5.627910E+04 -6.372795E+04  5.668231E+04  4.424114E+04  1.280788E+04
       425  23 -4.525923E+05 -9.623865E+03 -3.053456E+04  4.918027E+04  2.832629E+04  4.222581E+04
       425  24 -4.582434E+05 -1.422567E+02 -1.695877E+04  5.655805E+04  1.245161E+04  4.953871E+04
       425  25 -1.349946E+06 -2.768013E+05 -2.745132E+05  8.904766E+04  1.043912E+05  1.293586E+04
       425  26 -1.277730E+06 -2.078723E+05 -1.961613E+05  6.230367E+04  5.564684E+04  4.229106E+04
       425  27 -1.222583E+06 -1.818533E+05 -1.602725E+05  5.043765E+04  6.936242E+03  4.953084E+04
       426   1  2.653814E+05  1.691610E+05  1.215902E+05  5.744263E+04 -1.210404E+04 -4.722443E+04
       426   2  2.019539E+05  1.555823E+05  1.134744E+05  4.986922E+04 -1.098171E+04 -4.513705E+04
       426   3  1.380470E+05  1.408261E+05  1.043258E+05  5.853278E+04 -9.865495E+03 -4.139156E+04
       426   4 -4.559130E+05 -2.032366E+03 -1.302925E+04  5.688083E+04 -1.022658E+04 -4.722450E+04
       426   5 -4.554430E+05 -4.943125E+01 -7.196834E+03  4.875870E+04 -6.639673E+03 -4.512999E+04
       426   6 -4.558845E+05  3.272849E+02 -4.110534E+03  5.687465E+04 -3.058713E+03 -4.137649E+04
       426   7 -1.176704E+06 -1.732557E+05 -1.476710E+05  5.631938E+04 -8.351244E+03 -4.722458E+04
       426   8 -1.112420E+06 -1.557058E+05 -1.278857E+05  4.764912E+04 -2.302104E+03 -4.512294E+04
       426   9 -1.049473E+06 -1.401914E+05 -1.125609E+05  5.521791E+04  3.741735E+03 -4.136144E+04
       426  10  2.653806E+05  1.691585E+05  1.215858E+05  5.744217E+04 -5.586167E-09 -4.228827E-09
       426  11  2.019533E+05  1.555801E+05  1.134704E+05  4.986882E+04 -1.774145E-09  3.081430E-09
       426  12  1.380464E+05  1.408242E+05  1.043224E+05  5.853245E+04 -1.260745E-09  3.038379E-09
       426  13 -4.559137E+05 -2.034788E+03 -1.303364E+04  5.688044E+04  1.188615E-10 -3.672053E-09
       426  14 -4.554436E+05 -5.162968E+01 -7.200743E+03  4.875846E+04 -8.047235E-10 -2.528716E-10
       426  15 -4.558850E+05  3.254444E+02 -4.113768E+03  5.687455E+04  2.312064E-09 -3.137342E-09
       426  16 -1.176705E+06 -1.732581E+05 -1.476753E+05  5.631906E+04  6.786787E-09  2.712157E-10
       426  17 -1.112421E+06 -1.557079E+05 -1.278896E+05  4.764904E+04  2.942625E-09  1.706309E-09
       426  18 -1.049474E+06 -1.401933E+05 -1.125642E+05  5.521804E+04 -9.056713E-10  4.189253E-10
       426  19  2.653814E+05  1.691610E+05  1.215902E+05  5.744263E+04  1.210404E+04  4.722443E+04
       426  20  2.019539E+05  1.555823E+05  1.134744E+05  4.986922E+04  1.098171E+04  4.513705E+04
       426  21  1.380470E+05  1.408261E+05  1.043258E+05  5.853278E+04  9.865495E+03  4.139156E+04
       426  22 -4.559130E+05 -2.032366E+03 -1.302925E+04  5.688083E+04  1.022658E+04  4.722450E+04
       426  23 -4.554430E+05 -4.943125E+01 -7.196834E+03  4.875870E+04  6.639673E+03  4.512999E+04
       426  24 -4.558845E+05  3.272849E+02 -4.110534E+03  5.687465E+04  3.058713E+03  4.137649E+04
       426  25 -1.176704E+06 -1.732557E+05 -1.476710E+05  5.631938E+04  8.351244E+03  4.722458E+04
       426  26 -1.112420E+06 -1.557058E+05 -1.278857E+05  4.764912E+04  2.302104E+03  4.512294E+04
       426  27 -1.049473E+06 -1.401914E+05 -1.125609E+05  5.521791E+04 -3.741735E+03  4.136144E+04
       427   1  9.535869E+04  1.305458E+05  9.718478E+04  5.821700E+04 -8.966830E+03 -3.871585E+04
       427   2  3.162988E+04  1.154885E+05  8.687918E+04  4.988847E+04 -8.277992E+03 -3.425798E+04
       427   3 -3.225443E+04  1.004828E+05  7.611620E+04  5.793387E+04 -7.591385E+03 -2.967286E+04
       427   4 -4.557150E+05  2.434603E+02 -3.128733E+03  5.690616E+04 -2.428571E+03 -3.870061E+04
       427   5 -4.556085E+05  2.802488E+02 -1.794458E+03  4.871870E+04 -1.551347E+03 -3.424095E+04
       427   6 -4.556944E+05  3.359067E+02 -1.048902E+03  5.690591E+04 -6.762842E+02 -2.965396E+04
       427   7 -1.006493E+06 -1.300759E+05 -1.034542E+05  5.559630E+04  4.104043E+03 -3.868540E+04
       427   8 -9.426159E+05 -1.149414E+05 -9.047743E+04  4.754970E+04  5.170163E+03 -3.422393E+04
       427   9 -8.789600E+05 -9.982108E+04 -7.822103E+04  5.587855E+04  6.234227E+03 -2.963508E+04
       427  10  9.535820E+04  1.305441E+05  9.718181E+04  5.821672E+04 -3.281860E-09  5.073697E-09
       427  11  3.162949E+04  1.154872E+05  8.687685E+04  4.988824E+04  9.678339E-10  3.377818E-09
       427  12 -3.225473E+04  1.004818E+05  7.611444E+04  5.793368E+04  2.910279E-09 -1.744044E-09
       427  13 -4.557154E+05  2.418508E+02 -3.131558E+03  5.690608E+04  5.310421E-11 -3.626304E-09
       427  14 -4.556088E+05  2.789895E+02 -1.796666E+03  4.871866E+04 -8.977718E-10  3.824380E-09
       427  15 -4.556947E+05  3.349625E+02 -1.050555E+03  5.690590E+04  2.419986E-09  4.212575E-09
       427  16 -1.006494E+06 -1.300775E+05 -1.034571E+05  5.559643E+04  4.583597E-09  2.090975E-09
       427  17 -9.426162E+05 -1.149426E+05 -9.047969E+04  4.754984E+04  9.568265E-10  5.418354E-09
       427  18 -8.789602E+05 -9.982203E+04 -7.822275E+04  5.587870E+04 -4.416419E-09  7.304580E-10
       427  19  9.535869E+04  1.305458E+05  9.718478E+04  5.821700E+04  8.966830E+03  3.871585E+04
       427  20  3.162988E+04  1.154885E+05  8.687918E+04  4.988847E+04  8.277992E+03  3.425798E+04
       427  21 -3.225443E+04  1.004828E+05  7.611620E+04  5.793387E+04  7.591385E+03  2.967286E+04
       427  22 -4.557150E+05  2.434603E+02 -3.128733E+03  5.690616E+04  2.428571E+03  3.870061E+04
       427  23 -4.556085E+05  2.802488E+02 -1.794458E+03  4.871870E+04  1.551347E+03  3.424095E+04
       427  24 -4.556944E+05  3.359067E+02 -1.048902E+03  5.690591E+04  6.762842E+02  2.965396E+04
       427  25 -1.006493E+06 -1.300759E+05 -1.034542E+05  5.559630E+04 -4.104043E+03  3.868540E+04
       427  26 -9.426159E+05 -1.149414E+05 -9.047743E+04  4.754970E+04 -5.170163E+03  3.422393E+04
       427  27 -8.789600E+05 -9.982108E+04 -7.822103E+04  5.587855E+04 -6.234227E+03  2.963508E+04
       428   1 -7.510835E+04  9.028880E+04  6.825274E+04  5.783507E+04 -7.413348E+03 -2.696621E+04
       428   2 -1.389659E+05  7.516806E+04  5.706424E+04  4.947558E+04 -7.186967E+03 -2.232391E+04
       428   3 -2.029335E+05  6.014713E+04  4.572374E+04  5.752520E+04 -6.961844E+03 -1.767037E+04
       428   4 -4.556710E+05  3.375935E+02 -8.144886E+02  5.691373E+04 -5.152318E+02 -2.694672E+04
       428   5 -4.556054E+05  3.003715E+02 -5.174654E+02  4.870892E+04 -2.726495E+02 -2.230351E+04
       428   6 -4.556577E+05  3.600444E+02 -3.841478E+02  5.691369E+04 -3.130201E+01 -1.764906E+04
       428   7 -8.360927E+05 -8.962174E+04 -6.988730E+04  5.599286E+04  6.378771E+03 -2.692724E+04
       428   8 -7.721473E+05 -7.457294E+04 -5.810300E+04  4.794259E+04  6.638237E+03 -2.228313E+04
       428   9 -7.083197E+05 -5.943063E+04 -4.649442E+04  5.630239E+04  6.896494E+03 -1.762776E+04
       428  10 -7.510860E+04  9.028801E+04  6.825127E+04  5.783491E+04 -2.472436E-08 -1.652798E-09
       428  11 -1.389661E+05  7.516751E+04  5.706321E+04  4.947546E+04  9.690693E-10  6.836922E-09
       428  12 -2.029337E+05  6.014678E+04  4.572306E+04  5.752510E+04  2.429065E-08  6.169099E-09
       428  13 -4.556712E+05  3.368139E+02 -8.158533E+02  5.691372E+04 -3.443597E-11  7.152751E-11
       428  14 -4.556055E+05  2.998374E+02 -5.184002E+02  4.870892E+04 -9.854765E-10  5.917229E-09
       428  15 -4.556578E+05  3.597100E+02 -3.847330E+02  5.691369E+04  2.043681E-09  2.550615E-10
       428  16 -8.360929E+05 -8.962253E+04 -6.988874E+04  5.599300E+04  2.639790E-08  4.035974E-10
       428  17 -7.721474E+05 -7.457349E+04 -5.810402E+04  4.794271E+04  4.702953E-10  1.258962E-09
       428  18 -7.083199E+05 -5.943097E+04 -4.649510E+04  5.630249E+04 -2.663973E-08 -2.826863E-10
       428  19 -7.510835E+04  9.028880E+04  6.825274E+04  5.783507E+04  7.413348E+03  2.696621E+04
       428  20 -1.389659E+05  7.516806E+04  5.706424E+04  4.947558E+04  7.186967E+03  2.232391E+04
       428  21 -2.029335E+05  6.014713E+04  4.572374E+04  5.752520E+04  6.961844E+03  1.767037E+04
       428  22 -4.556710E+05  3.375935E+02 -8.144886E+02  5.691373E+04  5.152318E+02  2.694672E+04
       428  23 -4.556054E+05  3.003715E+02 -5.174654E+02  4.870892E+04  2.726495E+02  2.230351E+04
       428  24 -4.556577E+05  3.600444E+02 -3.841478E+02  5.691369E+04  3.130201E+01  1.764906E+04
       428  25 -8.360927E+05 -8.962174E+04 -6.988730E+04  5.599286E+04 -6.378771E+03  2.692724E+04
       428  26 -7.721473E+05 -7.457294E+04 -5.810300E+04  4.794259E+04 -6.638237E+03  2.228313E+04
       428  27 -7.083197E+05 -5.943063E+04 -4.649442E+04  5.630239E+04 -6.896494E+03  1.762776E+04
       429   1 -2.458588E+05  4.994230E+04  3.763520E+04  5.742481E+04 -6.903186E+03 -1.495803E+04
       429   2 -3.097676E+05  3.480582E+04  2.610187E+04  4.904068E+04 -6.708800E+03 -1.029901E+04
       429   3 -3.738003E+05  1.976810E+04  1.443211E+04  5.708559E+04 -6.514975E+03 -5.642846E+03
       429   4 -4.556556E+05  3.644670E+02 -3.658067E+02  5.691806E+04  2.844134E+01 -1.493634E+04
       429   5 -4.555895E+05  3.246900E+02 -4.133669E+02  4.870341E+04  2.182463E+02 -1.027694E+04
       429   6 -4.556496E+05  3.848874E+02 -5.939909E+02  5.691802E+04  4.075103E+02 -5.620396E+03
       429   7 -6.654096E+05 -4.921581E+04 -3.836837E+04  5.641146E+04  6.957790E+03 -1.491466E+04
       429   8 -6.013906E+05 -3.415761E+04 -2.692927E+04  4.836621E+04  7.143709E+03 -1.025488E+04
       429   9 -5.374922E+05 -1.899868E+04 -1.562018E+04  5.675046E+04  7.329106E+03 -5.597947E+03
       429  10 -2.458589E+05  4.994205E+04  3.763469E+04  5.742473E+04  1.161118E-08  1.761524E-09
       429  11 -3.097676E+05  3.480569E+04  2.610158E+04  4.904062E+04  5.014152E-09  5.867560E-11
       429  12 -3.738004E+05  1.976805E+04  1.443197E+04  5.708557E+04 -5.011112E-09 -5.704413E-10
       429  13 -4.556557E+05  3.642275E+02 -3.662258E+02  5.691806E+04 -5.084863E-10  7.338777E-09
       429  14 -4.555895E+05  3.245766E+02 -4.135655E+02  4.870341E+04 -1.010959E-09  1.589380E-09
       429  15 -4.556496E+05  3.848534E+02 -5.940505E+02  5.691802E+04  2.596734E-09  3.099391E-10
       429  16 -6.654097E+05 -4.921606E+04 -3.836888E+04  5.641155E+04 -1.042705E-08  3.100338E-09
       429  17 -6.013907E+05 -3.415774E+04 -2.692956E+04  4.836627E+04 -2.776780E-09 -2.286301E-09
       429  18 -5.374922E+05 -1.899872E+04 -1.562034E+04  5.675049E+04  3.032468E-09 -1.118780E-09
       429  19 -2.458588E+05  4.994230E+04  3.763520E+04  5.742481E+04  6.903186E+03  1.495803E+04
       429  20 -3.097676E+05  3.480582E+04  2.610187E+04  4.904068E+04  6.708800E+03  1.029901E+04
       429  21 -3.738003E+05  1.976810E+04  1.443211E+04  5.708559E+04  6.514975E+03  5.642846E+03
       429  22 -4.556556E+05  3.644670E+02 -3.658067E+02  5.691806E+04 -2.844134E+01  1.493634E+04
       429  23 -4.555895E+05  3.246900E+02 -4.133669E+02  4.870341E+04 -2.182463E+02  1.027694E+04
       429  24 -4.556496E+05  3.848874E+02 -5.939909E+02  5.691802E+04 -4.075103E+02  5.620396E+03
       429  25 -6.654096E+05 -4.921581E+04 -3.836837E+04  5.641146E+04 -6.957790E+03  1.491466E+04
       429  26 -6.013906E+05 -3.415761E+04 -2.692927E+04  4.836621E+04 -7.143709E+03  1.025488E+04
       429  27 -5.374922E+05 -1.899868E+04 -1.562018E+04  5.675046E+04 -7.329106E+03  5.597947E+03
       430   1 -4.167639E+05  9.556874E+03  6.163726E+03  5.696376E+04 -6.412626E+03 -2.929183E+03
       430   2 -4.806412E+05 -5.589122E+03 -5.853272E+03  4.856329E+04 -5.717471E+03  1.704056E+03
       430   3 -5.447274E+05 -2.070232E+04 -1.835050E+04  5.659215E+04 -5.022102E+03  6.275836E+03
       430   4 -4.556643E+05  3.904682E+02 -7.488635E+02  5.691797E+04  5.201844E+02 -2.906600E+03
       430   5 -4.555664E+05  3.500395E+02 -1.249892E+03  4.870339E+04  1.123635E+03  1.726269E+03
       430   6 -4.556655E+05  3.585260E+02 -2.167461E+03  5.691809E+04  1.727370E+03  6.297688E+03
       430   7 -4.945631E+05 -8.775995E+03 -7.661329E+03  5.687218E+04  7.452572E+03 -2.884018E+03
       430   8 -4.304908E+05  6.289190E+03  3.353638E+03  4.884350E+04  7.965010E+03  1.748484E+03
       430   9 -3.665958E+05  2.141895E+04  1.401544E+04  5.724407E+04  8.477784E+03  6.319546E+03
       430  10 -4.167640E+05  9.556853E+03  6.163633E+03  5.696374E+04 -1.642097E-09  3.949143E-09
       430  11 -4.806412E+05 -5.589134E+03 -5.853339E+03  4.856329E+04 -9.636644E-10  2.894583E-09
       430  12 -5.447275E+05 -2.070237E+04 -1.835063E+04  5.659217E+04 -3.617679E-09  3.239997E-09
       430  13 -4.556643E+05  3.904591E+02 -7.488799E+02  5.691797E+04 -2.685322E-10  2.229288E-09
       430  14 -4.555664E+05  3.500359E+02 -1.249900E+03  4.870339E+04 -1.193183E-09  2.272401E-09
       430  15 -4.556655E+05  3.584826E+02 -2.167541E+03  5.691808E+04  2.752099E-09  2.669154E-09
       430  16 -4.945631E+05 -8.776019E+03 -7.661449E+03  5.687220E+04  3.203971E-09  4.882122E-09
       430  17 -4.304909E+05  6.289170E+03  3.353513E+03  4.884349E+04  3.503391E-09 -9.009250E-09
       430  18 -3.665959E+05  2.141889E+04  1.401523E+04  5.724403E+04  1.698828E-09 -1.333779E-09
       430  19 -4.167639E+05  9.556874E+03  6.163726E+03  5.696376E+04  6.412626E+03  2.929183E+03
       430  20 -4.806412E+05 -5.589122E+03 -5.853272E+03  4.856329E+04  5.717471E+03 -1.704056E+03
       430  21 -5.447274E+05 -2.070232E+04 -1.835050E+04  5.659215E+04  5.022102E+03 -6.275836E+03
       430  22 -4.556643E+05  3.904682E+02 -7.488635E+02  5.691797E+04 -5.201844E+02  2.906600E+03
       430  23 -4.555664E+05  3.500395E+02 -1.249892E+03  4.870339E+04 -1.123635E+03 -1.726269E+03
       430  24 -4.556655E+05  3.585260E+02 -2.167461E+03  5.691809E+04 -1.727370E+03 -6.297688E+03
       430  25 -4.945631E+05 -8.775995E+03 -7.661329E+03  5.687218E+04 -7.452572E+03  2.884018E+03
       430  26 -4.304908E+05  6.289190E+03  3.353638E+03  4.884350E+04 -7.965010E+03 -1.748484E+03
       430  27 -3.665958E+05  2.141895E+04  1.401544E+04  5.724407E+04 -8.477784E+03 -6.319546E+03
       431   1 -5.878127E+05 -3.086671E+04 -2.716162E+04  5.627657E+04 -4.724427E+03  8.976866E+03
       431   2 -6.513062E+05 -4.628571E+04 -4.117178E+04  4.836025E+04 -1.038938E+03  1.320746E+04
       431   3 -7.157192E+05 -6.298988E+04 -5.793730E+04  5.681846E+04  2.649285E+03  1.661668E+04
       431   4 -4.557818E+05  4.222375E+02 -2.844546E+03  5.690487E+04  2.159219E+03  8.998976E+03
       431   5 -4.554304E+05  1.557419E+02 -4.969245E+03  4.872032E+04  4.623904E+03  1.322516E+04
       431   6 -4.557909E+05 -1.183572E+03 -9.000640E+03  5.691000E+04  7.091710E+03  1.663011E+04
       431   7 -3.237339E+05  3.171022E+04  2.147199E+04  5.753330E+04  9.044290E+03  9.021096E+03
       431   8 -2.595173E+05  4.659501E+04  3.123181E+04  4.908048E+04  1.028849E+04  1.324287E+04
       431   9 -1.957973E+05  6.061882E+04  3.993314E+04  5.700154E+04  1.153595E+04  1.664354E+04
       431  10 -5.878127E+05 -3.086680E+04 -2.716182E+04  5.627660E+04 -5.461784E-09  7.643260E-09
       431  11 -6.513062E+05 -4.628589E+04 -4.117211E+04  4.836026E+04  1.572963E-09  6.588877E-10
       431  12 -7.157193E+05 -6.299018E+04 -5.793783E+04  5.681842E+04  5.682361E-09  5.671966E-09
       431  13 -4.557819E+05  4.221493E+02 -2.844707E+03  5.690486E+04 -1.420765E-10  4.868658E-09
       431  14 -4.554304E+05  1.555484E+02 -4.969614E+03  4.872027E+04 -1.048909E-09  4.334457E-09
       431  15 -4.557911E+05 -1.183883E+03 -9.001255E+03  5.690991E+04  2.596405E-09 -2.069903E-09
       431  16 -3.237340E+05  3.171011E+04  2.147168E+04  5.753324E+04  7.169287E-09  2.723918E-09
       431  17 -2.595175E+05  4.659480E+04  3.123128E+04  4.908037E+04  5.223989E-10 -1.536633E-09
       431  18 -1.957975E+05  6.061849E+04  3.993237E+04  5.700139E+04 -7.689809E-09 -8.057013E-09
       431  19 -5.878127E+05 -3.086671E+04 -2.716162E+04  5.627657E+04  4.724427E+03 -8.976866E+03
       431  20 -6.513062E+05 -4.628571E+04 -4.117178E+04  4.836025E+04  1.038938E+03 -1.320746E+04
       431  21 -7.157192E+05 -6.298988E+04 -5.793730E+04  5.681846E+04 -2.649285E+03 -1.661668E+04
       431  22 -4.557818E+05  4.222375E+02 -2.844546E+03  5.690487E+04 -2.159219E+03 -8.998976E+03
       431  23 -4.554304E+05  1.557419E+02 -4.969245E+03  4.872032E+04 -4.623904E+03 -1.322516E+04
       431  24 -4.557909E+05 -1.183572E+03 -9.000640E+03  5.691000E+04 -7.091710E+03 -1.663011E+04
       431  25 -3.237339E+05  3.171022E+04  2.147199E+04  5.753330E+04 -9.044290E+03 -9.021096E+03
       431  26 -2.595173E+05  4.659501E+04  3.123181E+04  4.908048E+04 -1.028849E+04 -1.324287E+04
       431  27 -1.957973E+05  6.061882E+04  3.993314E+04  5.700154E+04 -1.153595E+04 -1.664354E+04
       432   1 -7.606762E+05 -7.206544E+04 -6.906223E+04  5.273537E+04  2.376648E+03  1.913658E+04
       432   2 -8.193315E+05 -9.444864E+04 -9.531821E+04  5.811568E+04  2.961209E+04  1.794222E+04
       432   3 -8.887627E+05 -1.453437E+05 -1.464660E+05  7.922986E+04  5.687592E+04  5.788861E+03
       432   4 -4.574017E+05  1.284708E+02 -1.171553E+04  5.674766E+04  8.624428E+03  1.915530E+04
       432   5 -4.534422E+05 -6.440589E+03 -2.108678E+04  4.893909E+04  1.957424E+04  1.791040E+04
       432   6 -4.574255E+05 -3.868272E+04 -4.402568E+04  5.686527E+04  3.055549E+04  5.708279E+03
       432   7 -1.540381E+05  7.231708E+04  4.562726E+04  6.076190E+04  1.487519E+04  1.917411E+04
       432   8 -8.742488E+04  8.155952E+04  5.313813E+04  3.975688E+04  9.530583E+03  1.787889E+04
       432   9 -2.591470E+04  6.796720E+04  5.840460E+04  3.448491E+04  4.216844E+03  5.629625E+03
       432  10 -7.606763E+05 -7.206583E+04 -6.906293E+04  5.273533E+04 -2.446569E-09  3.855747E-09
       432  11 -8.193325E+05 -9.444922E+04 -9.532047E+04  5.811525E+04  9.619944E-10  6.991180E-10
       432  12 -8.887662E+05 -1.453446E+05 -1.464722E+05  7.922960E+04  8.339113E-10  5.319767E-10
       432  13 -4.574018E+05  1.280569E+02 -1.171636E+04  5.674753E+04 -1.970501E-10  4.935749E-09
       432  14 -4.534427E+05 -6.441036E+03 -2.108810E+04  4.893881E+04 -1.968618E-10 -6.553373E-09
       432  15 -4.574265E+05 -3.868300E+04 -4.402749E+04  5.686513E+04  2.215833E-09  1.989549E-09
       432  16 -1.540384E+05  7.231662E+04  4.562616E+04  6.076167E+04  3.620928E-09  9.056621E-11
       432  17 -8.742506E+04  8.155915E+04  5.313735E+04  3.975675E+04  8.180210E-10 -2.526131E-09
       432  18 -2.591473E+04  6.796716E+04  5.840450E+04  3.448489E+04 -2.574335E-09 -2.166195E-09
       432  19 -7.606762E+05 -7.206544E+04 -6.906223E+04  5.273537E+04 -2.376648E+03 -1.913658E+04
       432  20 -8.193315E+05 -9.444864E+04 -9.531821E+04  5.811568E+04 -2.961209E+04 -1.794222E+04
       432  21 -8.887627E+05 -1.453437E+05 -1.464660E+05  7.922986E+04 -5.687592E+04 -5.788861E+03
       432  22 -4.574017E+05  1.284708E+02 -1.171553E+04  5.674766E+04 -8.624428E+03 -1.915530E+04
       432  23 -4.534422E+05 -6.440589E+03 -2.108678E+04  4.893909E+04 -1.957424E+04 -1.791040E+04
       432  24 -4.574255E+05 -3.868272E+04 -4.402568E+04  5.686527E+04 -3.055549E+04 -5.708279E+03
       432  25 -1.540381E+05  7.231708E+04  4.562726E+04  6.076190E+04 -1.487519E+04 -1.917411E+04
       432  26 -8.742488E+04  8.155952E+04  5.313813E+04  3.975688E+04 -9.530583E+03 -1.787889E+04
       432  27 -2.591470E+04  6.796720E+04  5.840460E+04  3.448491E+04 -4.216844E+03 -5.629625E+03
       433   1 -8.350684E+04  5.771478E+04  4.745188E+04  1.882044E+03 -1.752748E+04 -5.164245E+03
       433   2 -1.116181E+05  8.716889E+04  5.805498E+04  7.296867E+03 -1.547851E+04 -1.615189E+04
       433   3 -1.489344E+05  8.106131E+04  5.844544E+04  2.582652E+04 -1.345930E+04 -1.694231E+04
       433   4 -4.728270E+05 -3.890623E+04 -4.684469E+04  1.957191E+04 -3.218809E+04 -5.207820E+03
       433   5 -4.674055E+05  1.530280E+02 -2.134841E+04  1.295255E+04 -2.084561E+04 -1.616901E+04
       433   6 -4.728106E+05  2.024837E+03 -1.252658E+04  1.944883E+04 -9.532588E+03 -1.693043E+04
       433   7 -8.620074E+05 -1.355370E+05 -1.411512E+05  3.725056E+04 -4.683952E+04 -5.252244E+03
       433   8 -8.230748E+05 -8.687129E+04 -1.007596E+05  1.860487E+04 -2.620965E+04 -1.618623E+04
       433   9 -7.965885E+05 -7.701850E+04 -8.350490E+04  1.307443E+04 -5.607896E+03 -1.691863E+04
       433  10 -8.350718E+04  5.771467E+04  4.745125E+04  1.881971E+03 -1.081178E-09  2.488368E-09
       433  11 -1.116184E+05  8.716855E+04  5.805404E+04  7.296666E+03 -2.059408E-09  1.087396E-08
       433  12 -1.489346E+05  8.106095E+04  5.844456E+04  2.582634E+04 -1.988695E-09  4.741322E-09
       433  13 -4.728281E+05 -3.890654E+04 -4.684669E+04  1.957178E+04  3.560104E-10 -6.136988E-09
       433  14 -4.674061E+05  1.526305E+02 -2.134972E+04  1.295228E+04  8.569999E-10 -7.291096E-09
       433  15 -4.728108E+05  2.024505E+03 -1.252729E+04  1.944870E+04  1.400044E-10 -1.736196E-09
       433  16 -8.620098E+05 -1.355376E+05 -1.411554E+05  3.725036E+04  1.164624E-09  9.080949E-10
       433  17 -8.230756E+05 -8.687176E+04 -1.007614E+05  1.860453E+04  2.168217E-09  8.518099E-09
       433  18 -7.965886E+05 -7.701882E+04 -8.350549E+04  1.307436E+04 -2.092567E-10  1.207477E-10
       433  19 -8.350684E+04  5.771478E+04  4.745188E+04  1.882044E+03  1.752748E+04  5.164245E+03
       433  20 -1.116181E+05  8.716889E+04  5.805498E+04  7.296867E+03  1.547851E+04  1.615189E+04
       433  21 -1.489344E+05  8.106131E+04  5.844544E+04  2.582652E+04  1.345930E+04  1.694231E+04
       433  22 -4.728270E+05 -3.890623E+04 -4.684469E+04  1.957191E+04  3.218809E+04  5.207820E+03
       433  23 -4.674055E+05  1.530280E+02 -2.134841E+04  1.295255E+04  2.084561E+04  1.616901E+04
       433  24 -4.728106E+05  2.024837E+03 -1.252658E+04  1.944883E+04  9.532588E+03  1.693043E+04
       433  25 -8.620074E+05 -1.355370E+05 -1.411512E+05  3.725056E+04  4.683952E+04  5.252244E+03
       433  26 -8.230748E+05 -8.687129E+04 -1.007596E+05  1.860487E+04  2.620965E+04  1.618623E+04
       433  27 -7.965885E+05 -7.701850E+04 -8.350490E+04  1.307443E+04  5.607896E+03  1.691863E+04
       434   1 -1.736310E+05  7.047117E+04  5.544863E+04  1.956308E+04 -8.726730E+03 -1.495600E+04
       434   2 -2.059672E+05  6.458982E+04  5.257393E+04  1.328169E+04 -6.441849E+03 -1.366443E+04
       434   3 -2.391822E+05  5.672575E+04  4.769662E+04  2.057744E+04 -4.159175E+03 -1.191299E+04
       434   4 -4.706145E+05 -2.024767E+03 -9.959410E+03  1.958761E+04 -7.762913E+03 -1.495343E+04
       434   5 -4.701347E+05  1.425498E+02 -5.392057E+03  1.279509E+04 -5.059915E+03 -1.366029E+04
       434   6 -4.706083E+05  2.538873E+02 -3.118683E+03  1.958012E+04 -2.359012E+03 -1.190720E+04
       434   7 -7.675155E+05 -7.452663E+04 -7.537285E+04  1.961206E+04 -6.799551E+03 -1.495085E+04
       434   8 -7.342368E+05 -6.430939E+04 -6.336229E+04  1.230865E+04 -3.678561E+03 -1.365615E+04
       434   9 -7.019842E+05 -5.622156E+04 -5.393724E+04  1.858313E+04 -5.595111E+02 -1.190141E+04
       434  10 -1.736312E+05  7.047091E+04  5.544807E+04  1.956298E+04  5.213420E-09 -2.757454E-09
       434  11 -2.059673E+05  6.458960E+04  5.257350E+04  1.328162E+04  6.849445E-09  4.963687E-09
       434  12 -2.391823E+05  5.672559E+04  4.769632E+04  2.057740E+04  7.990802E-09  1.051206E-08
       434  13 -4.706147E+05 -2.025023E+03 -9.959943E+03  1.958751E+04 -3.606938E-10  8.713911E-09
       434  14 -4.701348E+05  1.423426E+02 -5.392456E+03  1.279504E+04  1.075057E-09 -1.953084E-08
       434  15 -4.706083E+05  2.537336E+02 -3.118960E+03  1.958010E+04 -2.782081E-10  8.821560E-09
       434  16 -7.675156E+05 -7.452688E+04 -7.537336E+04  1.961197E+04 -4.569481E-09 -8.858264E-09
       434  17 -7.342369E+05 -6.430959E+04 -6.336266E+04  1.230861E+04 -5.733509E-09 -6.417066E-09
       434  18 -7.019842E+05 -5.622171E+04 -5.393750E+04  1.858312E+04 -1.102598E-08  3.137155E-09
       434  19 -1.736310E+05  7.047117E+04  5.544863E+04  1.956308E+04  8.726730E+03  1.495600E+04
       434  20 -2.059672E+05  6.458982E+04  5.257393E+04  1.328169E+04  6.441849E+03  1.366443E+04
       434  21 -2.391822E+05  5.672575E+04  4.769662E+04  2.057744E+04  4.159175E+03  1.191299E+04
       434  22 -4.706145E+05 -2.024767E+03 -9.959410E+03  1.958761E+04  7.762913E+03  1.495343E+04
       434  23 -4.701347E+05  1.425498E+02 -5.392057E+03  1.279509E+04  5.059915E+03  1.366029E+04
       434  24 -4.706083E+05  2.538873E+02 -3.118683E+03  1.958012E+04  2.359012E+03  1.190720E+04
       434  25 -7.675155E+05 -7.452663E+04 -7.537285E+04  1.961206E+04  6.799551E+03  1.495085E+04
       434  26 -7.342368E+05 -6.430939E+04 -6.336229E+04  1.230865E+04  3.678561E+03  1.365615E+04
       434  27 -7.019842E+05 -5.622156E+04 -5.393724E+04  1.858313E+04  5.595111E+02  1.190141E+04
       435   1 -2.658726E+05  4.991827E+04  4.236850E+04  2.016675E+04 -3.547084E+03 -1.078518E+04
       435   2 -2.986972E+05  4.197798E+04  3.624706E+04  1.325892E+04 -2.890310E+03 -8.940205E+03
       435   3 -3.317221E+05  3.401048E+04  2.966558E+04  2.001419E+04 -2.234048E+03 -7.072392E+03
       435   4 -4.704393E+05  3.269730E+01 -2.397953E+03  1.960141E+04 -1.877085E+03 -1.077970E+04
       435   5 -4.703352E+05  1.084767E+02 -1.378878E+03  1.276953E+04 -1.199726E+03 -8.934483E+03
       435   6 -4.704357E+05  1.536088E+02 -8.341038E+02  1.960098E+04 -5.228447E+02 -7.066425E+03
       435   7 -6.749667E+05 -4.985567E+04 -4.716694E+04  1.903622E+04 -2.076303E+02 -1.077422E+04
       435   8 -6.419456E+05 -4.176300E+04 -3.900660E+04  1.228026E+04  4.903953E+02 -8.928764E+03
       435   9 -6.091313E+05 -3.370455E+04 -3.133496E+04  1.918786E+04  1.187981E+03 -7.060460E+03
       435  10 -2.658727E+05  4.991814E+04  4.236826E+04  2.016672E+04 -8.405618E-09 -4.003278E-09
       435  11 -2.986972E+05  4.197790E+04  3.624689E+04  1.325890E+04 -7.945088E-09 -6.155400E-09
       435  12 -3.317222E+05  3.401042E+04  2.966548E+04  2.001418E+04 -2.498169E-09 -4.843447E-09
       435  13 -4.704393E+05  3.257160E+01 -2.398178E+03  1.960139E+04  5.011893E-11  1.917457E-09
       435  14 -4.703352E+05  1.083906E+02 -1.379031E+03  1.276952E+04  1.854561E-10 -4.222980E-09
       435  15 -4.704357E+05  1.535551E+02 -8.341982E+02  1.960098E+04  5.620789E-10 -2.640318E-09
       435  16 -6.749667E+05 -4.985579E+04 -4.716715E+04  1.903622E+04  8.670401E-09 -7.740225E-09
       435  17 -6.419457E+05 -4.176308E+04 -3.900675E+04  1.228026E+04  8.547779E-09  1.141922E-09
       435  18 -6.091313E+05 -3.370460E+04 -3.133505E+04  1.918786E+04 -5.430819E-10  6.433521E-09
       435  19 -2.658726E+05  4.991827E+04  4.236850E+04  2.016675E+04  3.547084E+03  1.078518E+04
       435  20 -2.986972E+05  4.197798E+04  3.624706E+04  1.325892E+04  2.890310E+03  8.940205E+03
       435  21 -3.317221E+05  3.401048E+04  2.966558E+04  2.001419E+04  2.234048E+03  7.072392E+03
       435  22 -4.704393E+05  3.269730E+01 -2.397953E+03  1.960141E+04  1.877085E+03  1.077970E+04
       435  23 -4.703352E+05  1.084767E+02 -1.378878E+03  1.276953E+04  1.199726E+03  8.934483E+03
       435  24 -4.704357E+05  1.536088E+02 -8.341038E+02  1.960098E+04  5.228447E+02  7.066425E+03
       435  25 -6.749667E+05 -4.985567E+04 -4.716694E+04  1.903622E+04  2.076303E+02  1.077422E+04
       435  26 -6.419456E+05 -4.176300E+04 -3.900660E+04  1.228026E+04 -4.903953E+02  8.928764E+03
       435  27 -6.091313E+05 -3.370455E+04 -3.133496E+04  1.918786E+04 -1.187981E+03  7.060460E+03
       436   1 -3.586556E+05  2.738921E+04  2.373784E+04  1.992916E+04 -2.097857E+03 -5.980045E+03
       436   2 -3.916066E+05  1.931374E+04  1.678107E+04  1.298001E+04 -1.868442E+03 -4.105980E+03
       436   3 -4.246851E+05  1.132693E+04  9.668684E+03  1.973160E+04 -1.639235E+03 -2.229930E+03
       436   4 -4.704173E+05  1.436554E+02 -6.695884E+02  1.960945E+04 -3.910962E+02 -5.974017E+03
       436   5 -4.703521E+05  1.036812E+02 -4.810453E+02  1.275901E+04 -1.599475E+02 -4.099869E+03
       436   6 -4.704158E+05  1.521222E+02 -4.493136E+02  1.960942E+04  7.100520E+01 -2.223732E+03
       436   7 -5.821674E+05 -2.710273E+04 -2.507776E+04  1.928979E+04  1.315361E+03 -5.967989E+03
       436   8 -5.490919E+05 -1.910679E+04 -1.774353E+04  1.253804E+04  1.548333E+03 -4.093759E+03
       436   9 -5.161444E+05 -1.102282E+04 -1.056743E+04  1.948725E+04  1.781120E+03 -2.217534E+03
       436  10 -3.586556E+05  2.738917E+04  2.373777E+04  1.992915E+04  2.216946E-09 -1.159479E-08
       436  11 -3.916066E+05  1.931372E+04  1.678103E+04  1.298000E+04 -6.030050E-09 -1.881822E-09
       436  12 -4.246851E+05  1.132692E+04  9.668670E+03  1.973160E+04 -1.053163E-08 -1.598744E-10
       436  13 -4.704173E+05  1.436170E+02 -6.696558E+02  1.960945E+04  7.296815E-12  2.479819E-09
       436  14 -4.703522E+05  1.036631E+02 -4.810769E+02  1.275901E+04  3.305126E-10 -1.489923E-08
       436  15 -4.704158E+05  1.521169E+02 -4.493229E+02  1.960942E+04  3.646724E-10 -4.530519E-09
       436  16 -5.821674E+05 -2.710277E+04 -2.507783E+04  1.928979E+04 -2.010462E-09 -1.385417E-09
       436  17 -5.490919E+05 -1.910681E+04 -1.774357E+04  1.253804E+04  6.488792E-09  6.677831E-09
       436  18 -5.161444E+05 -1.102283E+04 -1.056745E+04  1.948725E+04  7.448732E-09 -1.865413E-10
       436  19 -3.586556E+05  2.738921E+04  2.373784E+04  1.992916E+04  2.097857E+03  5.980045E+03
       436  20 -3.916066E+05  1.931374E+04  1.678107E+04  1.298001E+04  1.868442E+03  4.105980E+03
       436  21 -4.246851E+05  1.132693E+04  9.668684E+03  1.973160E+04  1.639235E+03  2.229930E+03
       436  22 -4.704173E+05  1.436554E+02 -6.695884E+02  1.960945E+04  3.910962E+02  5.974017E+03
       436  23 -4.703521E+05  1.036812E+02 -4.810453E+02  1.275901E+04  1.599475E+02  4.099869E+03
       436  24 -4.704158E+05  1.521222E+02 -4.493136E+02  1.960942E+04 -7.100520E+01  2.223732E+03
       436  25 -5.821674E+05 -2.710273E+04 -2.507776E+04  1.928979E+04 -1.315361E+03  5.967989E+03
       436  26 -5.490919E+05 -1.910679E+04 -1.774353E+04  1.253804E+04 -1.548333E+03  4.093759E+03
       436  27 -5.161444E+05 -1.102282E+04 -1.056743E+04  1.948725E+04 -1.781120E+03  2.217534E+03
       437   1 -4.516846E+05  4.704072E+03  3.528364E+03  1.965513E+04 -1.558809E+03 -1.137444E+03
       437   2 -4.846486E+05 -3.380861E+03 -3.812333E+03  1.269492E+04 -1.230183E+03  7.399747E+02
       437   3 -5.177572E+05 -1.138272E+04 -1.137541E+04  1.944537E+04 -9.015424E+02  2.616477E+03
       437   4 -4.704192E+05  1.522344E+02 -4.857607E+02  1.961159E+04  1.517568E+02 -1.131224E+03
       437   5 -4.703464E+05  1.085796E+02 -6.768016E+02  1.275628E+04  4.794993E+02  7.461747E+02
       437   6 -4.704195E+05  1.480933E+02 -1.089693E+03  1.961160E+04  8.072743E+02  2.622661E+03
       437   7 -4.891534E+05 -4.399625E+03 -4.499895E+03  1.956804E+04  1.862271E+03 -1.125005E+03
       437   8 -4.560440E+05  3.598008E+03  2.458729E+03  1.281765E+04  2.189221E+03  7.523749E+02
       437   9 -4.230798E+05  1.167876E+04  9.195897E+03  1.977785E+04  2.516220E+03  2.628846E+03
       437  10 -4.516846E+05  4.704070E+03  3.528357E+03  1.965513E+04 -3.987170E-09  2.549934E-10
       437  11 -4.846486E+05 -3.380862E+03 -3.812337E+03  1.269492E+04 -3.624536E-09 -7.317360E-09
       437  12 -5.177572E+05 -1.138273E+04 -1.137542E+04  1.944537E+04 -4.620072E-09 -5.114709E-09
       437  13 -4.704192E+05  1.522330E+02 -4.857631E+02  1.961159E+04 -3.297644E-10  6.951644E-09
       437  14 -4.703464E+05  1.085789E+02 -6.768031E+02  1.275628E+04 -2.261989E-11 -3.070306E-09
       437  15 -4.704195E+05  1.480858E+02 -1.089707E+03  1.961160E+04  3.562366E-10 -6.285225E-09
       437  16 -4.891534E+05 -4.399627E+03 -4.499904E+03  1.956805E+04  3.602109E-09 -2.333794E-09
       437  17 -4.560440E+05  3.598006E+03  2.458719E+03  1.281764E+04  5.077933E-09 -1.163932E-08
       437  18 -4.230798E+05  1.167875E+04  9.195873E+03  1.977785E+04  1.992680E-09 -7.591306E-09
       437  19 -4.516846E+05  4.704072E+03  3.528364E+03  1.965513E+04  1.558809E+03  1.137444E+03
       437  20 -4.846486E+05 -3.380861E+03 -3.812333E+03  1.269492E+04  1.230183E+03 -7.399747E+02
       437  21 -5.177572E+05 -1.138272E+04 -1.137541E+04  1.944537E+04  9.015424E+02 -2.616477E+03
       437  22 -4.704192E+05  1.522344E+02 -4.857607E+02  1.961159E+04 -1.517568E+02  1.131224E+03
       437  23 -4.703464E+05  1.085796E+02 -6.768016E+02  1.275628E+04 -4.794993E+02 -7.461747E+02
       437  24 -4.704195E+05  1.480933E+02 -1.089693E+03  1.961160E+04 -8.072743E+02 -2.622661E+03
       437  25 -4.891534E+05 -4.399625E+03 -4.499895E+03  1.956804E+04 -1.862271E+03  1.125005E+03
       437  26 -4.560440E+05  3.598008E+03  2.458729E+03  1.281765E+04 -2.189221E+03 -7.523749E+02
       437  27 -4.230798E+05  1.167876E+04  9.195897E+03  1.977785E+04 -2.516220E+03 -2.628846E+03
       438   1 -5.447790E+05 -1.798597E+04 -1.779592E+04  1.932729E+04 -6.844584E+02  3.710530E+03
       438   2 -5.776159E+05 -2.605336E+04 -2.593995E+04  1.240258E+04  5.207460E+02  5.585067E+03
       438   3 -6.107600E+05 -3.425174E+04 -3.492987E+04  1.916853E+04  1.726226E+03  7.440885E+03
       438   4 -4.704556E+05  1.661979E+02 -1.408691E+03  1.960690E+04  1.028591E+03  3.716691E+03
       438   5 -4.703044E+05  1.292818E+02 -2.410798E+03  1.276201E+04  2.216896E+03  5.591059E+03
       438   6 -4.704581E+05 -3.543669E+01 -4.246753E+03  1.960763E+04  3.405539E+03  7.446714E+03
       438   7 -3.961270E+05  1.831800E+04  1.497821E+04  1.988655E+04  2.741843E+03  3.722855E+03
       438   8 -3.629822E+05  2.631116E+04  2.111766E+04  1.312149E+04  3.913336E+03  5.597053E+03
       438   9 -3.301377E+05  3.417955E+04  2.643518E+04  2.004681E+04  5.085228E+03  7.452544E+03
       438  10 -5.447790E+05 -1.798599E+04 -1.779595E+04  1.932729E+04 -9.015858E-09 -1.812648E-09
       438  11 -5.776159E+05 -2.605340E+04 -2.594000E+04  1.240258E+04 -2.985962E-09 -8.512475E-09
       438  12 -6.107600E+05 -3.425180E+04 -3.492998E+04  1.916852E+04  3.762276E-09 -4.038802E-09
       438  13 -4.704556E+05  1.661828E+02 -1.408719E+03  1.960690E+04 -1.046496E-11 -3.947143E-09
       438  14 -4.703044E+05  1.292469E+02 -2.410866E+03  1.276200E+04  5.544204E-11  6.482554E-09
       438  15 -4.704581E+05 -3.549934E+01 -4.246879E+03  1.960761E+04  2.879392E-10  8.505871E-11
       438  16 -3.961270E+05  1.831798E+04  1.497817E+04  1.988654E+04  8.780525E-09  8.056492E-09
       438  17 -3.629822E+05  2.631112E+04  2.111757E+04  1.312147E+04  4.667536E-09 -4.986959E-09
       438  18 -3.301378E+05  3.417948E+04  2.643503E+04  2.004678E+04 -6.266319E-09  3.567243E-09
       438  19 -5.447790E+05 -1.798597E+04 -1.779592E+04  1.932729E+04  6.844584E+02 -3.710530E+03
       438  20 -5.776159E+05 -2.605336E+04 -2.593995E+04  1.240258E+04 -5.207460E+02 -5.585067E+03
       438  21 -6.107600E+05 -3.425174E+04 -3.492987E+04  1.916853E+04 -1.726226E+03 -7.440885E+03
       438  22 -4.704556E+05  1.661979E+02 -1.408691E+03  1.960690E+04 -1.028591E+03 -3.716691E+03
       438  23 -4.703044E+05  1.292818E+02 -2.410798E+03  1.276201E+04 -2.216896E+03 -5.591059E+03
       438  24 -4.704581E+05 -3.543669E+01 -4.246753E+03  1.960763E+04 -3.405539E+03 -7.446714E+03
       438  25 -3.961270E+05  1.831800E+04  1.497821E+04  1.988655E+04 -2.741843E+03 -3.722855E+03
       438  26 -3.629822E+05  2.631116E+04  2.111766E+04  1.312149E+04 -3.913336E+03 -5.597053E+03
       438  27 -3.301377E+05  3.417955E+04  2.643518E+04  2.004681E+04 -5.085228E+03 -7.452544E+03
       439   1 -6.379864E+05 -4.046473E+04 -4.229133E+04  1.842719E+04  2.473693E+03  8.566277E+03
       439   2 -6.700119E+05 -4.862036E+04 -5.351356E+04  1.256444E+04  7.634752E+03  1.035330E+04
       439   3 -7.037617E+05 -6.057202E+04 -6.907180E+04  2.033746E+04  1.279727E+04  1.175306E+04
       439   4 -4.707618E+05  3.597564E+02 -5.538156E+03  1.959130E+04  4.262952E+03  8.572399E+03
       439   5 -4.699330E+05  2.050453E+02 -9.592869E+03  1.278046E+04  9.072505E+03  1.035800E+04
       439   6 -4.707677E+05 -3.683743E+03 -1.773821E+04  1.960518E+04  1.388378E+04  1.175639E+04
       439   7 -3.035109E+05  4.118237E+04  3.121332E+04  2.075570E+04  6.052688E+03  8.578527E+03
       439   8 -2.698166E+05  4.902777E+04  3.432539E+04  1.299652E+04  1.051071E+04  1.036270E+04
       439   9 -2.377229E+05  5.320089E+04  3.359205E+04  1.887257E+04  1.497070E+04  1.175971E+04
       439  10 -6.379864E+05 -4.046481E+04 -4.229148E+04  1.842718E+04  6.651832E-09 -2.722855E-09
       439  11 -6.700120E+05 -4.862049E+04 -5.351387E+04  1.256437E+04 -3.555511E-10  3.500725E-09
       439  12 -7.037619E+05 -6.057221E+04 -6.907237E+04  2.033734E+04 -1.108208E-09 -2.254344E-09
       439  13 -4.707618E+05  3.596726E+02 -5.538328E+03  1.959127E+04  3.695138E-10 -1.225869E-08
       439  14 -4.699332E+05  2.049080E+02 -9.593226E+03  1.278038E+04 -5.850279E-10  9.652877E-09
       439  15 -4.707679E+05 -3.683944E+03 -1.773883E+04  1.960505E+04  2.325113E-10 -1.013199E-10
       439  16 -3.035110E+05  4.118228E+04  3.121312E+04  2.075566E+04 -6.451323E-09 -5.354732E-09
       439  17 -2.698168E+05  4.902763E+04  3.432498E+04  1.299643E+04  1.031989E-09 -1.177099E-08
       439  18 -2.377232E+05  5.320068E+04  3.359137E+04  1.887243E+04 -1.463060E-09  5.582851E-09
       439  19 -6.379864E+05 -4.046473E+04 -4.229133E+04  1.842719E+04 -2.473693E+03 -8.566277E+03
       439  20 -6.700119E+05 -4.862036E+04 -5.351356E+04  1.256444E+04 -7.634752E+03 -1.035330E+04
       439  21 -7.037617E+05 -6.057202E+04 -6.907180E+04  2.033746E+04 -1.279727E+04 -1.175306E+04
       439  22 -4.707618E+05  3.597564E+02 -5.538156E+03  1.959130E+04 -4.262952E+03 -8.572399E+03
       439  23 -4.699330E+05  2.050453E+02 -9.592869E+03  1.278046E+04 -9.072505E+03 -1.035800E+04
       439  24 -4.707677E+05 -3.683743E+03 -1.773821E+04  1.960518E+04 -1.388378E+04 -1.175639E+04
       439  25 -3.035109E+05  4.118237E+04  3.121332E+04  2.075570E+04 -6.052688E+03 -8.578527E+03
       439  26 -2.698166E+05  4.902777E+04  3.432539E+04  1.299652E+04 -1.051071E+04 -1.036270E+04
       439  27 -2.377229E+05  5.320089E+04  3.359205E+04  1.887257E+04 -1.497070E+04 -1.175971E+04
       440   1 -7.346022E+05 -5.996518E+04 -7.931402E+04  8.829500E+03  1.345928E+04  1.359058E+04
       440   2 -7.572022E+05 -7.119170E+04 -1.032739E+05  2.373312E+04  4.142954E+04  1.331223E+04
       440   3 -8.004591E+05 -1.501353E+05 -1.624020E+05  5.196406E+04  6.942434E+04  4.441245E+03
       440   4 -4.746846E+05  3.535925E+03 -2.231474E+04  1.946867E+04  1.704109E+04  1.360231E+04
       440   5 -4.650509E+05  2.419186E+02 -3.802640E+04  1.292107E+04  3.718910E+04  1.329732E+04
       440   6 -4.747072E+05 -6.939450E+04 -8.346099E+04  1.970233E+04  5.736361E+04  4.399563E+03
       440   7 -2.147034E+05  6.703292E+04  3.468053E+04  3.011231E+04  2.062439E+04  1.361417E+04
       440   8 -1.728195E+05  7.167021E+04  2.721583E+04  2.103817E+03  3.294668E+04  1.328256E+04
       440   9 -1.488555E+05  1.134259E+04 -4.526449E+03 -1.257646E+04  4.529657E+04  4.359147E+03
       440  10 -7.346024E+05 -5.996543E+04 -7.931471E+04  8.829353E+03  5.249109E-09 -3.827197E-09
       440  11 -7.572041E+05 -7.119236E+04 -1.032774E+05  2.373267E+04  6.406226E-09  1.208573E-09
       440  12 -8.004643E+05 -1.501366E+05 -1.624111E+05  5.196381E+04  5.863886E-09  9.003999E-09
       440  13 -4.746850E+05  3.535648E+03 -2.231563E+04  1.946849E+04  4.723429E-11  2.667582E-09
       440  14 -4.650524E+05  2.413571E+02 -3.802933E+04  1.292067E+04  8.337254E-11  5.500238E-09
       440  15 -4.747107E+05 -6.939540E+04 -8.346721E+04  1.970213E+04  1.457233E-11  7.004904E-09
       440  16 -2.147039E+05  6.703261E+04  3.467938E+04  3.011208E+04 -5.044416E-09  8.907896E-09
       440  17 -1.728208E+05  7.166973E+04  2.721346E+04  2.103465E+03 -5.704415E-09  1.422683E-08
       440  18 -1.488577E+05  1.134202E+04 -4.530341E+03 -1.257662E+04 -8.860459E-09  5.355328E-09
       440  19 -7.346022E+05 -5.996518E+04 -7.931402E+04  8.829500E+03 -1.345928E+04 -1.359058E+04
       440  20 -7.572022E+05 -7.119170E+04 -1.032739E+05  2.373312E+04 -4.142954E+04 -1.331223E+04
       440  21 -8.004591E+05 -1.501353E+05 -1.624020E+05  5.196406E+04 -6.942434E+04 -4.441245E+03
       440  22 -4.746846E+05  3.535925E+03 -2.231474E+04  1.946867E+04 -1.704109E+04 -1.360231E+04
       440  23 -4.650509E+05  2.419186E+02 -3.802640E+04  1.292107E+04 -3.718910E+04 -1.329732E+04
       440  24 -4.747072E+05 -6.939450E+04 -8.346099E+04  1.970233E+04 -5.736361E+04 -4.399563E+03
       440  25 -2.147034E+05  6.703292E+04  3.468053E+04  3.011231E+04 -2.062439E+04 -1.361417E+04
       440  26 -1.728195E+05  7.167021E+04  2.721583E+04  2.103817E+03 -3.294668E+04 -1.328256E+04
       440  27 -1.488555E+05  1.134259E+04 -4.526449E+03 -1.257646E+04 -4.529657E+04 -4.359147E+03
