
 stresses (elem, integ.pnt.,sxx,syy,szz,sxy,sxz,syz) for set ELALL and time  0.1000000E+01

         1   1  2.290206E+06  8.229548E+06  2.167223E+06 -1.726987E+06  1.006670E+05  8.682024E+05
         1   2  1.835873E+06  6.988371E+06  1.435152E+06 -1.599892E+06  3.401482E+05  4.034127E+05
         1   3  1.508800E+06  5.842786E+06  1.035688E+06 -1.650959E+06  3.997270E+05 -6.016395E+04
         1   4  1.173287E+05 -6.289074E+05  1.215796E+05 -1.626733E+06  1.032020E+05  8.076129E+04
         1   5  4.247150E+04 -6.360777E+05  6.477666E+04 -1.537867E+06  3.419053E+05  4.918686E+04
         1   6  2.098760E+04 -6.230214E+05  4.225825E+04 -1.627126E+06  3.997410E+05  1.780409E+04
         1   7 -2.060678E+06 -9.414076E+06 -1.926992E+06 -1.527770E+06  1.055146E+05 -6.956458E+05
         1   8 -1.754086E+06 -8.204001E+06 -1.307390E+06 -1.476506E+06  3.436085E+05 -3.008491E+05
         1   9 -1.468840E+06 -7.047244E+06 -9.520808E+05 -1.603453E+06  3.997608E+05  9.499634E+04
         1  10  2.289995E+06  8.228744E+06  2.165804E+06 -1.727057E+06  3.057879E-09  3.211460E-08
         1  11  1.835705E+06  6.988166E+06  1.434631E+06 -1.600002E+06  3.720686E-09 -4.394860E-08
         1  12  1.508627E+06  5.842739E+06  1.035381E+06 -1.650940E+06  4.304074E-09 -1.175479E-07
         1  13  1.173155E+05 -6.289173E+05  1.215472E+05 -1.626740E+06  1.033389E-09  3.407401E-11
         1  14  4.234531E+04 -6.361117E+05  6.455232E+04 -1.537881E+06 -7.960486E-10  8.630538E-11
         1  15  2.081595E+04 -6.230646E+05  4.195738E+04 -1.627132E+06 -2.868352E-10 -1.954450E-10
         1  16 -2.060822E+06 -9.414604E+06 -1.927935E+06 -1.527710E+06 -1.033801E-09 -3.176258E-08
         1  17 -1.754237E+06 -8.204130E+06 -1.307783E+06 -1.476423E+06 -9.897830E-10  4.334784E-08
         1  18 -1.469014E+06 -7.047296E+06 -9.523985E+05 -1.603483E+06  2.364422E-09  1.165262E-07
         1  19  2.290206E+06  8.229548E+06  2.167223E+06 -1.726987E+06 -1.006670E+05 -8.682024E+05
         1  20  1.835873E+06  6.988371E+06  1.435152E+06 -1.599892E+06 -3.401482E+05 -4.034127E+05
         1  21  1.508800E+06  5.842786E+06  1.035688E+06 -1.650959E+06 -3.997270E+05  6.016395E+04
         1  22  1.173287E+05 -6.289074E+05  1.215796E+05 -1.626733E+06 -1.032020E+05 -8.076129E+04
         1  23  4.247150E+04 -6.360777E+05  6.477666E+04 -1.537867E+06 -3.419053E+05 -4.918686E+04
         1  24  2.098760E+04 -6.230214E+05  4.225825E+04 -1.627126E+06 -3.997410E+05 -1.780409E+04
         1  25 -2.060678E+06 -9.414076E+06 -1.926992E+06 -1.527770E+06 -1.055146E+05  6.956458E+05
         1  26 -1.754086E+06 -8.204001E+06 -1.307390E+06 -1.476506E+06 -3.436085E+05  3.008491E+05
         1  27 -1.468840E+06 -7.047244E+06 -9.520808E+05 -1.603453E+06 -3.997608E+05 -9.499634E+04
         2   1  1.329802E+06  5.090382E+06  8.860520E+05 -1.656041E+06  3.726101E+05 -7.981902E+04
         2   2  1.046421E+06  3.889980E+06  6.638493E+05 -1.549143E+06  3.230137E+05 -1.542353E+05
         2   3  7.873553E+05  2.706559E+06  4.958839E+05 -1.633841E+06  2.497665E+05 -2.287395E+05
         2   4  1.997704E+04 -6.245815E+05  3.691787E+04 -1.630142E+06  3.724518E+05  1.144291E+04
         2   5  1.939545E+04 -6.256730E+05  3.542729E+04 -1.534291E+06  3.223784E+05 -6.366976E+03
         2   6  3.346177E+04 -6.209369E+05  4.906960E+04 -1.630113E+06  2.485648E+05 -2.439806E+04
         2   7 -1.291375E+06 -6.306862E+06 -8.128016E+05 -1.604409E+06  3.722999E+05  1.019035E+05
         2   8 -1.008521E+06 -5.120669E+06 -5.931649E+05 -1.519500E+06  3.217466E+05  1.404785E+05
         2   9 -7.208845E+05 -3.937085E+06 -3.976864E+05 -1.626375E+06  2.473609E+05  1.789026E+05
         2  10  1.329652E+06  5.090338E+06  8.857796E+05 -1.656017E+06  2.286867E-09  1.077120E-07
         2  11  1.046303E+06  3.889926E+06  6.636094E+05 -1.549103E+06  3.433672E-10  4.199941E-08
         2  12  7.872746E+05  2.706487E+06  4.956695E+05 -1.633795E+06 -3.888550E-09 -2.600390E-08
         2  13  1.982808E+04 -6.246189E+05  3.665697E+04 -1.630145E+06 -2.196340E-09 -2.456902E-11
         2  14  1.928388E+04 -6.257009E+05  3.523200E+04 -1.534290E+06 -5.109133E-09  1.336215E-10
         2  15  3.339532E+04 -6.209541E+05  4.895250E+04 -1.630108E+06  1.434465E-09  1.120193E-10
         2  16 -1.291526E+06 -6.306910E+06 -8.130821E+05 -1.604440E+06  1.352033E-09 -1.072413E-07
         2  17 -1.008638E+06 -5.120718E+06 -5.933972E+05 -1.519537E+06 -2.480271E-09 -4.113208E-08
         2  18 -7.209590E+05 -3.937136E+06 -3.978624E+05 -1.626411E+06 -1.684987E-09  2.621996E-08
         2  19  1.329802E+06  5.090382E+06  8.860520E+05 -1.656041E+06 -3.726101E+05  7.981902E+04
         2  20  1.046421E+06  3.889980E+06  6.638493E+05 -1.549143E+06 -3.230137E+05  1.542353E+05
         2  21  7.873553E+05  2.706559E+06  4.958839E+05 -1.633841E+06 -2.497665E+05  2.287395E+05
         2  22  1.997704E+04 -6.245815E+05  3.691787E+04 -1.630142E+06 -3.724518E+05 -1.144291E+04
         2  23  1.939545E+04 -6.256730E+05  3.542729E+04 -1.534291E+06 -3.223784E+05  6.366976E+03
         2  24  3.346177E+04 -6.209369E+05  4.906960E+04 -1.630113E+06 -2.485648E+05  2.439806E+04
         2  25 -1.291375E+06 -6.306862E+06 -8.128016E+05 -1.604409E+06 -3.722999E+05 -1.019035E+05
         2  26 -1.008521E+06 -5.120669E+06 -5.931649E+05 -1.519500E+06 -3.217466E+05 -1.404785E+05
         2  27 -7.208845E+05 -3.937085E+06 -3.976864E+05 -1.626375E+06 -2.473609E+05 -1.789026E+05
         3   1  6.266658E+05  1.973676E+06  4.031610E+05 -1.634871E+06  1.987847E+05 -2.388056E+05
         3   2  4.003397E+05  7.708364E+05  2.839222E+05 -1.470060E+06  1.129072E+05 -2.922206E+05
         3   3  2.553999E+05 -4.047672E+05  2.193557E+05 -1.498420E+06  2.736744E+04 -3.456141E+05
         3   4  4.093300E+04 -6.156822E+05  6.129626E+04 -1.630471E+06  1.974742E+05 -3.303887E+04
         3   5  8.606906E+04 -6.279963E+05  1.058752E+05 -1.533479E+06  1.115522E+05 -8.739725E+04
         3   6  2.128232E+05 -6.144856E+05  2.056494E+05 -1.629552E+06  2.598106E+04 -1.418205E+05
         3   7 -5.450607E+05 -3.198111E+06 -2.804582E+05 -1.626071E+06  1.961625E+05  1.719123E+05
         3   8 -2.282424E+05 -2.024721E+06 -7.201911E+04 -1.596743E+06  1.101531E+05  1.169878E+05
         3   9  1.703329E+05 -8.240294E+05  1.921108E+05 -1.760636E+06  2.450815E+04  6.190935E+04
         3  10  6.266083E+05  1.973604E+06  4.029805E+05 -1.634833E+06 -2.152373E-09  4.753605E-09
         3  11  4.003033E+05  7.707415E+05  2.837384E+05 -1.470034E+06 -1.342288E-10  1.247682E-09
         3  12  2.553670E+05 -4.048957E+05  2.191297E+05 -1.498413E+06  1.132910E-09 -2.590755E-09
         3  13  4.089087E+04 -6.156938E+05  6.122103E+04 -1.630466E+06 -2.290087E-09 -2.166008E-13
         3  14  8.605369E+04 -6.280078E+05  1.058376E+05 -1.533471E+06  2.880979E-09 -6.763973E-11
         3  15  2.128170E+05 -6.145074E+05  2.056104E+05 -1.629549E+06  1.099675E-10 -1.119666E-10
         3  16 -5.451101E+05 -3.198154E+06 -2.805867E+05 -1.626099E+06 -1.366594E-09 -4.684778E-09
         3  17 -2.282591E+05 -2.024739E+06 -7.206786E+04 -1.596754E+06 -1.081464E-09 -1.100047E-09
         3  18  1.703313E+05 -8.240337E+05  1.921024E+05 -1.760638E+06 -3.039161E-09  2.924766E-09
         3  19  6.266658E+05  1.973676E+06  4.031610E+05 -1.634871E+06 -1.987847E+05  2.388056E+05
         3  20  4.003397E+05  7.708364E+05  2.839222E+05 -1.470060E+06 -1.129072E+05  2.922206E+05
         3  21  2.553999E+05 -4.047672E+05  2.193557E+05 -1.498420E+06 -2.736744E+04  3.456141E+05
         3  22  4.093300E+04 -6.156822E+05  6.129626E+04 -1.630471E+06 -1.974742E+05  3.303887E+04
         3  23  8.606906E+04 -6.279963E+05  1.058752E+05 -1.533479E+06 -1.115522E+05  8.739725E+04
         3  24  2.128232E+05 -6.144856E+05  2.056494E+05 -1.629552E+06 -2.598106E+04  1.418205E+05
         3  25 -5.450607E+05 -3.198111E+06 -2.804582E+05 -1.626071E+06 -1.961625E+05 -1.719123E+05
         3  26 -2.282424E+05 -2.024721E+06 -7.201911E+04 -1.596743E+06 -1.101531E+05 -1.169878E+05
         3  27  1.703329E+05 -8.240294E+05  1.921108E+05 -1.760636E+06 -2.450815E+04 -6.190935E+04
         4   1 -7.915282E+06 -2.388688E+06 -1.624937E+06 -2.687753E+06 -9.270451E+05 -3.422361E+05
         4   2 -7.640103E+06 -1.037753E+06 -7.546666E+05 -2.939687E+06 -5.977233E+05 -2.094162E+05
         4   3 -7.931581E+06 -1.138486E+06 -5.268265E+05 -2.838397E+06 -2.645320E+05 -8.694560E+04
         4   4 -7.461237E+06 -2.031017E+06 -1.462057E+06 -2.374214E+06 -9.239217E+05 -3.414186E+05
         4   5 -7.103483E+06 -7.862445E+05 -5.981662E+05 -2.744495E+06 -5.971904E+05 -2.092772E+05
         4   6 -7.311409E+06 -9.919425E+05 -3.742504E+05 -2.761715E+06 -2.665410E+05 -8.764877E+04
         4   7 -7.006901E+06 -1.673035E+06 -1.299186E+06 -2.060398E+06 -9.207956E+05 -3.405975E+05
         4   8 -6.566574E+06 -5.346714E+05 -4.416944E+05 -2.549132E+06 -5.966567E+05 -2.091378E+05
         4   9 -6.690849E+06 -8.454116E+05 -2.216973E+05 -2.684989E+06 -2.685521E+05 -8.835206E+04
         4  10 -7.916248E+06 -2.389050E+06 -1.626799E+06 -2.688011E+06 -7.533374E-10  8.608976E-12
         4  11 -7.640503E+06 -1.037898E+06 -7.554313E+05 -2.939789E+06 -2.057000E-09  8.575613E-11
         4  12 -7.931659E+06 -1.138513E+06 -5.269743E+05 -2.838416E+06 -3.727160E-09 -6.752571E-10
         4  13 -7.462195E+06 -2.031377E+06 -1.463904E+06 -2.374471E+06 -2.501145E-11 -5.739208E-11
         4  14 -7.103881E+06 -7.863894E+05 -5.989289E+05 -2.744596E+06 -1.702082E-09 -7.058232E-10
         4  15 -7.311488E+06 -9.919702E+05 -3.744003E+05 -2.761734E+06 -3.457489E-09 -1.516330E-09
         4  16 -7.007852E+06 -1.673392E+06 -1.301020E+06 -2.060653E+06  6.850569E-10 -2.734562E-11
         4  17 -6.566972E+06 -5.348159E+05 -4.424550E+05 -2.549233E+06 -2.559513E-09 -1.491697E-09
         4  18 -6.690929E+06 -8.454397E+05 -2.218494E+05 -2.685008E+06 -7.988066E-10  5.041588E-11
         4  19 -7.915282E+06 -2.388688E+06 -1.624937E+06 -2.687753E+06  9.270451E+05  3.422361E+05
         4  20 -7.640103E+06 -1.037753E+06 -7.546666E+05 -2.939687E+06  5.977233E+05  2.094162E+05
         4  21 -7.931581E+06 -1.138486E+06 -5.268265E+05 -2.838397E+06  2.645320E+05  8.694560E+04
         4  22 -7.461237E+06 -2.031017E+06 -1.462057E+06 -2.374214E+06  9.239217E+05  3.414186E+05
         4  23 -7.103483E+06 -7.862445E+05 -5.981662E+05 -2.744495E+06  5.971904E+05  2.092772E+05
         4  24 -7.311409E+06 -9.919425E+05 -3.742504E+05 -2.761715E+06  2.665410E+05  8.764877E+04
         4  25 -7.006901E+06 -1.673035E+06 -1.299186E+06 -2.060398E+06  9.207956E+05  3.405975E+05
         4  26 -6.566574E+06 -5.346714E+05 -4.416944E+05 -2.549132E+06  5.966567E+05  2.091378E+05
         4  27 -6.690849E+06 -8.454116E+05 -2.216973E+05 -2.684989E+06  2.685521E+05  8.835206E+04
         5   1 -7.670624E+06 -1.350048E+06 -4.263050E+05 -2.815429E+06 -2.102892E+05 -6.911993E+04
         5   2 -7.604411E+06 -1.115948E+06 -2.440268E+05 -2.805049E+06 -1.353316E+05 -4.177452E+04
         5   3 -7.567219E+06 -1.137363E+06 -1.724122E+05 -2.808311E+06 -5.960064E+04 -1.648103E+04
         5   4 -7.255010E+06 -1.168782E+06 -3.075599E+05 -2.678199E+06 -2.102516E+05 -6.911680E+04
         5   5 -7.230190E+06 -9.688771E+05 -1.404196E+05 -2.698134E+06 -1.357942E+05 -4.194870E+04
         5   6 -7.234240E+06 -1.024308E+06 -8.348186E+04 -2.731721E+06 -6.056930E+04 -1.683968E+04
         5   7 -6.839227E+06 -9.874887E+05 -1.888317E+05 -2.540879E+06 -2.102139E+05 -6.911364E+04
         5   8 -6.855834E+06 -8.217956E+05 -3.682572E+04 -2.591159E+06 -1.362571E+05 -4.212300E+04
         5   9 -6.901154E+06 -9.112516E+05  5.438715E+03 -2.655096E+06 -6.153853E+04 -1.719850E+04
         5  10 -7.670673E+06 -1.350065E+06 -4.263983E+05 -2.815441E+06 -3.784507E-09 -1.837004E-09
         5  11 -7.604431E+06 -1.115955E+06 -2.440650E+05 -2.805053E+06 -2.129099E-09  2.103895E-10
         5  12 -7.567223E+06 -1.137364E+06 -1.724195E+05 -2.808312E+06 -2.459952E-10 -2.265234E-09
         5  13 -7.255060E+06 -1.168799E+06 -3.076532E+05 -2.678211E+06 -3.462889E-09 -5.610986E-10
         5  14 -7.230211E+06 -9.688840E+05 -1.404581E+05 -2.698138E+06  8.194333E-10  9.933457E-10
         5  15 -7.234244E+06 -1.024309E+06 -8.348938E+04 -2.731722E+06 -2.634380E-09 -7.606353E-10
         5  16 -6.839276E+06 -9.875059E+05 -1.889249E+05 -2.540891E+06 -2.017415E-09 -9.964420E-10
         5  17 -6.855855E+06 -8.218026E+05 -3.686443E+04 -2.591163E+06 -2.089525E-09 -1.437240E-09
         5  18 -6.901158E+06 -9.112530E+05  5.430945E+03 -2.655097E+06 -1.534372E-10 -2.826049E-09
         5  19 -7.670624E+06 -1.350048E+06 -4.263050E+05 -2.815429E+06  2.102892E+05  6.911993E+04
         5  20 -7.604411E+06 -1.115948E+06 -2.440268E+05 -2.805049E+06  1.353316E+05  4.177452E+04
         5  21 -7.567219E+06 -1.137363E+06 -1.724122E+05 -2.808311E+06  5.960064E+04  1.648103E+04
         5  22 -7.255010E+06 -1.168782E+06 -3.075599E+05 -2.678199E+06  2.102516E+05  6.911680E+04
         5  23 -7.230190E+06 -9.688771E+05 -1.404196E+05 -2.698134E+06  1.357942E+05  4.194870E+04
         5  24 -7.234240E+06 -1.024308E+06 -8.348186E+04 -2.731721E+06  6.056930E+04  1.683968E+04
         5  25 -6.839227E+06 -9.874887E+05 -1.888317E+05 -2.540879E+06  2.102139E+05  6.911364E+04
         5  26 -6.855834E+06 -8.217956E+05 -3.682572E+04 -2.591159E+06  1.362571E+05  4.212300E+04
         5  27 -6.901154E+06 -9.112516E+05  5.438715E+03 -2.655096E+06  6.153853E+04  1.719850E+04
         6   1 -7.327109E+06 -1.093292E+06 -9.517005E+04 -2.754083E+06 -4.699542E+04 -1.383901E+04
         6   2 -7.285611E+06 -1.004762E+06 -4.217771E+04 -2.698085E+06 -2.914057E+04 -1.003246E+04
         6   3 -7.184884E+06 -1.016155E+06 -9.499714E+03 -2.718876E+06 -1.120381E+04 -6.440803E+03
         6   4 -7.223269E+06 -1.051136E+06 -6.636171E+04 -2.722958E+06 -4.763329E+04 -1.407624E+04
         6   5 -7.251453E+06 -9.912442E+05 -3.270477E+04 -2.688225E+06 -2.983298E+04 -1.028965E+04
         6   6 -7.220397E+06 -1.031261E+06 -1.931372E+04 -2.730283E+06 -1.195288E+04 -6.718888E+03
         6   7 -7.119419E+06 -1.008978E+06 -3.755427E+04 -2.691827E+06 -4.827128E+04 -1.431352E+04
         6   8 -7.217293E+06 -9.777259E+05 -2.323191E+04 -2.678364E+06 -3.052543E+04 -1.054686E+04
         6   9 -7.255908E+06 -1.046367E+06 -2.912785E+04 -2.741688E+06 -1.270190E+04 -6.996950E+03
         6  10 -7.327112E+06 -1.093292E+06 -9.517462E+04 -2.754084E+06  1.746969E-09 -3.881056E-09
         6  11 -7.285612E+06 -1.004763E+06 -4.217952E+04 -2.698086E+06 -4.316804E-09 -7.555056E-10
         6  12 -7.184884E+06 -1.016155E+06 -9.500032E+03 -2.718876E+06 -1.084175E-09  1.101071E-09
         6  13 -7.223272E+06 -1.051136E+06 -6.636640E+04 -2.722958E+06 -8.560815E-10 -6.293674E-10
         6  14 -7.251454E+06 -9.912446E+05 -3.270667E+04 -2.688225E+06 -3.656736E-09  6.083666E-10
         6  15 -7.220397E+06 -1.031261E+06 -1.931407E+04 -2.730283E+06 -2.838298E-09  5.088189E-10
         6  16 -7.119421E+06 -1.008979E+06 -3.755910E+04 -2.691828E+06  4.035383E-09 -3.039459E-09
         6  17 -7.217294E+06 -9.777262E+05 -2.323390E+04 -2.678365E+06  2.708041E-10 -1.897636E-09
         6  18 -7.255909E+06 -1.046367E+06 -2.912825E+04 -2.741688E+06 -3.729447E-09  1.042994E-09
         6  19 -7.327109E+06 -1.093292E+06 -9.517005E+04 -2.754083E+06  4.699542E+04  1.383901E+04
         6  20 -7.285611E+06 -1.004762E+06 -4.217771E+04 -2.698085E+06  2.914057E+04  1.003246E+04
         6  21 -7.184884E+06 -1.016155E+06 -9.499714E+03 -2.718876E+06  1.120381E+04  6.440803E+03
         6  22 -7.223269E+06 -1.051136E+06 -6.636171E+04 -2.722958E+06  4.763329E+04  1.407624E+04
         6  23 -7.251453E+06 -9.912442E+05 -3.270477E+04 -2.688225E+06  2.983298E+04  1.028965E+04
         6  24 -7.220397E+06 -1.031261E+06 -1.931372E+04 -2.730283E+06  1.195288E+04  6.718888E+03
         6  25 -7.119419E+06 -1.008978E+06 -3.755427E+04 -2.691827E+06  4.827128E+04  1.431352E+04
         6  26 -7.217293E+06 -9.777259E+05 -2.323191E+04 -2.678364E+06  3.052543E+04  1.054686E+04
         6  27 -7.255908E+06 -1.046367E+06 -2.912785E+04 -2.741688E+06  1.270190E+04  6.996950E+03
         7   1 -6.958626E+06 -9.329766E+05  5.685691E+04 -2.655194E+06 -7.686833E+03 -7.088624E+03
         7   2 -6.928198E+06 -8.767602E+05  7.925039E+04 -2.604746E+06 -2.359658E+03 -8.048860E+03
         7   3 -6.839249E+06 -8.850866E+05  9.730037E+04 -2.623012E+06  2.694071E+03 -8.264125E+03
         7   4 -7.221744E+06 -1.031666E+06 -1.531535E+04 -2.725440E+06 -8.472367E+03 -7.380523E+03
         7   5 -7.250816E+06 -9.982673E+05 -9.006692E+03 -2.691486E+06 -2.948284E+03 -8.268051E+03
         7   6 -7.221411E+06 -1.029455E+06 -7.199939E+03 -2.726249E+06  2.301829E+03 -8.410584E+03
         7   7 -7.484794E+06 -1.130351E+06 -8.749375E+04 -2.795659E+06 -9.257528E+03 -7.672285E+03
         7   8 -7.573334E+06 -1.119769E+06 -9.727320E+04 -2.778184E+06 -3.536569E+03 -8.487116E+03
         7   9 -7.603432E+06 -1.173815E+06 -1.117137E+05 -2.829429E+06  1.909856E+03 -8.556943E+03
         7  10 -6.958626E+06 -9.329767E+05  5.685670E+04 -2.655194E+06  1.194608E-09  7.133854E-10
         7  11 -6.928198E+06 -8.767603E+05  7.925026E+04 -2.604746E+06  3.213163E-09  2.057203E-09
         7  12 -6.839249E+06 -8.850867E+05  9.730023E+04 -2.623012E+06 -1.134592E-09  1.390639E-09
         7  13 -7.221744E+06 -1.031666E+06 -1.531559E+04 -2.725440E+06 -7.871412E-09 -3.555561E-10
         7  14 -7.250816E+06 -9.982674E+05 -9.006837E+03 -2.691486E+06 -8.931826E-10 -2.193153E-09
         7  15 -7.221411E+06 -1.029455E+06 -7.200081E+03 -2.726249E+06 -3.784692E-09  2.355324E-09
         7  16 -7.484794E+06 -1.130351E+06 -8.749402E+04 -2.795659E+06 -6.807837E-09 -2.042838E-09
         7  17 -7.573334E+06 -1.119769E+06 -9.727336E+04 -2.778184E+06 -1.256931E-09  2.641622E-10
         7  18 -7.603432E+06 -1.173815E+06 -1.117138E+05 -2.829429E+06  4.076932E-09  1.208934E-09
         7  19 -6.958626E+06 -9.329766E+05  5.685691E+04 -2.655194E+06  7.686833E+03  7.088624E+03
         7  20 -6.928198E+06 -8.767602E+05  7.925039E+04 -2.604746E+06  2.359658E+03  8.048860E+03
         7  21 -6.839249E+06 -8.850866E+05  9.730037E+04 -2.623012E+06 -2.694071E+03  8.264125E+03
         7  22 -7.221744E+06 -1.031666E+06 -1.531535E+04 -2.725440E+06  8.472367E+03  7.380523E+03
         7  23 -7.250816E+06 -9.982673E+05 -9.006692E+03 -2.691486E+06  2.948284E+03  8.268051E+03
         7  24 -7.221411E+06 -1.029455E+06 -7.199939E+03 -2.726249E+06 -2.301829E+03  8.410584E+03
         7  25 -7.484794E+06 -1.130351E+06 -8.749375E+04 -2.795659E+06  9.257528E+03  7.672285E+03
         7  26 -7.573334E+06 -1.119769E+06 -9.727320E+04 -2.778184E+06  3.536569E+03  8.487116E+03
         7  27 -7.603432E+06 -1.173815E+06 -1.117137E+05 -2.829429E+06 -1.909856E+03  8.556943E+03
         8   1 -6.701168E+06 -8.225577E+05  1.375475E+05 -2.575077E+06  4.462779E+03 -8.849235E+03
         8   2 -6.689257E+06 -7.996599E+05  1.423544E+05 -2.553806E+06  9.130392E+03 -8.880327E+03
         8   3 -6.653226E+06 -8.053996E+05  1.433267E+05 -2.559854E+06  1.331549E+04 -7.613507E+03
         8   4 -7.229102E+06 -1.021472E+06 -7.083061E+03 -2.717074E+06  3.873931E+03 -9.069367E+03
         8   5 -7.241295E+06 -1.008274E+06 -8.784066E+03 -2.702984E+06  8.884538E+03 -8.972954E+03
         8   6 -7.229440E+06 -1.023787E+06 -1.459668E+04 -2.716213E+06  1.341225E+04 -7.578135E+03
         8   7 -7.756765E+06 -1.220371E+06 -1.517389E+05 -2.858961E+06  3.285640E+03 -9.289291E+03
         8   8 -7.793039E+06 -1.216872E+06 -1.599504E+05 -2.852040E+06  8.638925E+03 -9.065491E+03
         8   9 -7.805333E+06 -1.242156E+06 -1.725507E+05 -2.872440E+06  1.350890E+04 -7.542803E+03
         8  10 -6.701168E+06 -8.225578E+05  1.375473E+05 -2.575077E+06 -1.432655E-11  1.157132E-09
         8  11 -6.689257E+06 -7.996600E+05  1.423541E+05 -2.553806E+06  1.205529E-08 -1.130234E-09
         8  12 -6.653226E+06 -8.053998E+05  1.433262E+05 -2.559854E+06  5.629608E-09 -1.865533E-09
         8  13 -7.229102E+06 -1.021472E+06 -7.083243E+03 -2.717074E+06  1.854467E-09  1.642657E-09
         8  14 -7.241296E+06 -1.008275E+06 -8.784365E+03 -2.702983E+06  7.493317E-09 -1.301084E-09
         8  15 -7.229440E+06 -1.023787E+06 -1.459713E+04 -2.716213E+06  5.088709E-09 -1.966031E-09
         8  16 -7.756765E+06 -1.220371E+06 -1.517391E+05 -2.858961E+06  1.531273E-09  5.513433E-10
         8  17 -7.793039E+06 -1.216872E+06 -1.599507E+05 -2.852040E+06 -3.301866E-09 -1.355318E-10
         8  18 -7.805333E+06 -1.242156E+06 -1.725512E+05 -2.872440E+06 -3.978555E-09 -6.276593E-10
         8  19 -6.701168E+06 -8.225577E+05  1.375475E+05 -2.575077E+06 -4.462779E+03  8.849235E+03
         8  20 -6.689257E+06 -7.996599E+05  1.423544E+05 -2.553806E+06 -9.130392E+03  8.880327E+03
         8  21 -6.653226E+06 -8.053996E+05  1.433267E+05 -2.559854E+06 -1.331549E+04  7.613507E+03
         8  22 -7.229102E+06 -1.021472E+06 -7.083061E+03 -2.717074E+06 -3.873931E+03  9.069367E+03
         8  23 -7.241295E+06 -1.008274E+06 -8.784066E+03 -2.702984E+06 -8.884538E+03  8.972954E+03
         8  24 -7.229440E+06 -1.023787E+06 -1.459668E+04 -2.716213E+06 -1.341225E+04  7.578135E+03
         8  25 -7.756765E+06 -1.220371E+06 -1.517389E+05 -2.858961E+06 -3.285640E+03  9.289291E+03
         8  26 -7.793039E+06 -1.216872E+06 -1.599504E+05 -2.852040E+06 -8.638925E+03  9.065491E+03
         8  27 -7.805333E+06 -1.242156E+06 -1.725507E+05 -2.872440E+06 -1.350890E+04  7.542803E+03
         9   1 -6.655883E+06 -7.910562E+05  1.415707E+05 -2.549608E+06  1.626782E+04 -6.556283E+03
         9   2 -6.663936E+06 -8.035624E+05  1.230741E+05 -2.564701E+06  3.192733E+04 -5.540111E+02
         9   3 -6.703293E+06 -8.213340E+05  8.598025E+04 -2.549341E+06  4.709475E+04  6.750762E+03
         9   4 -7.240640E+06 -1.010765E+06 -1.833011E+04 -2.706310E+06  1.611657E+04 -6.613790E+03
         9   5 -7.226335E+06 -1.017429E+06 -3.116730E+04 -2.718053E+06  3.211023E+04 -4.861595E+02
         9   6 -7.243413E+06 -1.029439E+06 -6.288162E+04 -2.699339E+06  4.761218E+04  6.944606E+03
         9   7 -7.825065E+06 -1.230455E+06 -1.782621E+05 -2.862878E+06  1.596548E+04 -6.671242E+03
         9   8 -7.788426E+06 -1.231276E+06 -1.854376E+05 -2.871277E+06  3.229293E+04 -4.183824E+02
         9   9 -7.783249E+06 -1.237525E+06 -2.117703E+05 -2.849217E+06  4.812910E+04  7.138248E+03
         9  10 -6.655884E+06 -7.910563E+05  1.415701E+05 -2.549608E+06  5.899637E-09 -2.590334E-10
         9  11 -6.663937E+06 -8.035627E+05  1.230722E+05 -2.564701E+06 -2.950824E-10  2.921274E-10
         9  12 -6.703296E+06 -8.213347E+05  8.597595E+04 -2.549342E+06  6.710961E-10 -2.603670E-09
         9  13 -7.240640E+06 -1.010765E+06 -1.833069E+04 -2.706310E+06  2.361986E-09 -1.494696E-09
         9  14 -7.226336E+06 -1.017429E+06 -3.116926E+04 -2.718053E+06 -5.439308E-10 -3.978907E-09
         9  15 -7.243415E+06 -1.029440E+06 -6.288603E+04 -2.699339E+06  1.060065E-09 -4.907557E-10
         9  16 -7.825065E+06 -1.230455E+06 -1.782627E+05 -2.862878E+06 -5.558833E-09 -1.235579E-10
         9  17 -7.788427E+06 -1.231276E+06 -1.854396E+05 -2.871277E+06  2.004584E-10 -4.429431E-10
         9  18 -7.783251E+06 -1.237525E+06 -2.117748E+05 -2.849217E+06 -3.862013E-10  1.707002E-10
         9  19 -6.655883E+06 -7.910562E+05  1.415707E+05 -2.549608E+06 -1.626782E+04  6.556283E+03
         9  20 -6.663936E+06 -8.035624E+05  1.230741E+05 -2.564701E+06 -3.192733E+04  5.540111E+02
         9  21 -6.703293E+06 -8.213340E+05  8.598025E+04 -2.549341E+06 -4.709475E+04 -6.750762E+03
         9  22 -7.240640E+06 -1.010765E+06 -1.833011E+04 -2.706310E+06 -1.611657E+04  6.613790E+03
         9  23 -7.226335E+06 -1.017429E+06 -3.116730E+04 -2.718053E+06 -3.211023E+04  4.861595E+02
         9  24 -7.243413E+06 -1.029439E+06 -6.288162E+04 -2.699339E+06 -4.761218E+04 -6.944606E+03
         9  25 -7.825065E+06 -1.230455E+06 -1.782621E+05 -2.862878E+06 -1.596548E+04  6.671242E+03
         9  26 -7.788426E+06 -1.231276E+06 -1.854376E+05 -2.871277E+06 -3.229293E+04  4.183824E+02
         9  27 -7.783249E+06 -1.237525E+06 -2.117703E+05 -2.849217E+06 -4.812910E+04 -7.138248E+03
        10   1 -6.841534E+06 -8.528343E+05  3.273364E+04 -2.600958E+06  5.844148E+04  1.224726E+04
        10   2 -6.852419E+06 -8.643245E+05 -3.680458E+04 -2.633584E+06  1.279999E+05  4.050338E+04
        10   3 -7.001912E+06 -1.006725E+06 -2.107585E+05 -2.551721E+06  1.973353E+05  6.931643E+04
        10   4 -7.258839E+06 -9.994681E+05 -7.922199E+04 -2.702432E+06  5.881867E+04  1.239031E+04
        10   5 -7.199571E+06 -1.002092E+06 -1.331777E+05 -2.734101E+06  1.284881E+05  4.068582E+04
        10   6 -7.278973E+06 -1.135710E+06 -2.916763E+05 -2.651266E+06  1.979432E+05  6.953662E+04
        10   7 -7.675976E+06 -1.146098E+06 -1.911930E+05 -2.803846E+06  5.919556E+04  1.253326E+04
        10   8 -7.546606E+06 -1.139850E+06 -2.295621E+05 -2.834566E+06  1.289760E+05  4.086812E+04
        10   9 -7.555957E+06 -1.264678E+06 -3.726017E+05 -2.750766E+06  1.985508E+05  6.975663E+04
        10  10 -6.841538E+06 -8.528354E+05  3.272686E+04 -2.600958E+06  2.290878E-09  1.942047E-09
        10  11 -6.852438E+06 -8.643307E+05 -3.683889E+04 -2.633588E+06  7.325229E-10 -2.421161E-10
        10  12 -7.001956E+06 -1.006741E+06 -2.108418E+05 -2.551732E+06  2.045057E-09 -2.607437E-09
        10  13 -7.258843E+06 -9.994692E+05 -7.922887E+04 -2.702432E+06 -2.157248E-09 -1.466746E-09
        10  14 -7.199589E+06 -1.002099E+06 -1.332123E+05 -2.734106E+06 -4.549096E-09  2.126600E-09
        10  15 -7.279017E+06 -1.135726E+06 -2.917601E+05 -2.651277E+06 -3.618742E-09 -1.843107E-09
        10  16 -7.675980E+06 -1.146099E+06 -1.912000E+05 -2.803846E+06 -1.611073E-09 -2.103339E-11
        10  17 -7.546624E+06 -1.139856E+06 -2.295970E+05 -2.834571E+06 -2.007286E-09 -8.857355E-10
        10  18 -7.556001E+06 -1.264694E+06 -3.726861E+05 -2.750778E+06 -2.312676E-09 -1.282861E-09
        10  19 -6.841534E+06 -8.528343E+05  3.273364E+04 -2.600958E+06 -5.844148E+04 -1.224726E+04
        10  20 -6.852419E+06 -8.643245E+05 -3.680458E+04 -2.633584E+06 -1.279999E+05 -4.050338E+04
        10  21 -7.001912E+06 -1.006725E+06 -2.107585E+05 -2.551721E+06 -1.973353E+05 -6.931643E+04
        10  22 -7.258839E+06 -9.994681E+05 -7.922199E+04 -2.702432E+06 -5.881867E+04 -1.239031E+04
        10  23 -7.199571E+06 -1.002092E+06 -1.331777E+05 -2.734101E+06 -1.284881E+05 -4.068582E+04
        10  24 -7.278973E+06 -1.135710E+06 -2.916763E+05 -2.651266E+06 -1.979432E+05 -6.953662E+04
        10  25 -7.675976E+06 -1.146098E+06 -1.911930E+05 -2.803846E+06 -5.919556E+04 -1.253326E+04
        10  26 -7.546606E+06 -1.139850E+06 -2.295621E+05 -2.834566E+06 -1.289760E+05 -4.086812E+04
        10  27 -7.555957E+06 -1.264678E+06 -3.726017E+05 -2.750766E+06 -1.985508E+05 -6.975663E+04
        11   1 -7.193408E+06 -1.007348E+06 -3.353339E+05 -2.786609E+06  2.486054E+05  9.105195E+04
        11   2 -7.117486E+06 -7.883750E+05 -5.668146E+05 -2.732214E+06  5.607103E+05  2.123819E+05
        11   3 -7.669876E+06 -1.855427E+06 -1.406240E+06 -2.240838E+06  8.737474E+05  3.311874E+05
        11   4 -7.326954E+06 -9.739487E+05 -3.550270E+05 -2.737286E+06  2.496988E+05  9.150790E+04
        11   5 -7.085007E+06 -8.226207E+05 -5.672305E+05 -2.770811E+06  5.611272E+05  2.124862E+05
        11   6 -7.471264E+06 -1.957185E+06 -1.386787E+06 -2.367291E+06  8.735827E+05  3.308086E+05
        11   7 -7.460468E+06 -9.405262E+05 -3.747160E+05 -2.687974E+06  2.507919E+05  9.196412E+04
        11   8 -7.052521E+06 -8.568568E+05 -5.676451E+05 -2.809410E+06  5.615442E+05  2.125904E+05
        11   9 -7.272542E+06 -2.058822E+06 -1.367313E+06 -2.493779E+06  8.734179E+05  3.304300E+05
        11  10 -7.193477E+06 -1.007374E+06 -3.354674E+05 -2.786627E+06  1.697091E-09 -3.689100E-09
        11  11 -7.117840E+06 -7.885098E+05 -5.674993E+05 -2.732310E+06  2.805959E-09 -1.316585E-09
        11  12 -7.670735E+06 -1.855754E+06 -1.407904E+06 -2.241073E+06  6.196531E-10 -1.463936E-10
        11  13 -7.327024E+06 -9.739748E+05 -3.551618E+05 -2.737304E+06  4.655718E-10 -1.279018E-09
        11  14 -7.085361E+06 -8.227556E+05 -5.679162E+05 -2.770908E+06 -4.119410E-10 -2.195369E-09
        11  15 -7.472122E+06 -1.957512E+06 -1.388449E+06 -2.367525E+06  2.264998E-09  8.024385E-10
        11  16 -7.460538E+06 -9.405526E+05 -3.748519E+05 -2.687993E+06 -1.935399E-09 -2.160061E-09
        11  17 -7.052876E+06 -8.569919E+05 -5.683318E+05 -2.809507E+06 -5.417305E-10 -3.270672E-09
        11  18 -7.273400E+06 -2.059149E+06 -1.368974E+06 -2.494014E+06 -1.228188E-09 -1.094837E-09
        11  19 -7.193408E+06 -1.007348E+06 -3.353339E+05 -2.786609E+06 -2.486054E+05 -9.105195E+04
        11  20 -7.117486E+06 -7.883750E+05 -5.668146E+05 -2.732214E+06 -5.607103E+05 -2.123819E+05
        11  21 -7.669876E+06 -1.855427E+06 -1.406240E+06 -2.240838E+06 -8.737474E+05 -3.311874E+05
        11  22 -7.326954E+06 -9.739487E+05 -3.550270E+05 -2.737286E+06 -2.496988E+05 -9.150790E+04
        11  23 -7.085007E+06 -8.226207E+05 -5.672305E+05 -2.770811E+06 -5.611272E+05 -2.124862E+05
        11  24 -7.471264E+06 -1.957185E+06 -1.386787E+06 -2.367291E+06 -8.735827E+05 -3.308086E+05
        11  25 -7.460468E+06 -9.405262E+05 -3.747160E+05 -2.687974E+06 -2.507919E+05 -9.196412E+04
        11  26 -7.052521E+06 -8.568568E+05 -5.676451E+05 -2.809410E+06 -5.615442E+05 -2.125904E+05
        11  27 -7.272542E+06 -2.058822E+06 -1.367313E+06 -2.493779E+06 -8.734179E+05 -3.304300E+05
        12   1  1.359969E+05 -6.697191E+05  1.291989E+05 -1.628820E+02  2.098871E+04 -5.869309E+00
        12   2  1.357323E+05 -6.708505E+05  1.289235E+05  3.070935E+01  2.095911E+04  1.947847E+00
        12   3  1.354972E+05 -6.717537E+05  1.286984E+05 -3.977601E+02  2.089603E+04  9.707818E+00
        12   4 -5.168009E+01 -1.220169E+06 -2.839770E+01 -1.382444E+02  2.098998E+04  2.147915E+00
        12   5 -6.380677E+01 -1.220281E+06 -6.082483E+01  1.728099E+02  2.096037E+04  3.082788E+01
        12   6 -5.007749E+01 -1.220169E+06 -5.756112E+01 -1.382266E+02  2.089726E+04  5.945098E+01
        12   7 -1.361219E+05 -1.770340E+06 -1.292765E+05 -1.136234E+02  2.099125E+04  1.015807E+01
        12   8 -1.358814E+05 -1.769434E+06 -1.290659E+05  3.148077E+02  2.096162E+04  5.968249E+01
        12   9 -1.356188E+05 -1.768307E+06 -1.288341E+05  1.211182E+02  2.089848E+04  1.091504E+02
        12  10  1.359965E+05 -6.697193E+05  1.291981E+05 -1.628819E+02  6.430027E-09  9.424208E-09
        12  11  1.357318E+05 -6.708507E+05  1.289227E+05  3.070931E+01 -2.176667E-09  4.216497E-09
        12  12  1.354967E+05 -6.717538E+05  1.286975E+05 -3.977603E+02 -7.277852E-10 -9.347938E-10
        12  13 -5.215293E+01 -1.220169E+06 -2.922516E+01 -1.382445E+02  8.565549E-09  9.195052E-11
        12  14 -6.427828E+01 -1.220281E+06 -6.164996E+01  1.728094E+02 -1.116119E-09  2.064577E-11
        12  15 -5.054616E+01 -1.220169E+06 -5.838129E+01 -1.382276E+02  1.235407E-10  4.095257E-10
        12  16 -1.361224E+05 -1.770340E+06 -1.292773E+05 -1.136235E+02  4.161675E-09 -9.385539E-09
        12  17 -1.358819E+05 -1.769434E+06 -1.290667E+05  3.148067E+02  1.576068E-09 -4.136183E-09
        12  18 -1.356193E+05 -1.768307E+06 -1.288349E+05  1.211164E+02  5.986897E-09  6.266200E-10
        12  19  1.359969E+05 -6.697191E+05  1.291989E+05 -1.628820E+02 -2.098871E+04  5.869309E+00
        12  20  1.357323E+05 -6.708505E+05  1.289235E+05  3.070935E+01 -2.095911E+04 -1.947847E+00
        12  21  1.354972E+05 -6.717537E+05  1.286984E+05 -3.977601E+02 -2.089603E+04 -9.707818E+00
        12  22 -5.168009E+01 -1.220169E+06 -2.839770E+01 -1.382444E+02 -2.098998E+04 -2.147915E+00
        12  23 -6.380677E+01 -1.220281E+06 -6.082483E+01  1.728099E+02 -2.096037E+04 -3.082788E+01
        12  24 -5.007749E+01 -1.220169E+06 -5.756112E+01 -1.382266E+02 -2.089726E+04 -5.945098E+01
        12  25 -1.361219E+05 -1.770340E+06 -1.292765E+05 -1.136234E+02 -2.099125E+04 -1.015807E+01
        12  26 -1.358814E+05 -1.769434E+06 -1.290659E+05  3.148077E+02 -2.096162E+04 -5.968249E+01
        12  27 -1.356188E+05 -1.768307E+06 -1.288341E+05  1.211182E+02 -2.089848E+04 -1.091504E+02
        13   1  1.349495E+05 -6.739640E+05  1.281503E+05 -7.156630E+02  2.084208E+04  4.829831E+00
        13   2  1.341859E+05 -6.771166E+05  1.273583E+05  9.298504E+01  2.071992E+04  5.909154E+01
        13   3  1.334508E+05 -6.800565E+05  1.265840E+05 -9.389165E+02  2.056459E+04  1.131842E+02
        13   4 -5.001471E+01 -1.220172E+06 -7.533694E+01 -4.090213E+02  2.084328E+04  7.060363E+01
        13   5 -6.115704E+01 -1.220276E+06 -1.543604E+02  5.113128E+02  2.072106E+04  1.454944E+02
        13   6 -4.738830E+01 -1.220171E+06 -2.300379E+02 -4.090029E+02  2.056567E+04  2.202164E+02
        13   7 -1.350708E+05 -1.766104E+06 -1.283214E+05 -1.025987E+02  2.084448E+04  1.363198E+02
        13   8 -1.343292E+05 -1.763163E+06 -1.276872E+05  9.293415E+02  2.072221E+04  2.318221E+02
        13   9 -1.335664E+05 -1.760017E+06 -1.270641E+05  1.205330E+02  2.056675E+04  3.271559E+02
        13  10  1.349490E+05 -6.739642E+05  1.281494E+05 -7.156631E+02 -3.085070E-10  4.905376E-09
        13  11  1.341854E+05 -6.771167E+05  1.273575E+05  9.298405E+01  1.757717E-09 -7.795623E-10
        13  12  1.334504E+05 -6.800566E+05  1.265832E+05 -9.389184E+02 -2.720538E-09 -6.132647E-09
        13  13 -5.048096E+01 -1.220172E+06 -7.615289E+01 -4.090225E+02 -7.370568E-10  8.022246E-10
        13  14 -6.161784E+01 -1.220276E+06 -1.551668E+02  5.113104E+02  2.905652E-09  1.222920E-10
        13  15 -4.784222E+01 -1.220171E+06 -2.308323E+02 -4.090066E+02 -2.499866E-09  9.020424E-10
        13  16 -1.350713E+05 -1.766104E+06 -1.283222E+05 -1.026010E+02  4.030093E-09 -4.233107E-09
        13  17 -1.343297E+05 -1.763163E+06 -1.276880E+05  9.293376E+02 -3.955876E-10  1.011041E-09
        13  18 -1.335669E+05 -1.760017E+06 -1.270649E+05  1.205276E+02 -1.334443E-09  5.490520E-09
        13  19  1.349495E+05 -6.739640E+05  1.281503E+05 -7.156630E+02 -2.084208E+04 -4.829831E+00
        13  20  1.341859E+05 -6.771166E+05  1.273583E+05  9.298504E+01 -2.071992E+04 -5.909154E+01
        13  21  1.334508E+05 -6.800565E+05  1.265840E+05 -9.389165E+02 -2.056459E+04 -1.131842E+02
        13  22 -5.001471E+01 -1.220172E+06 -7.533694E+01 -4.090213E+02 -2.084328E+04 -7.060363E+01
        13  23 -6.115704E+01 -1.220276E+06 -1.543604E+02  5.113128E+02 -2.072106E+04 -1.454944E+02
        13  24 -4.738830E+01 -1.220171E+06 -2.300379E+02 -4.090029E+02 -2.056567E+04 -2.202164E+02
        13  25 -1.350708E+05 -1.766104E+06 -1.283214E+05 -1.025987E+02 -2.084448E+04 -1.363198E+02
        13  26 -1.343292E+05 -1.763163E+06 -1.276872E+05  9.293415E+02 -2.072221E+04 -2.318221E+02
        13  27 -1.335664E+05 -1.760017E+06 -1.270641E+05  1.205330E+02 -2.056675E+04 -3.271559E+02
        14   1  1.323669E+05 -6.844509E+05  1.254561E+05 -1.240950E+03  2.045749E+04  1.453392E+02
        14   2  1.311152E+05 -6.895709E+05  1.240313E+05  1.738043E+02  2.024370E+04  3.973461E+02
        14   3  1.298540E+05 -6.945314E+05  1.224820E+05 -1.449722E+03  1.999550E+04  6.490705E+02
        14   4 -4.343379E+01 -1.220182E+06 -3.047215E+02 -6.751635E+02  2.045852E+04  2.675445E+02
        14   5 -5.134260E+01 -1.220259E+06 -5.546651E+02  8.440391E+02  2.024464E+04  5.408094E+02
        14   6 -7.250526E+01 -1.220181E+06 -9.440489E+02 -6.752041E+02  1.999633E+04  8.137934E+02
        14   7 -1.324742E+05 -1.755648E+06 -1.260852E+05 -1.097739E+02  2.045954E+04  3.896449E+02
        14   8 -1.312379E+05 -1.750687E+06 -1.251600E+05  1.513807E+03  2.024557E+04  6.841505E+02
        14   9 -1.300187E+05 -1.745575E+06 -1.243891E+05  9.877794E+01  1.999716E+04  9.783774E+02
        14  10  1.323665E+05 -6.844510E+05  1.254553E+05 -1.240952E+03  2.000768E-09 -5.257940E-09
        14  11  1.311147E+05 -6.895710E+05  1.240306E+05  1.737978E+02  1.209716E-09 -5.345778E-10
        14  12  1.298536E+05 -6.945315E+05  1.224813E+05 -1.449733E+03 -1.117058E-09  5.973657E-09
        14  13 -4.388300E+01 -1.220182E+06 -3.055078E+02 -6.751679E+02  1.429642E-09  1.581527E-09
        14  14 -5.178253E+01 -1.220259E+06 -5.554354E+02  8.440303E+02  3.465131E-09  7.713488E-11
        14  15 -7.293456E+01 -1.220181E+06 -9.448011E+02 -6.752172E+02  1.241510E-09  1.459565E-09
        14  16 -1.324747E+05 -1.755648E+06 -1.260860E+05 -1.097803E+02 -1.333820E-09  6.517081E-09
        14  17 -1.312384E+05 -1.750687E+06 -1.251608E+05  1.513795E+03 -7.113622E-10  8.618347E-10
        14  18 -1.300191E+05 -1.745575E+06 -1.243898E+05  9.876217E+01  6.998082E-10 -7.021587E-09
        14  19  1.323669E+05 -6.844509E+05  1.254561E+05 -1.240950E+03 -2.045749E+04 -1.453392E+02
        14  20  1.311152E+05 -6.895709E+05  1.240313E+05  1.738043E+02 -2.024370E+04 -3.973461E+02
        14  21  1.298540E+05 -6.945314E+05  1.224820E+05 -1.449722E+03 -1.999550E+04 -6.490705E+02
        14  22 -4.343379E+01 -1.220182E+06 -3.047215E+02 -6.751635E+02 -2.045852E+04 -2.675445E+02
        14  23 -5.134260E+01 -1.220259E+06 -5.546651E+02  8.440391E+02 -2.024464E+04 -5.408094E+02
        14  24 -7.250526E+01 -1.220181E+06 -9.440489E+02 -6.752041E+02 -1.999633E+04 -8.137934E+02
        14  25 -1.324742E+05 -1.755648E+06 -1.260852E+05 -1.097739E+02 -2.045954E+04 -3.896449E+02
        14  26 -1.312379E+05 -1.750687E+06 -1.251600E+05  1.513807E+03 -2.024557E+04 -6.841505E+02
        14  27 -1.300187E+05 -1.745575E+06 -1.243891E+05  9.877794E+01 -1.999716E+04 -9.783774E+02
        15   1  9.354133E+04  1.007827E+06  5.255008E+04 -4.454678E+00  3.283614E+04  1.207229E-01
        15   2  9.354689E+04  1.007853E+06  5.255931E+04 -2.596332E+01  3.283748E+04 -7.069055E+00
        15   3  9.355374E+04  1.007889E+06  5.257650E+04 -4.404910E+01  3.284017E+04 -1.425845E+01
        15   4 -3.507892E+01  5.920864E+05  1.851047E+01  7.609756E-01  3.283846E+04 -1.460185E+00
        15   5 -3.683747E+01  5.920808E+05  2.209612E+01 -9.501121E-01  3.283980E+04 -1.189888E+01
        15   6 -3.674466E+01  5.920864E+05  3.589982E+01  7.624817E-01  3.284249E+04 -2.233725E+01
        15   7 -9.361852E+04  1.765227E+05 -5.251361E+04  5.973624E+00  3.284079E+04 -3.040087E+00
        15   8 -9.362760E+04  1.764862E+05 -5.251566E+04  2.404845E+01  3.284212E+04 -1.672564E+01
        15   9 -9.363426E+04  1.764614E+05 -5.250525E+04  4.554777E+01  3.284482E+04 -3.041090E+01
        15  10  9.354018E+04  1.007827E+06  5.254805E+04 -4.454681E+00 -1.148241E-08 -6.153069E-08
        15  11  9.354573E+04  1.007852E+06  5.255728E+04 -2.596314E+01 -1.957217E-09 -7.397688E-08
        15  12  9.355258E+04  1.007888E+06  5.257447E+04 -4.404872E+01 -4.167996E-09 -7.985564E-08
        15  13 -3.623722E+01  5.920861E+05  1.648345E+01  7.610144E-01 -2.772942E-08 -2.063222E-11
        15  14 -3.799586E+01  5.920805E+05  2.006894E+01 -9.497973E-01 -4.650699E-09 -1.469837E-10
        15  15 -3.790324E+01  5.920861E+05  3.387230E+01  7.630726E-01  1.336462E-08  1.795579E-10
        15  16 -9.361968E+04  1.765224E+05 -5.251563E+04  5.973704E+00 -1.205476E-08  6.148174E-08
        15  17 -9.362876E+04  1.764859E+05 -5.251769E+04  2.404889E+01 -4.517502E-09  7.387040E-08
        15  18 -9.363542E+04  1.764611E+05 -5.250728E+04  4.554857E+01 -4.905410E-10  7.983559E-08
        15  19  9.354133E+04  1.007827E+06  5.255008E+04 -4.454678E+00 -3.283614E+04 -1.207230E-01
        15  20  9.354689E+04  1.007853E+06  5.255931E+04 -2.596332E+01 -3.283748E+04  7.069054E+00
        15  21  9.355374E+04  1.007889E+06  5.257650E+04 -4.404910E+01 -3.284017E+04  1.425845E+01
        15  22 -3.507892E+01  5.920864E+05  1.851047E+01  7.609758E-01 -3.283846E+04  1.460185E+00
        15  23 -3.683747E+01  5.920808E+05  2.209612E+01 -9.501118E-01 -3.283980E+04  1.189888E+01
        15  24 -3.674466E+01  5.920864E+05  3.589982E+01  7.624820E-01 -3.284249E+04  2.233725E+01
        15  25 -9.361852E+04  1.765227E+05 -5.251361E+04  5.973624E+00 -3.284079E+04  3.040087E+00
        15  26 -9.362760E+04  1.764862E+05 -5.251566E+04  2.404845E+01 -3.284212E+04  1.672564E+01
        15  27 -9.363426E+04  1.764614E+05 -5.250525E+04  4.554777E+01 -3.284482E+04  3.041091E+01
        16   1  9.356158E+04  1.007927E+06  5.259248E+04 -5.279512E+01  3.284259E+04 -1.830830E+01
        16   2  9.357888E+04  1.008011E+06  5.264048E+04 -8.351769E+01  3.284672E+04 -5.864834E+01
        16   3  9.359920E+04  1.008111E+06  5.271844E+04 -9.969249E+01  3.284988E+04 -9.898743E+01
        16   4 -3.757636E+01  5.920872E+05  4.623419E+01  3.234831E+00  3.284491E+04 -2.936536E+01
        16   5 -4.184082E+01  5.920797E+05  7.783129E+01 -4.039029E+00  3.284904E+04 -6.735023E+01
        16   6 -4.350171E+01  5.920871E+05  1.377590E+02  3.235426E+00  3.285220E+04 -1.053342E+02
        16   7 -9.364377E+04  1.764245E+05 -5.250056E+04  5.923192E+01  3.284724E+04 -4.041538E+01
        16   8 -9.366960E+04  1.763256E+05 -5.248537E+04  7.539256E+01  3.285137E+04 -7.604658E+01
        16   9 -9.369324E+04  1.762413E+05 -5.244347E+04  1.061020E+02  3.285453E+04 -1.116768E+02
        16  10  9.356042E+04  1.007927E+06  5.259045E+04 -5.279463E+01 -1.845924E-09  6.788121E-08
        16  11  9.357772E+04  1.008011E+06  5.263845E+04 -8.351614E+01  5.437105E-09  3.467006E-08
        16  12  9.359804E+04  1.008110E+06  5.271641E+04 -9.968987E+01  3.633509E-09 -1.943173E-09
        16  13 -3.873511E+01  5.920869E+05  4.420638E+01  3.235608E+00  1.801596E-08  1.160196E-10
        16  14 -4.299987E+01  5.920794E+05  7.580296E+01 -4.037248E+00  1.809440E-08 -4.847742E-10
        16  15 -4.466098E+01  5.920869E+05  1.357303E+02  3.238212E+00  7.048325E-09  3.288337E-10
        16  16 -9.364493E+04  1.764242E+05 -5.250259E+04  5.923299E+01 -7.668823E-10 -6.817269E-08
        16  17 -9.367076E+04  1.763253E+05 -5.248740E+04  7.539457E+01  7.229378E-10 -3.484607E-08
        16  18 -9.369440E+04  1.762410E+05 -5.244550E+04  1.061050E+02  2.555032E-09  2.061406E-09
        16  19  9.356158E+04  1.007927E+06  5.259248E+04 -5.279512E+01 -3.284259E+04  1.830830E+01
        16  20  9.357888E+04  1.008011E+06  5.264048E+04 -8.351769E+01 -3.284672E+04  5.864834E+01
        16  21  9.359920E+04  1.008111E+06  5.271844E+04 -9.969249E+01 -3.284988E+04  9.898743E+01
        16  22 -3.757636E+01  5.920872E+05  4.623419E+01  3.234831E+00 -3.284491E+04  2.936536E+01
        16  23 -4.184082E+01  5.920797E+05  7.783129E+01 -4.039029E+00 -3.284904E+04  6.735023E+01
        16  24 -4.350171E+01  5.920871E+05  1.377590E+02  3.235426E+00 -3.285220E+04  1.053342E+02
        16  25 -9.364377E+04  1.764245E+05 -5.250056E+04  5.923192E+01 -3.284724E+04  4.041538E+01
        16  26 -9.366960E+04  1.763256E+05 -5.248537E+04  7.539256E+01 -3.285137E+04  7.604658E+01
        16  27 -9.369324E+04  1.762413E+05 -5.244347E+04  1.061020E+02 -3.285453E+04  1.116768E+02
        17   1  9.361541E+04  1.008192E+06  5.277784E+04 -1.130302E+02  3.285237E+04 -1.258523E+02
        17   2  9.364878E+04  1.008324E+06  5.295863E+04 -1.540231E+02  3.284651E+04 -3.263862E+02
        17   3  9.370704E+04  1.008497E+06  5.327903E+04 -1.706504E+02  3.282216E+04 -5.269240E+02
        17   4 -4.574321E+01  5.920914E+05  1.818206E+02  5.415735E+00  3.285469E+04 -1.337692E+02
        17   5 -5.144462E+01  5.920744E+05  3.161510E+02 -6.765621E+00  3.284882E+04 -2.897756E+02
        17   6 -3.997207E+01  5.920913E+05  5.592400E+02  5.418563E+00  3.282445E+04 -4.457866E+02
        17   7 -9.371394E+04  1.761686E+05 -5.241475E+04  1.237908E+02  3.285702E+04 -1.416811E+02
        17   8 -9.375872E+04  1.760028E+05 -5.232689E+04  1.404029E+02  3.285113E+04 -2.531883E+02
        17   9 -9.379405E+04  1.758631E+05 -5.216113E+04  1.813807E+02  3.282674E+04 -3.647007E+02
        17  10  9.361425E+04  1.008191E+06  5.277581E+04 -1.130269E+02  4.431338E-09  3.234060E-08
        17  11  9.364762E+04  1.008323E+06  5.295661E+04 -1.540144E+02  7.190784E-09 -4.816179E-09
        17  12  9.370589E+04  1.008497E+06  5.327700E+04 -1.706365E+02  9.194240E-09 -4.124355E-08
        17  13 -4.690266E+01  5.920911E+05  1.797916E+02  5.419274E+00 -9.972410E-10  3.137125E-10
        17  14 -5.260367E+01  5.920741E+05  3.141225E+02 -6.757956E+00 -5.445313E-09 -8.492310E-10
        17  15 -4.112943E+01  5.920910E+05  5.572143E+02  5.430346E+00 -6.361075E-09  5.081286E-10
        17  16 -9.371510E+04  1.761683E+05 -5.241678E+04  1.237945E+02  3.373480E-09 -3.277129E-08
        17  17 -9.375988E+04  1.760025E+05 -5.232892E+04  1.404096E+02  5.428902E-09  4.542648E-09
        17  18 -9.379521E+04  1.758628E+05 -5.216315E+04  1.813903E+02  8.432803E-09  4.133841E-08
        17  19  9.361541E+04  1.008192E+06  5.277784E+04 -1.130302E+02 -3.285237E+04  1.258523E+02
        17  20  9.364878E+04  1.008324E+06  5.295863E+04 -1.540231E+02 -3.284651E+04  3.263862E+02
        17  21  9.370704E+04  1.008497E+06  5.327903E+04 -1.706504E+02 -3.282216E+04  5.269240E+02
        17  22 -4.574321E+01  5.920914E+05  1.818206E+02  5.415735E+00 -3.285469E+04  1.337692E+02
        17  23 -5.144462E+01  5.920744E+05  3.161510E+02 -6.765621E+00 -3.284882E+04  2.897756E+02
        17  24 -3.997207E+01  5.920913E+05  5.592400E+02  5.418563E+00 -3.282445E+04  4.457866E+02
        17  25 -9.371394E+04  1.761686E+05 -5.241475E+04  1.237908E+02 -3.285702E+04  1.416811E+02
        17  26 -9.375872E+04  1.760028E+05 -5.232689E+04  1.404029E+02 -3.285113E+04  2.531883E+02
        17  27 -9.379405E+04  1.758631E+05 -5.216113E+04  1.813807E+02 -3.282674E+04  3.647007E+02
        18   1 -7.627813E+06 -2.543959E+06 -1.576157E+06 -2.708660E+06 -6.987838E+05 -2.365853E+05
        18   2 -7.444205E+06 -1.522741E+06 -9.338598E+05 -2.763244E+06 -4.550540E+05 -8.503902E+04
        18   3 -7.583623E+06 -1.437140E+06 -7.328627E+05 -2.638566E+06 -1.911331E+05  1.349699E+04
        18   4 -5.784786E+06 -1.577893E+06 -1.020656E+06 -1.936464E+06 -6.549106E+05 -2.203023E+05
        18   5 -5.571122E+06 -7.348203E+05 -4.297111E+05 -2.169101E+06 -4.412419E+05 -7.990107E+04
        18   6 -5.673446E+06 -8.198317E+05 -2.550543E+05 -2.222794E+06 -2.074120E+05  7.373248E+03
        18   7 -3.938253E+06 -6.105843E+05 -4.654817E+05 -1.161861E+06 -6.108904E+05 -2.039155E+05
        18   8 -3.694560E+06  5.356737E+04  7.412508E+04 -1.573227E+06 -4.273818E+05 -7.474029E+04
        18   9 -3.759670E+06 -2.025087E+05  2.224791E+05 -1.805954E+06 -2.237458E+05  1.235697E+03
        18  10 -7.628358E+06 -2.544153E+06 -1.577195E+06 -2.708795E+06  2.018718E-09 -3.507709E-10
        18  11 -7.444432E+06 -1.522805E+06 -9.342679E+05 -2.763275E+06 -1.978664E-10 -1.203982E-09
        18  12 -7.583662E+06 -1.437150E+06 -7.329324E+05 -2.638564E+06  3.034288E-12 -6.839594E-11
        18  13 -5.785263E+06 -1.578062E+06 -1.021563E+06 -1.936581E+06  1.335339E-09 -4.111559E-10
        18  14 -5.571334E+06 -7.348801E+05 -4.300927E+05 -2.169130E+06  1.375213E-09 -6.587735E-10
        18  15 -5.673492E+06 -8.198434E+05 -2.551359E+05 -2.222793E+06 -8.832616E-10  3.876927E-10
        18  16 -3.938667E+06 -6.107302E+05 -4.662665E+05 -1.161962E+06  3.698599E-09 -5.878125E-10
        18  17 -3.694759E+06  5.351186E+04  7.376891E+04 -1.573253E+06  2.125821E-09 -1.698140E-10
        18  18 -3.759724E+06 -2.025222E+05  2.223845E+05 -1.805954E+06  4.543397E-10  1.172007E-09
        18  19 -7.627813E+06 -2.543959E+06 -1.576157E+06 -2.708660E+06  6.987838E+05  2.365853E+05
        18  20 -7.444205E+06 -1.522741E+06 -9.338598E+05 -2.763244E+06  4.550540E+05  8.503902E+04
        18  21 -7.583623E+06 -1.437140E+06 -7.328627E+05 -2.638566E+06  1.911331E+05 -1.349699E+04
        18  22 -5.784786E+06 -1.577893E+06 -1.020656E+06 -1.936464E+06  6.549106E+05  2.203023E+05
        18  23 -5.571122E+06 -7.348203E+05 -4.297111E+05 -2.169101E+06  4.412419E+05  7.990107E+04
        18  24 -5.673446E+06 -8.198317E+05 -2.550543E+05 -2.222794E+06  2.074120E+05 -7.373248E+03
        18  25 -3.938253E+06 -6.105843E+05 -4.654817E+05 -1.161861E+06  6.108904E+05  2.039155E+05
        18  26 -3.694560E+06  5.356737E+04  7.412508E+04 -1.573227E+06  4.273818E+05  7.474029E+04
        18  27 -3.759670E+06 -2.025087E+05  2.224791E+05 -1.805954E+06  2.237458E+05 -1.235697E+03
        19   1 -7.315700E+06 -1.578851E+06 -6.493600E+05 -2.650624E+06 -1.678650E+05  1.054803E+04
        19   2 -7.198665E+06 -1.403825E+06 -5.068710E+05 -2.585262E+06 -1.126133E+05  2.813201E+04
        19   3 -7.053037E+06 -1.377951E+06 -4.274692E+05 -2.573517E+06 -5.587667E+04  4.175533E+04
        19   4 -5.636741E+06 -9.233391E+05 -2.061830E+05 -2.169958E+06 -1.686309E+05  1.023799E+04
        19   5 -5.646022E+06 -8.132976E+05 -1.010650E+05 -2.156489E+06 -1.155306E+05  2.702222E+04
        19   6 -5.626199E+06 -8.518274E+05 -5.717802E+04 -2.196652E+06 -6.095928E+04  3.984246E+04
        19   7 -3.955012E+06 -2.675969E+05  2.367485E+05 -1.688081E+06 -1.693986E+05  9.927261E+03
        19   8 -4.091010E+06 -2.226062E+05  3.045360E+05 -1.726728E+06 -1.184557E+05  2.590946E+04
        19   9 -4.197358E+06 -3.255964E+05  3.129440E+05 -1.819001E+06 -6.605476E+04  3.792500E+04
        19  10 -7.315731E+06 -1.578859E+06 -6.494137E+05 -2.650623E+06  4.521141E-10  2.730862E-10
        19  11 -7.198679E+06 -1.403829E+06 -5.068965E+05 -2.585259E+06  2.357072E-09  1.830500E-09
        19  12 -7.053041E+06 -1.377953E+06 -4.274783E+05 -2.573515E+06 -6.549642E-10  1.485106E-09
        19  13 -5.636771E+06 -9.233469E+05 -2.062370E+05 -2.169957E+06 -5.391981E-10  1.183553E-09
        19  14 -5.646037E+06 -8.133020E+05 -1.010916E+05 -2.156486E+06  3.600672E-09  1.379294E-09
        19  15 -5.626203E+06 -8.518301E+05 -5.718800E+04 -2.196650E+06  1.651805E-09  7.575661E-10
        19  16 -3.955043E+06 -2.676047E+05  2.366941E+05 -1.688080E+06 -8.971454E-11  1.217994E-09
        19  17 -4.091025E+06 -2.226107E+05  3.045083E+05 -1.726725E+06  1.958463E-09  4.964815E-10
        19  18 -4.197363E+06 -3.255991E+05  3.129331E+05 -1.818999E+06  2.504999E-09  1.144375E-09
        19  19 -7.315700E+06 -1.578851E+06 -6.493600E+05 -2.650624E+06  1.678650E+05 -1.054803E+04
        19  20 -7.198665E+06 -1.403825E+06 -5.068710E+05 -2.585262E+06  1.126133E+05 -2.813201E+04
        19  21 -7.053037E+06 -1.377951E+06 -4.274692E+05 -2.573517E+06  5.587667E+04 -4.175533E+04
        19  22 -5.636741E+06 -9.233391E+05 -2.061830E+05 -2.169958E+06  1.686309E+05 -1.023799E+04
        19  23 -5.646022E+06 -8.132976E+05 -1.010650E+05 -2.156489E+06  1.155306E+05 -2.702222E+04
        19  24 -5.626199E+06 -8.518274E+05 -5.717802E+04 -2.196652E+06  6.095928E+04 -3.984246E+04
        19  25 -3.955012E+06 -2.675969E+05  2.367485E+05 -1.688081E+06  1.693986E+05 -9.927261E+03
        19  26 -4.091010E+06 -2.226062E+05  3.045360E+05 -1.726728E+06  1.184557E+05 -2.590946E+04
        19  27 -4.197358E+06 -3.255964E+05  3.129440E+05 -1.819001E+06  6.605476E+04 -3.792500E+04
        20   1 -6.858614E+06 -1.330773E+06 -3.668137E+05 -2.532361E+06 -4.678292E+04  3.969051E+04
        20   2 -6.729086E+06 -1.219872E+06 -3.026193E+05 -2.442356E+06 -3.177147E+04  3.656670E+04
        20   3 -6.524462E+06 -1.195398E+06 -2.494142E+05 -2.440975E+06 -1.653455E+04  3.279490E+04
        20   4 -5.619541E+06 -8.640123E+05 -4.430902E+04 -2.194623E+06 -5.107628E+04  3.807669E+04
        20   5 -5.656549E+06 -8.173266E+05 -2.340130E+04 -2.151593E+06 -3.641532E+04  3.482733E+04
        20   6 -5.618415E+06 -8.569776E+05 -1.318298E+04 -2.197187E+06 -2.153271E+04  3.092924E+04
        20   7 -4.378959E+06 -3.971542E+05  2.780661E+05 -1.856266E+06 -5.537906E+04  3.645934E+04
        20   8 -4.582885E+06 -4.147113E+05  2.557191E+05 -1.860371E+06 -4.106800E+04  3.308467E+04
        20   9 -4.711567E+06 -5.185102E+05  2.229781E+05 -1.953075E+06 -2.653893E+04  2.906060E+04
        20  10 -6.858617E+06 -1.330775E+06 -3.668208E+05 -2.532359E+06 -1.453476E-10  1.218926E-09
        20  11 -6.729088E+06 -1.219874E+06 -3.026237E+05 -2.442355E+06  1.148589E-09 -1.377265E-09
        20  12 -6.524463E+06 -1.195399E+06 -2.494167E+05 -2.440975E+06  2.467075E-10  1.295773E-10
        20  13 -5.619544E+06 -8.640146E+05 -4.431665E+04 -2.194621E+06 -3.365739E-10  1.391975E-10
        20  14 -5.656551E+06 -8.173282E+05 -2.340607E+04 -2.151592E+06 -6.966805E-10 -6.209580E-10
        20  15 -5.618416E+06 -8.569788E+05 -1.318564E+04 -2.197186E+06 -7.168187E-10  1.028283E-10
        20  16 -4.378963E+06 -3.971564E+05  2.780578E+05 -1.856265E+06  1.215865E-09 -2.224479E-10
        20  17 -4.582887E+06 -4.147130E+05  2.557139E+05 -1.860369E+06 -4.922820E-09 -7.262077E-10
        20  18 -4.711568E+06 -5.185113E+05  2.229752E+05 -1.953074E+06  3.324284E-10  8.178987E-10
        20  19 -6.858614E+06 -1.330773E+06 -3.668137E+05 -2.532361E+06  4.678292E+04 -3.969051E+04
        20  20 -6.729086E+06 -1.219872E+06 -3.026193E+05 -2.442356E+06  3.177147E+04 -3.656670E+04
        20  21 -6.524462E+06 -1.195398E+06 -2.494142E+05 -2.440975E+06  1.653455E+04 -3.279490E+04
        20  22 -5.619541E+06 -8.640123E+05 -4.430902E+04 -2.194623E+06  5.107628E+04 -3.807669E+04
        20  23 -5.656549E+06 -8.173266E+05 -2.340130E+04 -2.151593E+06  3.641532E+04 -3.482733E+04
        20  24 -5.618415E+06 -8.569776E+05 -1.318298E+04 -2.197187E+06  2.153271E+04 -3.092924E+04
        20  25 -4.378959E+06 -3.971542E+05  2.780661E+05 -1.856266E+06  5.537906E+04 -3.645934E+04
        20  26 -4.582885E+06 -4.147113E+05  2.557191E+05 -1.860371E+06  4.106800E+04 -3.308467E+04
        20  27 -4.711567E+06 -5.185102E+05  2.229781E+05 -1.953075E+06  2.653893E+04 -2.906060E+04
        21   1 -6.314394E+06 -1.120961E+06 -1.912307E+05 -2.387523E+06 -1.267682E+04  2.846156E+04
        21   2 -6.171901E+06 -1.007358E+06 -1.395245E+05 -2.287308E+06 -6.158440E+03  2.082082E+04
        21   3 -5.943310E+06 -9.811802E+05 -9.041070E+04 -2.287170E+06  4.324611E+02  1.295916E+04
        21   4 -5.616236E+06 -8.596496E+05 -1.027167E+04 -2.198787E+06 -1.773915E+04  2.657504E+04
        21   5 -5.659190E+06 -8.155402E+05 -6.206084E+03 -2.148884E+06 -1.134520E+04  1.889083E+04
        21   6 -5.616066E+06 -8.588282E+05 -4.630831E+03 -2.199067E+06 -4.879913E+03  1.098557E+04
        21   7 -4.917596E+06 -5.983075E+05  1.706478E+05 -2.009854E+06 -2.280780E+04  2.468617E+04
        21   8 -5.146223E+06 -6.237072E+05  1.270900E+05 -2.010357E+06 -1.653668E+04  1.695909E+04
        21   9 -5.288719E+06 -7.364711E+05  8.113915E+04 -2.110924E+06 -1.019533E+04  9.010846E+03
        21  10 -6.314394E+06 -1.120961E+06 -1.912326E+05 -2.387523E+06 -7.867924E-10  1.074273E-09
        21  11 -6.171901E+06 -1.007358E+06 -1.395254E+05 -2.287308E+06  2.310906E-09  5.263651E-10
        21  12 -5.943310E+06 -9.811804E+05 -9.041102E+04 -2.287170E+06  4.286187E-09  7.459591E-10
        21  13 -5.616236E+06 -8.596505E+05 -1.027358E+04 -2.198786E+06  1.225594E-09  4.060052E-10
        21  14 -5.659190E+06 -8.155407E+05 -6.206995E+03 -2.148884E+06  2.091022E-09  1.260484E-09
        21  15 -5.616066E+06 -8.588283E+05 -4.631102E+03 -2.199067E+06 -6.793889E-10  7.730274E-10
        21  16 -4.917596E+06 -5.983083E+05  1.706456E+05 -2.009854E+06  6.435183E-10  8.817707E-10
        21  17 -5.146223E+06 -6.237076E+05  1.270890E+05 -2.010356E+06 -2.760513E-09  1.864871E-09
        21  18 -5.288719E+06 -7.364713E+05  8.113881E+04 -2.110924E+06 -1.479255E-11  1.502747E-09
        21  19 -6.314394E+06 -1.120961E+06 -1.912307E+05 -2.387523E+06  1.267682E+04 -2.846156E+04
        21  20 -6.171901E+06 -1.007358E+06 -1.395245E+05 -2.287308E+06  6.158440E+03 -2.082082E+04
        21  21 -5.943310E+06 -9.811802E+05 -9.041070E+04 -2.287170E+06 -4.324611E+02 -1.295916E+04
        21  22 -5.616236E+06 -8.596496E+05 -1.027167E+04 -2.198787E+06  1.773915E+04 -2.657504E+04
        21  23 -5.659190E+06 -8.155402E+05 -6.206084E+03 -2.148884E+06  1.134520E+04 -1.889083E+04
        21  24 -5.616066E+06 -8.588282E+05 -4.630831E+03 -2.199067E+06  4.879913E+03 -1.098557E+04
        21  25 -4.917596E+06 -5.983075E+05  1.706478E+05 -2.009854E+06  2.280780E+04 -2.468617E+04
        21  26 -5.146223E+06 -6.237072E+05  1.270900E+05 -2.010357E+06  1.653668E+04 -1.695909E+04
        21  27 -5.288719E+06 -7.364711E+05  8.113915E+04 -2.110924E+06  1.019533E+04 -9.010846E+03
        22   1 -5.722153E+06 -8.991592E+05 -3.151549E+04 -2.228535E+06  3.209742E+03  7.886287E+03
        22   2 -5.575774E+06 -7.834987E+05  1.636483E+04 -2.125543E+06  9.321361E+03 -3.163394E+02
        22   3 -5.341270E+06 -7.573289E+05  6.202399E+04 -2.125347E+06  1.541816E+04 -8.471120E+03
        22   4 -5.615603E+06 -8.593527E+05 -4.518682E+03 -2.199641E+06 -2.138795E+03  5.900149E+03
        22   5 -5.659684E+06 -8.148365E+05 -5.436695E+03 -2.148151E+06  3.999186E+03 -2.293298E+03
        22   6 -5.615679E+06 -8.598197E+05 -8.594444E+03 -2.199473E+06  1.012140E+04 -1.043909E+04
        22   7 -5.509040E+06 -8.195453E+05  2.247746E+04 -2.170743E+06 -7.488367E+03  3.913625E+03
        22   8 -5.743587E+06 -8.461741E+05 -2.723887E+04 -2.170757E+06 -1.322236E+03 -4.269977E+03
        22   9 -5.890018E+06 -9.623071E+05 -7.921983E+04 -2.273570E+06  4.827159E+03 -1.240613E+04
        22  10 -5.722153E+06 -8.991593E+05 -3.151563E+04 -2.228535E+06  9.850044E-09  3.594653E-09
        22  11 -5.575774E+06 -7.834987E+05  1.636467E+04 -2.125543E+06  6.018387E-09  4.128862E-09
        22  12 -5.341270E+06 -7.573290E+05  6.202341E+04 -2.125346E+06 -2.652732E-09 -1.577042E-09
        22  13 -5.615603E+06 -8.593528E+05 -4.518756E+03 -2.199641E+06  3.166901E-09  2.862409E-09
        22  14 -5.659684E+06 -8.148365E+05 -5.436735E+03 -2.148151E+06  5.303739E-10  2.825442E-09
        22  15 -5.615679E+06 -8.598198E+05 -8.594841E+03 -2.199473E+06  4.079966E-09  1.374231E-09
        22  16 -5.509040E+06 -8.195453E+05  2.247733E+04 -2.170743E+06 -3.068736E-09 -9.650746E-10
        22  17 -5.743587E+06 -8.461741E+05 -2.723891E+04 -2.170757E+06  1.303693E-09  3.115931E-09
        22  18 -5.890018E+06 -9.623072E+05 -7.922016E+04 -2.273570E+06  4.950101E-09  2.987073E-09
        22  19 -5.722153E+06 -8.991592E+05 -3.151549E+04 -2.228535E+06 -3.209742E+03 -7.886287E+03
        22  20 -5.575774E+06 -7.834987E+05  1.636483E+04 -2.125543E+06 -9.321361E+03  3.163394E+02
        22  21 -5.341270E+06 -7.573289E+05  6.202399E+04 -2.125347E+06 -1.541816E+04  8.471120E+03
        22  22 -5.615603E+06 -8.593527E+05 -4.518682E+03 -2.199641E+06  2.138795E+03 -5.900149E+03
        22  23 -5.659684E+06 -8.148365E+05 -5.436695E+03 -2.148151E+06 -3.999186E+03  2.293298E+03
        22  24 -5.615679E+06 -8.598197E+05 -8.594444E+03 -2.199473E+06 -1.012140E+04  1.043909E+04
        22  25 -5.509040E+06 -8.195453E+05  2.247746E+04 -2.170743E+06  7.488367E+03 -3.913625E+03
        22  26 -5.743587E+06 -8.461741E+05 -2.723887E+04 -2.170757E+06  1.322236E+03  4.269977E+03
        22  27 -5.890018E+06 -9.623071E+05 -7.921983E+04 -2.273570E+06 -4.827159E+03  1.240613E+04
        23   1 -5.123576E+06 -6.746285E+05  1.177991E+05 -2.066718E+06  1.898584E+04 -1.320804E+04
        23   2 -4.983618E+06 -5.628709E+05  1.561749E+05 -1.966970E+06  3.169408E+04 -1.860112E+04
        23   3 -4.761980E+06 -5.424689E+05  1.858666E+05 -1.964025E+06  4.424849E+04 -2.353554E+04
        23   4 -5.616895E+06 -8.582821E+05 -1.094121E+04 -2.198893E+06  1.369236E+04 -1.517630E+04
        23   5 -5.658140E+06 -8.154075E+05 -1.914217E+04 -2.149450E+06  2.665365E+04 -2.047919E+04
        23   6 -5.617787E+06 -8.639520E+05 -3.623451E+04 -2.196828E+06  3.945802E+04 -2.532420E+04
        23   7 -6.109972E+06 -1.041920E+06 -1.397007E+05 -2.330971E+06  8.403572E+03 -1.714284E+04
        23   8 -6.332213E+06 -1.067915E+06 -1.944964E+05 -2.331747E+06  2.161928E+04 -2.235500E+04
        23   9 -6.472874E+06 -1.185389E+06 -2.583967E+05 -2.429337E+06  3.467482E+04 -2.711014E+04
        23  10 -5.123577E+06 -6.746288E+05  1.177981E+05 -2.066718E+06  6.290050E-10 -1.682792E-09
        23  11 -4.983620E+06 -5.628716E+05  1.561724E+05 -1.966970E+06 -4.016624E-09 -5.982956E-10
        23  12 -4.761982E+06 -5.424700E+05  1.858619E+05 -1.964024E+06  2.906172E-11 -1.712427E-10
        23  13 -5.616896E+06 -8.582824E+05 -1.094199E+04 -2.198893E+06  2.154141E-09 -2.323111E-09
        23  14 -5.658141E+06 -8.154082E+05 -1.914429E+04 -2.149449E+06  9.768934E-10 -1.449927E-09
        23  15 -5.617788E+06 -8.639531E+05 -3.623864E+04 -2.196827E+06 -5.485271E-10 -1.054584E-09
        23  16 -6.109972E+06 -1.041920E+06 -1.397013E+05 -2.330971E+06  3.415555E-09  4.789174E-10
        23  17 -6.332213E+06 -1.067916E+06 -1.944982E+05 -2.331747E+06 -1.326023E-09 -1.134004E-09
        23  18 -6.472876E+06 -1.185390E+06 -2.584003E+05 -2.429337E+06 -1.052533E-09  8.498468E-10
        23  19 -5.123576E+06 -6.746285E+05  1.177991E+05 -2.066718E+06 -1.898584E+04  1.320804E+04
        23  20 -4.983618E+06 -5.628709E+05  1.561749E+05 -1.966970E+06 -3.169408E+04  1.860112E+04
        23  21 -4.761980E+06 -5.424689E+05  1.858666E+05 -1.964025E+06 -4.424849E+04  2.353554E+04
        23  22 -5.616895E+06 -8.582821E+05 -1.094121E+04 -2.198893E+06 -1.369236E+04  1.517630E+04
        23  23 -5.658140E+06 -8.154075E+05 -1.914217E+04 -2.149450E+06 -2.665365E+04  2.047919E+04
        23  24 -5.617787E+06 -8.639520E+05 -3.623451E+04 -2.196828E+06 -3.945802E+04  2.532420E+04
        23  25 -6.109972E+06 -1.041920E+06 -1.397007E+05 -2.330971E+06 -8.403572E+03  1.714284E+04
        23  26 -6.332213E+06 -1.067915E+06 -1.944964E+05 -2.331747E+06 -2.161928E+04  2.235500E+04
        23  27 -6.472874E+06 -1.185389E+06 -2.583967E+05 -2.429337E+06 -3.467482E+04  2.711014E+04
        24   1 -4.559050E+06 -4.641215E+05  2.287932E+05 -1.919490E+06  5.357862E+04 -2.605833E+04
        24   2 -4.435090E+06 -3.513926E+05  2.342231E+05 -1.818515E+06  9.706340E+04 -1.864426E+04
        24   3 -4.265273E+06 -3.817846E+05  1.911306E+05 -1.787319E+06  1.392836E+05 -7.762961E+03
        24   4 -5.622936E+06 -8.542900E+05 -4.673166E+04 -2.198798E+06  4.804235E+04 -2.812787E+04
        24   5 -5.649909E+06 -8.117425E+05 -8.249188E+04 -2.153033E+06  9.345276E+04 -2.000259E+04
        24   6 -5.631496E+06 -9.128094E+05 -1.683895E+05 -2.177065E+06  1.375864E+05 -8.412953E+03
        24   7 -6.685719E+06 -1.244404E+06 -3.223518E+05 -2.477677E+06  4.251648E+04 -3.019373E+04
        24   8 -6.863285E+06 -1.271995E+06 -3.993324E+05 -2.486952E+06  8.984977E+04 -2.135801E+04
        24   9 -6.995889E+06 -1.443684E+06 -5.280705E+05 -2.566016E+06  1.358931E+05 -9.061405E+03
        24  10 -4.559053E+06 -4.641230E+05  2.287865E+05 -1.919488E+06  2.780062E-09  1.381206E-09
        24  11 -4.435100E+06 -3.513955E+05  2.342047E+05 -1.818513E+06  1.970570E-09  1.215534E-09
        24  12 -4.265294E+06 -3.817899E+05  1.910939E+05 -1.787318E+06 -1.423070E-10 -8.091919E-10
        24  13 -5.622939E+06 -8.542915E+05 -4.673750E+04 -2.198797E+06  2.346846E-09  1.149570E-09
        24  14 -5.649919E+06 -8.117453E+05 -8.250916E+04 -2.153032E+06 -5.040698E-10  4.879481E-10
        24  15 -5.631517E+06 -9.128146E+05 -1.684255E+05 -2.177065E+06  3.387077E-10 -2.392086E-10
        24  16 -6.685721E+06 -1.244405E+06 -3.223570E+05 -2.477676E+06 -1.836628E-10  2.696747E-11
        24  17 -6.863293E+06 -1.271997E+06 -3.993486E+05 -2.486951E+06 -2.007894E-10 -1.035458E-11
        24  18 -6.995909E+06 -1.443689E+06 -5.281057E+05 -2.566015E+06 -6.469459E-10 -5.391060E-10
        24  19 -4.559050E+06 -4.641215E+05  2.287932E+05 -1.919490E+06 -5.357862E+04  2.605833E+04
        24  20 -4.435090E+06 -3.513926E+05  2.342231E+05 -1.818515E+06 -9.706340E+04  1.864426E+04
        24  21 -4.265273E+06 -3.817846E+05  1.911306E+05 -1.787319E+06 -1.392836E+05  7.762961E+03
        24  22 -5.622936E+06 -8.542900E+05 -4.673166E+04 -2.198798E+06 -4.804235E+04  2.812787E+04
        24  23 -5.649909E+06 -8.117425E+05 -8.249188E+04 -2.153033E+06 -9.345276E+04  2.000259E+04
        24  24 -5.631496E+06 -9.128094E+05 -1.683895E+05 -2.177065E+06 -1.375864E+05  8.412953E+03
        24  25 -6.685719E+06 -1.244404E+06 -3.223518E+05 -2.477677E+06 -4.251648E+04  3.019373E+04
        24  26 -6.863285E+06 -1.271995E+06 -3.993324E+05 -2.486952E+06 -8.984977E+04  2.135801E+04
        24  27 -6.995889E+06 -1.443684E+06 -5.280705E+05 -2.566016E+06 -1.358931E+05  9.061405E+03
        25   1 -4.050558E+06 -3.073858E+05  1.940475E+05 -1.868634E+06  1.856593E+05 -2.183203E+03
        25   2 -3.960392E+06 -7.035875E+04  8.510413E+04 -1.652891E+06  3.503111E+05  5.658260E+04
        25   3 -4.099574E+06 -6.072721E+05 -3.415419E+05 -1.317567E+06  4.970748E+05  1.629558E+05
        25   4 -5.661638E+06 -8.280678E+05 -2.082828E+05 -2.219933E+06  1.699884E+05 -8.046134E+03
        25   5 -5.588863E+06 -7.477971E+05 -3.509198E+05 -2.163426E+06  3.617868E+05  6.084184E+04
        25   6 -5.751680E+06 -1.448194E+06 -8.335866E+05 -1.987153E+06  5.356572E+05  1.772941E+05
        25   7 -7.270166E+06 -1.348738E+06 -6.108078E+05 -2.570471E+06  1.543620E+05 -1.389778E+04
        25   8 -7.214714E+06 -1.424900E+06 -7.871774E+05 -2.672678E+06  3.732282E+05  6.508505E+04
        25   9 -7.401003E+06 -2.288224E+06 -1.325893E+06 -2.654895E+06  5.741245E+05  1.915548E+05
        25  10 -4.050595E+06 -3.073951E+05  1.939823E+05 -1.868634E+06 -4.786607E-10 -1.152496E-09
        25  11 -3.960526E+06 -7.039546E+04  8.486580E+04 -1.652907E+06 -3.147771E-09  1.335159E-09
        25  12 -4.099848E+06 -6.073677E+05 -3.420599E+05 -1.317633E+06  9.619377E-11  4.747941E-10
        25  13 -5.661669E+06 -8.280757E+05 -2.083377E+05 -2.219932E+06 -4.873517E-10 -1.446821E-11
        25  14 -5.589006E+06 -7.478367E+05 -3.511753E+05 -2.163444E+06 -4.701074E-10  1.389937E-09
        25  15 -5.752000E+06 -1.448306E+06 -8.341911E+05 -1.987230E+06  9.844677E-10  8.071647E-10
        25  16 -7.270192E+06 -1.348745E+06 -6.108534E+05 -2.570470E+06 -3.428072E-10  9.622934E-11
        25  17 -7.214866E+06 -1.424943E+06 -7.874506E+05 -2.672697E+06 -1.948040E-09  1.539264E-09
        25  18 -7.401370E+06 -2.288354E+06 -1.326590E+06 -2.654984E+06  1.798722E-09  7.322803E-10
        25  19 -4.050558E+06 -3.073858E+05  1.940475E+05 -1.868634E+06 -1.856593E+05  2.183203E+03
        25  20 -3.960392E+06 -7.035875E+04  8.510413E+04 -1.652891E+06 -3.503111E+05 -5.658260E+04
        25  21 -4.099574E+06 -6.072721E+05 -3.415419E+05 -1.317567E+06 -4.970748E+05 -1.629558E+05
        25  22 -5.661638E+06 -8.280678E+05 -2.082828E+05 -2.219933E+06 -1.699884E+05  8.046134E+03
        25  23 -5.588863E+06 -7.477971E+05 -3.509198E+05 -2.163426E+06 -3.617868E+05 -6.084184E+04
        25  24 -5.751680E+06 -1.448194E+06 -8.335866E+05 -1.987153E+06 -5.356572E+05 -1.772941E+05
        25  25 -7.270166E+06 -1.348738E+06 -6.108078E+05 -2.570471E+06 -1.543620E+05  1.389778E+04
        25  26 -7.214714E+06 -1.424900E+06 -7.871774E+05 -2.672678E+06 -3.732282E+05 -6.508505E+04
        25  27 -7.401003E+06 -2.288224E+06 -1.325893E+06 -2.654895E+06 -5.741245E+05 -1.915548E+05
        26   1  3.148861E+05  6.439648E+04  3.471200E+05 -2.416420E+05 -6.155920E+02  2.186207E+05
        26   2  7.194178E+04 -1.414362E+04  1.746168E+05 -1.348629E+05 -1.306185E+03  1.274960E+05
        26   3  1.633622E+03 -3.771552E+04  1.046036E+05 -3.910761E+04 -3.744821E+03  3.637238E+04
        26   4  2.986802E+05  4.791551E+03  3.320174E+05 -5.250649E+04 -5.495843E+02  2.188258E+05
        26   5  6.906365E+04 -2.242822E+04  1.713679E+05 -4.738082E+04 -1.296734E+03  1.306783E+05
        26   6  1.153299E+04  4.789737E+03  1.111443E+05 -5.326296E+04 -3.762116E+03  4.252482E+04
        26   7  2.826085E+05 -5.473344E+04  3.169338E+05  1.366107E+05 -4.834461E+02  2.190309E+05
        26   8  6.621427E+04 -3.069632E+04  1.681230E+05  4.010008E+04 -1.286386E+03  1.338607E+05
        26   9  2.143303E+04  4.729731E+04  1.176852E+05 -6.741932E+04 -3.779690E+03  4.867767E+04
        26  10  3.148733E+05  6.434518E+04  3.470301E+05 -2.416419E+05  1.892944E-09  1.556776E-08
        26  11  7.193742E+04 -1.416107E+04  1.745863E+05 -1.348627E+05  8.091283E-09 -9.185587E-09
        26  12  1.633252E+03 -3.771695E+04  1.046011E+05 -3.910750E+04  5.054888E-09 -2.775422E-08
        26  13  2.986674E+05  4.740144E+03  3.319275E+05 -5.250640E+04  7.505463E-10  1.274204E-09
        26  14  6.905906E+04 -2.244656E+04  1.713358E+05 -4.738068E+04  2.543769E-09 -4.247014E-10
        26  15  1.153248E+04  4.787792E+03  1.111409E+05 -5.326283E+04 -5.409065E-09 -8.864992E-10
        26  16  2.825956E+05 -5.478495E+04  3.168437E+05  1.366108E+05 -1.781166E-10 -1.513656E-08
        26  17  6.620946E+04 -3.071556E+04  1.680893E+05  4.010022E+04  3.469212E-09  7.783656E-09
        26  18  2.143238E+04  4.729477E+04  1.176808E+05 -6.741917E+04  1.606265E-09  2.909300E-08
        26  19  3.148861E+05  6.439648E+04  3.471200E+05 -2.416420E+05  6.155920E+02 -2.186207E+05
        26  20  7.194178E+04 -1.414362E+04  1.746168E+05 -1.348629E+05  1.306185E+03 -1.274960E+05
        26  21  1.633622E+03 -3.771552E+04  1.046036E+05 -3.910761E+04  3.744821E+03 -3.637238E+04
        26  22  2.986802E+05  4.791551E+03  3.320174E+05 -5.250649E+04  5.495843E+02 -2.188258E+05
        26  23  6.906365E+04 -2.242822E+04  1.713679E+05 -4.738082E+04  1.296734E+03 -1.306783E+05
        26  24  1.153299E+04  4.789737E+03  1.111443E+05 -5.326296E+04  3.762116E+03 -4.252482E+04
        26  25  2.826085E+05 -5.473344E+04  3.169338E+05  1.366107E+05  4.834461E+02 -2.190309E+05
        26  26  6.621427E+04 -3.069632E+04  1.681230E+05  4.010008E+04  1.286386E+03 -1.338607E+05
        26  27  2.143303E+04  4.729731E+04  1.176852E+05 -6.741932E+04  3.779690E+03 -4.867767E+04
        27   1 -3.365386E+03 -8.079747E+04  8.587229E+04 -6.255814E+04 -5.852014E+03  2.028930E+04
        27   2 -2.362357E+04 -1.382766E+05  7.195882E+04 -4.629140E+04 -8.954786E+03 -2.555302E+04
        27   3 -1.968743E+04 -1.838008E+05  9.393386E+04 -4.137662E+04 -1.151700E+04 -7.139073E+04
        27   4  1.431330E+04 -4.618747E+03  9.838300E+04 -5.324597E+04 -5.867804E+03  2.633319E+04
        27   5  6.256777E+03 -1.067660E+04  9.371070E+04 -4.755934E+04 -8.968078E+03 -2.045337E+04
        27   6  2.255511E+04 -4.621199E+03  1.255782E+05 -5.322356E+04 -1.152630E+04 -6.723893E+04
        27   7  3.199203E+04  7.156599E+04  1.108937E+05 -4.393262E+04 -5.883412E+03  3.237780E+04
        27   8  3.613627E+04  1.169395E+05  1.154621E+05 -4.882754E+04 -8.981389E+03 -1.535271E+04
        27   9  6.479643E+04  1.745901E+05  1.572216E+05 -6.507399E+04 -1.153576E+04 -6.308596E+04
        27  10 -3.365533E+03 -8.079792E+04  8.587146E+04 -6.255805E+04  1.751690E-09  1.850083E-08
        27  11 -2.362383E+04 -1.382774E+05  7.195744E+04 -4.629158E+04 -1.131956E-11 -4.589014E-11
        27  12 -1.968894E+04 -1.838063E+05  9.392404E+04 -4.137728E+04  6.279018E-12 -1.688977E-08
        27  13  1.431307E+04 -4.619501E+03  9.838163E+04 -5.324585E+04 -1.793078E-10  1.213782E-09
        27  14  6.256578E+03 -1.067707E+04  9.370976E+04 -4.755949E+04 -1.258048E-09  6.705247E-10
        27  15  2.255376E+04 -4.626089E+03  1.255695E+05 -5.322418E+04  3.475374E-09 -2.266395E-10
        27  16  3.199171E+04  7.156486E+04  1.108917E+05 -4.393246E+04 -2.614422E-09 -1.884641E-08
        27  17  3.613612E+04  1.169392E+05  1.154616E+05 -4.882765E+04  1.722019E-09  1.282760E-10
        27  18  6.479521E+04  1.745858E+05  1.572139E+05 -6.507458E+04  1.132613E-09  1.618319E-08
        27  19 -3.365386E+03 -8.079747E+04  8.587229E+04 -6.255814E+04  5.852014E+03 -2.028930E+04
        27  20 -2.362357E+04 -1.382766E+05  7.195882E+04 -4.629140E+04  8.954786E+03  2.555302E+04
        27  21 -1.968743E+04 -1.838008E+05  9.393386E+04 -4.137662E+04  1.151700E+04  7.139073E+04
        27  22  1.431330E+04 -4.618747E+03  9.838300E+04 -5.324597E+04  5.867804E+03 -2.633319E+04
        27  23  6.256777E+03 -1.067660E+04  9.371070E+04 -4.755934E+04  8.968078E+03  2.045337E+04
        27  24  2.255511E+04 -4.621199E+03  1.255782E+05 -5.322356E+04  1.152630E+04  6.723893E+04
        27  25  3.199203E+04  7.156599E+04  1.108937E+05 -4.393262E+04  5.883412E+03 -3.237780E+04
        27  26  3.613627E+04  1.169395E+05  1.154621E+05 -4.882754E+04  8.981389E+03  1.535271E+04
        27  27  6.479643E+04  1.745901E+05  1.572216E+05 -6.507399E+04  1.153576E+04  6.308596E+04
        28   1 -3.238905E+04 -2.015234E+05  1.157967E+05 -7.639142E+04 -1.328542E+04 -9.322463E+04
        28   2  4.554021E+04 -2.938065E+05  2.091132E+05  9.012585E+04 -1.205719E+04 -2.143383E+05
        28   3  3.927341E+05 -3.029788E+05  4.486695E+05  2.462013E+05 -3.260955E+03 -3.354191E+05
        28   4  1.771228E+04  1.164740E+04  1.538360E+05 -5.317157E+04 -1.330134E+04 -8.832690E+04
        28   5  1.092670E+05 -3.100800E+04  2.608658E+05 -4.736808E+04 -1.198815E+04 -2.226670E+05
        28   6  4.722200E+05  1.164349E+04  5.232723E+05 -5.201272E+04 -3.045700E+03 -3.569870E+05
        28   7  6.781316E+04  2.248638E+05  1.918741E+05 -2.994348E+04 -1.331689E+04 -8.342754E+04
        28   8  1.730604E+05  2.318972E+05  3.126255E+05 -1.849215E+05 -1.191544E+04 -2.309990E+05
        28   9  5.520329E+05  3.265483E+05  5.979176E+05 -3.503791E+05 -2.809803E+03 -3.785658E+05
        28  10 -3.239157E+04 -2.015328E+05  1.157800E+05 -7.639241E+04 -5.399650E-10 -2.926294E-08
        28  11  4.552771E+04 -2.938559E+05  2.090265E+05  9.012377E+04  3.051587E-09 -2.479462E-09
        28  12  3.927039E+05 -3.030997E+05  4.484579E+05  2.462004E+05  1.187272E-09  2.445139E-08
        28  13  1.770999E+04  1.163897E+04  1.538210E+05 -5.317251E+04 -4.881774E-09  2.332436E-09
        28  14  1.092535E+05 -3.106127E+04  2.607724E+05 -4.737023E+04  1.484439E-09  1.441376E-10
        28  15  4.721858E+05  1.150670E+04  5.230328E+05 -5.201360E+04  1.359640E-09 -1.483068E-09
        28  16  6.781110E+04  2.248563E+05  1.918606E+05 -2.994438E+04  3.852958E-10  2.973541E-08
        28  17  1.730459E+05  2.318399E+05  3.125250E+05 -1.849237E+05  4.921861E-09  2.492399E-09
        28  18  5.519944E+05  3.263946E+05  5.976484E+05 -3.503800E+05 -8.336238E-10 -2.407613E-08
        28  19 -3.238905E+04 -2.015234E+05  1.157967E+05 -7.639142E+04  1.328542E+04  9.322463E+04
        28  20  4.554021E+04 -2.938065E+05  2.091132E+05  9.012585E+04  1.205719E+04  2.143383E+05
        28  21  3.927341E+05 -3.029788E+05  4.486695E+05  2.462013E+05  3.260955E+03  3.354191E+05
        28  22  1.771228E+04  1.164740E+04  1.538360E+05 -5.317157E+04  1.330134E+04  8.832690E+04
        28  23  1.092670E+05 -3.100800E+04  2.608658E+05 -4.736808E+04  1.198815E+04  2.226670E+05
        28  24  4.722200E+05  1.164349E+04  5.232723E+05 -5.201272E+04  3.045700E+03  3.569870E+05
        28  25  6.781316E+04  2.248638E+05  1.918741E+05 -2.994348E+04  1.331689E+04  8.342754E+04
        28  26  1.730604E+05  2.318972E+05  3.126255E+05 -1.849215E+05  1.191544E+04  2.309990E+05
        28  27  5.520329E+05  3.265483E+05  5.979176E+05 -3.503791E+05  2.809803E+03  3.785658E+05
        29   1 -3.729481E+06 -1.078990E+06 -5.867703E+05 -1.370424E+06 -2.913691E+05 -1.025835E+05
        29   2 -3.646087E+06 -6.382999E+05 -3.138118E+05 -1.389474E+06 -1.878885E+05 -4.855732E+04
        29   3 -3.697334E+06 -6.010490E+05 -2.261531E+05 -1.336417E+06 -7.894595E+04 -8.965560E+03
        29   4 -3.261974E+06 -7.891318E+05 -4.374468E+05 -1.127721E+06 -2.797009E+05 -9.824170E+04
        29   5 -3.172072E+06 -4.258118E+05 -1.841720E+05 -1.225003E+06 -1.845564E+05 -4.731322E+04
        29   6 -3.215037E+06 -4.641145E+05 -1.094534E+05 -1.250216E+06 -8.395131E+04 -1.084782E+04
        29   7 -2.794226E+06 -4.991246E+05 -2.881437E+05 -8.848174E+05 -2.680232E+05 -9.389088E+04
        29   8 -2.697837E+06 -2.132824E+05 -5.455317E+04 -1.060409E+06 -1.812214E+05 -4.606759E+04
        29   9 -2.732511E+06 -3.271847E+05  7.230623E+03 -1.163965E+06 -8.896095E+04 -1.273079E+04
        29  10 -3.729575E+06 -1.079024E+06 -5.869509E+05 -1.370448E+06 -1.228938E-09 -8.390181E-10
        29  11 -3.646126E+06 -6.383120E+05 -3.138831E+05 -1.389481E+06 -4.608221E-10 -1.546353E-09
        29  12 -3.697341E+06 -6.010507E+05 -2.261651E+05 -1.336418E+06 -5.693603E-10 -1.143817E-09
        29  13 -3.262061E+06 -7.891633E+05 -4.376130E+05 -1.127743E+06  3.932579E-11 -3.524868E-10
        29  14 -3.172110E+06 -4.258235E+05 -1.842406E+05 -1.225010E+06  8.673053E-10  4.666825E-10
        29  15 -3.215045E+06 -4.641165E+05 -1.094670E+05 -1.250217E+06  6.850975E-10 -2.154608E-10
        29  16 -2.794305E+06 -4.991535E+05 -2.882960E+05 -8.848377E+05  1.120704E-09 -9.944580E-10
        29  17 -2.697873E+06 -2.132936E+05 -5.461920E+04 -1.060416E+06 -1.334797E-09  1.729345E-09
        29  18 -2.732519E+06 -3.271870E+05  7.215373E+03 -1.163966E+06 -2.368054E-09  1.657498E-11
        29  19 -3.729481E+06 -1.078990E+06 -5.867703E+05 -1.370424E+06  2.913691E+05  1.025835E+05
        29  20 -3.646087E+06 -6.382999E+05 -3.138118E+05 -1.389474E+06  1.878885E+05  4.855732E+04
        29  21 -3.697334E+06 -6.010490E+05 -2.261531E+05 -1.336417E+06  7.894595E+04  8.965560E+03
        29  22 -3.261974E+06 -7.891318E+05 -4.374468E+05 -1.127721E+06  2.797009E+05  9.824170E+04
        29  23 -3.172072E+06 -4.258118E+05 -1.841720E+05 -1.225003E+06  1.845564E+05  4.731322E+04
        29  24 -3.215037E+06 -4.641145E+05 -1.094534E+05 -1.250216E+06  8.395131E+04  1.084782E+04
        29  25 -2.794226E+06 -4.991246E+05 -2.881437E+05 -8.848174E+05  2.680232E+05  9.389088E+04
        29  26 -2.697837E+06 -2.132824E+05 -5.455317E+04 -1.060409E+06  1.812214E+05  4.606759E+04
        29  27 -2.732511E+06 -3.271847E+05  7.230623E+03 -1.163965E+06  8.896095E+04  1.273079E+04
        30   1 -3.582617E+06 -6.605270E+05 -1.897772E+05 -1.340294E+06 -6.694927E+04 -8.299178E+03
        30   2 -3.535404E+06 -5.887756E+05 -1.301676E+05 -1.314942E+06 -4.344951E+04 -1.300554E+03
        30   3 -3.478844E+06 -5.788394E+05 -9.745218E+04 -1.310268E+06 -1.957982E+04  4.720918E+03
        30   4 -3.200418E+06 -5.071666E+05 -8.846675E+04 -1.226112E+06 -6.763875E+04 -8.561056E+03
        30   5 -3.202948E+06 -4.611384E+05 -4.332729E+04 -1.221474E+06 -4.469400E+04 -1.770248E+03
        30   6 -3.196014E+06 -4.768017E+05 -2.462653E+04 -1.237516E+06 -2.138148E+04  4.042261E+03
        30   7 -2.818074E+06 -3.537909E+05  1.283139E+04 -1.111863E+06 -6.832868E+04 -8.823131E+03
        30   8 -2.870383E+06 -3.334928E+05  4.350376E+04 -1.127959E+06 -4.593923E+04 -2.240230E+03
        30   9 -2.913107E+06 -3.747605E+05  4.819257E+04 -1.164734E+06 -2.318404E+04  3.363296E+03
        30  10 -3.582622E+06 -6.605283E+05 -1.897858E+05 -1.340294E+06  9.579166E-11 -1.213075E-10
        30  11 -3.535406E+06 -5.887761E+05 -1.301711E+05 -1.314942E+06  1.510412E-09  1.290085E-09
        30  12 -3.478844E+06 -5.788396E+05 -9.745294E+04 -1.310268E+06 -4.631975E-11  7.463077E-10
        30  13 -3.200423E+06 -5.071679E+05 -8.847553E+04 -1.226112E+06 -4.441913E-10  6.715480E-10
        30  14 -3.202950E+06 -4.611390E+05 -4.333107E+04 -1.221474E+06 -4.675836E-09  9.926290E-10
        30  15 -3.196015E+06 -4.768018E+05 -2.462742E+04 -1.237516E+06 -8.867319E-10  6.254965E-10
        30  16 -2.818079E+06 -3.537922E+05  1.282243E+04 -1.111863E+06 -2.351653E-09  1.251044E-09
        30  17 -2.870385E+06 -3.334934E+05  4.349976E+04 -1.127959E+06 -3.698129E-09  1.514230E-09
        30  18 -2.913107E+06 -3.747607E+05  4.819153E+04 -1.164734E+06 -1.316286E-09  3.803950E-10
        30  19 -3.582617E+06 -6.605270E+05 -1.897772E+05 -1.340294E+06  6.694927E+04  8.299178E+03
        30  20 -3.535404E+06 -5.887756E+05 -1.301676E+05 -1.314942E+06  4.344951E+04  1.300554E+03
        30  21 -3.478844E+06 -5.788394E+05 -9.745218E+04 -1.310268E+06  1.957982E+04 -4.720918E+03
        30  22 -3.200418E+06 -5.071666E+05 -8.846675E+04 -1.226112E+06  6.763875E+04  8.561056E+03
        30  23 -3.202948E+06 -4.611384E+05 -4.332729E+04 -1.221474E+06  4.469400E+04  1.770248E+03
        30  24 -3.196014E+06 -4.768017E+05 -2.462653E+04 -1.237516E+06  2.138148E+04 -4.042261E+03
        30  25 -2.818074E+06 -3.537909E+05  1.283139E+04 -1.111863E+06  6.832868E+04  8.823131E+03
        30  26 -2.870383E+06 -3.334928E+05  4.350376E+04 -1.127959E+06  4.593923E+04  2.240230E+03
        30  27 -2.913107E+06 -3.747605E+05  4.819257E+04 -1.164734E+06  2.318404E+04 -3.363296E+03
        31   1 -3.407771E+06 -5.619882E+05 -7.451411E+04 -1.294547E+06 -1.569177E+04  4.232475E+03
        31   2 -3.362786E+06 -5.231535E+05 -5.068942E+04 -1.263627E+06 -9.534591E+03  3.460436E+03
        31   3 -3.292517E+06 -5.149578E+05 -3.161816E+04 -1.263048E+06 -3.343277E+03  2.596584E+03
        31   4 -3.194072E+06 -4.809868E+05 -1.907308E+04 -1.235485E+06 -1.724201E+04  3.648623E+03
        31   5 -3.206511E+06 -4.642779E+05 -1.008652E+04 -1.220836E+06 -1.113653E+04  2.857408E+03
        31   6 -3.193658E+06 -4.781967E+05 -5.810481E+03 -1.236528E+06 -4.997413E+03  1.974201E+03
        31   7 -2.980328E+06 -3.999827E+05  3.636392E+04 -1.176405E+06 -1.879284E+04  3.064549E+03
        31   8 -3.050212E+06 -4.054007E+05  3.051435E+04 -1.178035E+06 -1.273891E+04  2.254213E+03
        31   9 -3.094790E+06 -4.414350E+05  1.999648E+04 -1.210004E+06 -6.651845E+03  1.351710E+03
        31  10 -3.407772E+06 -5.619882E+05 -7.451460E+04 -1.294547E+06  3.314274E-09 -2.708760E-10
        31  11 -3.362787E+06 -5.231535E+05 -5.068962E+04 -1.263627E+06  4.980218E-10 -6.635965E-10
        31  12 -3.292517E+06 -5.149578E+05 -3.161819E+04 -1.263048E+06  1.302893E-09  4.414470E-10
        31  13 -3.194072E+06 -4.809869E+05 -1.907367E+04 -1.235485E+06 -2.747338E-09  2.877517E-10
        31  14 -3.206511E+06 -4.642779E+05 -1.008676E+04 -1.220836E+06  2.288895E-09 -1.076877E-09
        31  15 -3.193658E+06 -4.781967E+05 -5.810535E+03 -1.236528E+06 -2.558960E-09 -2.542290E-10
        31  16 -2.980328E+06 -3.999828E+05  3.636324E+04 -1.176405E+06 -1.500143E-09  1.593058E-10
        31  17 -3.050212E+06 -4.054008E+05  3.051404E+04 -1.178035E+06 -3.693617E-09 -1.455777E-09
        31  18 -3.094790E+06 -4.414350E+05  1.999639E+04 -1.210004E+06 -8.497309E-10 -1.012747E-09
        31  19 -3.407771E+06 -5.619882E+05 -7.451411E+04 -1.294547E+06  1.569177E+04 -4.232475E+03
        31  20 -3.362786E+06 -5.231535E+05 -5.068942E+04 -1.263627E+06  9.534591E+03 -3.460436E+03
        31  21 -3.292517E+06 -5.149578E+05 -3.161816E+04 -1.263048E+06  3.343277E+03 -2.596584E+03
        31  22 -3.194072E+06 -4.809868E+05 -1.907308E+04 -1.235485E+06  1.724201E+04 -3.648623E+03
        31  23 -3.206511E+06 -4.642779E+05 -1.008652E+04 -1.220836E+06  1.113653E+04 -2.857408E+03
        31  24 -3.193658E+06 -4.781967E+05 -5.810481E+03 -1.236528E+06  4.997413E+03 -1.974201E+03
        31  25 -2.980328E+06 -3.999827E+05  3.636392E+04 -1.176405E+06  1.879284E+04 -3.064549E+03
        31  26 -3.050212E+06 -4.054007E+05  3.051435E+04 -1.178035E+06  1.273891E+04 -2.254213E+03
        31  27 -3.094790E+06 -4.414350E+05  1.999648E+04 -1.210004E+06  6.651845E+03 -1.351710E+03
        32   1 -3.224161E+06 -4.901600E+05 -1.234654E+04 -1.244821E+06 -1.884712E+03  1.258462E+03
        32   2 -3.179165E+06 -4.540501E+05  4.288589E+03 -1.213096E+06  6.428521E+02 -1.012497E+03
        32   3 -3.106926E+06 -4.458835E+05  1.973219E+04 -1.212786E+06  3.169997E+03 -3.281536E+03
        32   4 -3.193367E+06 -4.786086E+05 -4.567338E+03 -1.236386E+06 -3.526985E+03  6.406172E+02
        32   5 -3.206971E+06 -4.645318E+05 -2.936232E+03 -1.220717E+06 -9.983459E+02 -1.629993E+03
        32   6 -3.193336E+06 -4.783988E+05 -2.497160E+03 -1.236465E+06  1.529702E+03 -3.898720E+03
        32   7 -3.162571E+06 -4.670571E+05  3.211819E+03 -1.227951E+06 -5.169351E+03  2.273704E+01
        32   8 -3.234776E+06 -4.750134E+05 -1.016106E+04 -1.228338E+06 -2.639454E+03 -2.247456E+03
        32   9 -3.279738E+06 -5.109132E+05 -2.472679E+04 -1.260140E+06 -1.103198E+02 -4.515800E+03
        32  10 -3.224161E+06 -4.901600E+05 -1.234655E+04 -1.244821E+06  3.543353E-09  5.727480E-10
        32  11 -3.179165E+06 -4.540501E+05  4.288586E+03 -1.213096E+06 -1.550285E-09  6.412653E-11
        32  12 -3.106926E+06 -4.458835E+05  1.973215E+04 -1.212786E+06  1.173716E-09  4.271637E-10
        32  13 -3.193367E+06 -4.786086E+05 -4.567362E+03 -1.236386E+06  5.204405E-10 -6.351819E-10
        32  14 -3.206971E+06 -4.645318E+05 -2.936239E+03 -1.220717E+06  2.742424E-09  7.263994E-10
        32  15 -3.193336E+06 -4.783988E+05 -2.497193E+03 -1.236465E+06  1.739571E-09 -1.298179E-09
        32  16 -3.162571E+06 -4.670571E+05  3.211768E+03 -1.227951E+06  7.156129E-10 -4.035401E-10
        32  17 -3.234776E+06 -4.750134E+05 -1.016109E+04 -1.228338E+06  2.765229E-10  2.136561E-10
        32  18 -3.279738E+06 -5.109132E+05 -2.472683E+04 -1.260140E+06  1.712012E-09 -5.688584E-10
        32  19 -3.224161E+06 -4.901600E+05 -1.234654E+04 -1.244821E+06  1.884712E+03 -1.258462E+03
        32  20 -3.179165E+06 -4.540501E+05  4.288589E+03 -1.213096E+06 -6.428521E+02  1.012497E+03
        32  21 -3.106926E+06 -4.458835E+05  1.973219E+04 -1.212786E+06 -3.169997E+03  3.281536E+03
        32  22 -3.193367E+06 -4.786086E+05 -4.567338E+03 -1.236386E+06  3.526985E+03 -6.406172E+02
        32  23 -3.206971E+06 -4.645318E+05 -2.936232E+03 -1.220717E+06  9.983459E+02  1.629993E+03
        32  24 -3.193336E+06 -4.783988E+05 -2.497160E+03 -1.236465E+06 -1.529702E+03  3.898720E+03
        32  25 -3.162571E+06 -4.670571E+05  3.211819E+03 -1.227951E+06  5.169351E+03 -2.273704E+01
        32  26 -3.234776E+06 -4.750134E+05 -1.016106E+04 -1.228338E+06  2.639454E+03  2.247456E+03
        32  27 -3.279738E+06 -5.109132E+05 -2.472679E+04 -1.260140E+06  1.103198E+02  4.515800E+03
        33   1 -3.039578E+06 -4.203406E+05  3.758507E+04 -1.194291E+06  4.195976E+03 -4.765432E+03
        33   2 -2.995780E+06 -3.853446E+05  5.126740E+04 -1.163258E+06  6.969045E+03 -6.889548E+03
        33   3 -2.925452E+06 -3.776769E+05  6.355134E+04 -1.162800E+06  9.723185E+03 -8.959003E+03
        33   4 -3.193495E+06 -4.782307E+05 -2.596593E+03 -1.236293E+06  2.565735E+03 -5.378978E+03
        33   5 -3.206784E+06 -4.647315E+05 -3.523325E+03 -1.220942E+06  5.369771E+03 -7.491837E+03
        33   6 -3.193551E+06 -4.785683E+05 -5.873373E+03 -1.236169E+06  8.154692E+03 -9.550076E+03
        33   7 -3.347391E+06 -5.361199E+05 -4.278072E+04 -1.278285E+06  9.359215E+02 -5.992364E+03
        33   8 -3.417746E+06 -5.441164E+05 -5.831833E+04 -1.278609E+06  3.771080E+03 -8.093906E+03
        33   9 -3.461582E+06 -5.794560E+05 -7.530466E+04 -1.309510E+06  6.586933E+03 -1.014087E+04
        33  10 -3.039578E+06 -4.203406E+05  3.758499E+04 -1.194291E+06  2.354509E-10  3.127237E-10
        33  11 -2.995780E+06 -3.853447E+05  5.126722E+04 -1.163258E+06  1.012107E-09 -1.078953E-10
        33  12 -2.925452E+06 -3.776770E+05  6.355101E+04 -1.162800E+06  1.653557E-12  1.752986E-09
        33  13 -3.193495E+06 -4.782307E+05 -2.596659E+03 -1.236293E+06 -1.721772E-09 -1.450396E-10
        33  14 -3.206784E+06 -4.647316E+05 -3.523485E+03 -1.220942E+06 -2.037749E-09 -7.515908E-10
        33  15 -3.193551E+06 -4.785685E+05 -5.873669E+03 -1.236169E+06  1.668455E-09  3.837985E-10
        33  16 -3.347391E+06 -5.361199E+05 -4.278079E+04 -1.278285E+06  1.257322E-09 -1.819808E-09
        33  17 -3.417746E+06 -5.441165E+05 -5.831848E+04 -1.278609E+06 -3.715388E-10 -1.058087E-09
        33  18 -3.461582E+06 -5.794561E+05 -7.530493E+04 -1.309510E+06  8.073354E-10  9.079468E-10
        33  19 -3.039578E+06 -4.203406E+05  3.758507E+04 -1.194291E+06 -4.195976E+03  4.765432E+03
        33  20 -2.995780E+06 -3.853446E+05  5.126740E+04 -1.163258E+06 -6.969045E+03  6.889548E+03
        33  21 -2.925452E+06 -3.776769E+05  6.355134E+04 -1.162800E+06 -9.723185E+03  8.959003E+03
        33  22 -3.193495E+06 -4.782307E+05 -2.596593E+03 -1.236293E+06 -2.565735E+03  5.378978E+03
        33  23 -3.206784E+06 -4.647315E+05 -3.523325E+03 -1.220942E+06 -5.369771E+03  7.491837E+03
        33  24 -3.193551E+06 -4.785683E+05 -5.873373E+03 -1.236169E+06 -8.154692E+03  9.550076E+03
        33  25 -3.347391E+06 -5.361199E+05 -4.278072E+04 -1.278285E+06 -9.359215E+02  5.992364E+03
        33  26 -3.417746E+06 -5.441164E+05 -5.831833E+04 -1.278609E+06 -3.771080E+03  8.093906E+03
        33  27 -3.461582E+06 -5.794560E+05 -7.530466E+04 -1.309510E+06 -6.586933E+03  1.014087E+04
        34   1 -2.861457E+06 -3.530470E+05  7.893220E+04 -1.145637E+06  1.141030E+04 -1.011589E+04
        34   2 -2.820261E+06 -3.194392E+05  8.679158E+04 -1.115813E+06  1.904469E+04 -1.021460E+04
        34   3 -2.756336E+06 -3.154994E+05  8.850064E+04 -1.113672E+06  2.662113E+04 -1.015189E+04
        34   4 -3.194218E+06 -4.777350E+05 -7.582127E+03 -1.236042E+06  9.845478E+03 -1.070592E+04
        34   5 -3.205851E+06 -4.647640E+05 -1.337216E+04 -1.221500E+06  1.756924E+04 -1.077160E+04
        34   6 -3.194777E+06 -4.814814E+05 -2.538649E+04 -1.234641E+06  2.523449E+04 -1.067604E+04
        34   7 -3.526866E+06 -6.024146E+05 -9.410455E+04 -1.326402E+06  8.281598E+03 -1.129560E+04
        34   8 -3.591294E+06 -6.100787E+05 -1.135480E+05 -1.327127E+06  1.609481E+04 -1.132821E+04
        34   9 -3.633033E+06 -6.474515E+05 -1.392904E+05 -1.355534E+06  2.384892E+04 -1.119978E+04
        34  10 -2.861458E+06 -3.530471E+05  7.893177E+04 -1.145637E+06  3.382016E-09  2.604185E-09
        34  11 -2.820262E+06 -3.194394E+05  8.679070E+04 -1.115813E+06  4.636955E-09 -1.216435E-10
        34  12 -2.756337E+06 -3.154997E+05  8.849912E+04 -1.113671E+06  3.527410E-09 -9.780110E-10
        34  13 -3.194218E+06 -4.777351E+05 -7.582524E+03 -1.236042E+06  1.642549E-09  8.057617E-10
        34  14 -3.205851E+06 -4.647642E+05 -1.337296E+04 -1.221500E+06  4.416573E-09 -6.186440E-10
        34  15 -3.194778E+06 -4.814817E+05 -2.538790E+04 -1.234641E+06  2.446913E-09  1.886406E-11
        34  16 -3.526866E+06 -6.024148E+05 -9.410492E+04 -1.326402E+06  4.128247E-10  6.098210E-10
        34  17 -3.591294E+06 -6.100790E+05 -1.135487E+05 -1.327127E+06  1.250693E-09 -9.009091E-10
        34  18 -3.633033E+06 -6.474518E+05 -1.392917E+05 -1.355534E+06  2.079733E-09 -1.105818E-10
        34  19 -2.861457E+06 -3.530470E+05  7.893220E+04 -1.145637E+06 -1.141030E+04  1.011589E+04
        34  20 -2.820261E+06 -3.194392E+05  8.679158E+04 -1.115813E+06 -1.904469E+04  1.021460E+04
        34  21 -2.756336E+06 -3.154994E+05  8.850064E+04 -1.113672E+06 -2.662113E+04  1.015189E+04
        34  22 -3.194218E+06 -4.777350E+05 -7.582127E+03 -1.236042E+06 -9.845478E+03  1.070592E+04
        34  23 -3.205851E+06 -4.647640E+05 -1.337216E+04 -1.221500E+06 -1.756924E+04  1.077160E+04
        34  24 -3.194777E+06 -4.814814E+05 -2.538649E+04 -1.234641E+06 -2.523449E+04  1.067604E+04
        34  25 -3.526866E+06 -6.024146E+05 -9.410455E+04 -1.326402E+06 -8.281598E+03  1.129560E+04
        34  26 -3.591294E+06 -6.100787E+05 -1.135480E+05 -1.327127E+06 -1.609481E+04  1.132821E+04
        34  27 -3.633033E+06 -6.474515E+05 -1.392904E+05 -1.355534E+06 -2.384892E+04  1.119978E+04
        35   1 -2.695480E+06 -2.924381E+05  9.665528E+04 -1.105652E+06  3.218321E+04 -9.857113E+03
        35   2 -2.658117E+06 -2.528689E+05  8.385293E+04 -1.070357E+06  6.207411E+04 -1.141808E+03
        35   3 -2.619805E+06 -2.834015E+05  3.643568E+04 -1.048905E+06  9.147825E+04  8.872654E+03
        35   4 -3.197543E+06 -4.757210E+05 -3.280297E+04 -1.237149E+06  3.048352E+04 -1.049957E+04
        35   5 -3.200885E+06 -4.608168E+05 -5.777277E+04 -1.222608E+06  6.110403E+04 -1.510246E+03
        35   6 -3.203444E+06 -5.161901E+05 -1.179625E+05 -1.221908E+06  9.123543E+04  8.776894E+03
        35   7 -3.699359E+06 -6.589918E+05 -1.622820E+05 -1.368552E+06  2.878533E+04 -1.114150E+04
        35   8 -3.743364E+06 -6.687430E+05 -1.994231E+05 -1.374736E+06  6.013487E+04 -1.878326E+03
        35   9 -3.786747E+06 -7.489449E+05 -2.723897E+05 -1.394759E+06  9.099283E+04  8.681226E+03
        35  10 -2.695481E+06 -2.924384E+05  9.665314E+04 -1.105651E+06  4.468719E-10 -3.738962E-10
        35  11 -2.658121E+06 -2.528699E+05  8.384566E+04 -1.070357E+06 -3.466588E-09  1.046425E-09
        35  12 -2.619814E+06 -2.834038E+05  3.641974E+04 -1.048905E+06 -1.733650E-09  4.159296E-10
        35  13 -3.197544E+06 -4.757214E+05 -3.280493E+04 -1.237149E+06  6.189811E-10 -7.139398E-10
        35  14 -3.200889E+06 -4.608179E+05 -5.777982E+04 -1.222608E+06 -1.661279E-09 -1.938543E-09
        35  15 -3.203453E+06 -5.161924E+05 -1.179784E+05 -1.221909E+06 -4.502592E-10 -7.419278E-10
        35  16 -3.699360E+06 -6.589922E+05 -1.622838E+05 -1.368552E+06  8.774753E-11  1.331765E-10
        35  17 -3.743368E+06 -6.687440E+05 -1.994300E+05 -1.374736E+06  4.528240E-10 -4.195720E-10
        35  18 -3.786756E+06 -7.489472E+05 -2.724055E+05 -1.394760E+06 -2.004813E-10 -1.708047E-09
        35  19 -2.695480E+06 -2.924381E+05  9.665528E+04 -1.105652E+06 -3.218321E+04  9.857113E+03
        35  20 -2.658117E+06 -2.528689E+05  8.385293E+04 -1.070357E+06 -6.207411E+04  1.141808E+03
        35  21 -2.619805E+06 -2.834015E+05  3.643568E+04 -1.048905E+06 -9.147825E+04 -8.872654E+03
        35  22 -3.197543E+06 -4.757210E+05 -3.280297E+04 -1.237149E+06 -3.048352E+04  1.049957E+04
        35  23 -3.200885E+06 -4.608168E+05 -5.777277E+04 -1.222608E+06 -6.110403E+04  1.510246E+03
        35  24 -3.203444E+06 -5.161901E+05 -1.179625E+05 -1.221908E+06 -9.123543E+04 -8.776894E+03
        35  25 -3.699359E+06 -6.589918E+05 -1.622820E+05 -1.368552E+06 -2.878533E+04  1.114150E+04
        35  26 -3.743364E+06 -6.687430E+05 -1.994231E+05 -1.374736E+06 -6.013487E+04  1.878326E+03
        35  27 -3.786747E+06 -7.489449E+05 -2.723897E+05 -1.394759E+06 -9.099283E+04 -8.681226E+03
        36   1 -2.535642E+06 -2.593229E+05  2.100897E+04 -1.126425E+06  1.185020E+05  1.485129E+04
        36   2 -2.509768E+06 -1.231282E+05 -6.809921E+04 -1.002589E+06  2.413848E+05  6.081680E+04
        36   3 -2.671192E+06 -5.073427E+05 -3.865116E+05 -7.682572E+05  3.571689E+05  1.255569E+05
        36   4 -3.222952E+06 -4.587699E+05 -1.459516E+05 -1.254044E+06  1.126751E+05  1.265759E+04
        36   5 -3.159592E+06 -4.138058E+05 -2.455852E+05 -1.227429E+06  2.463319E+05  6.266709E+04
        36   6 -3.285922E+06 -8.917811E+05 -5.832924E+05 -1.090255E+06  3.728910E+05  1.314106E+05
        36   7 -3.909801E+06 -6.582257E+05 -3.129453E+05 -1.381555E+06  1.068551E+05  1.046515E+04
        36   8 -3.808995E+06 -7.044039E+05 -4.231087E+05 -1.452036E+06  2.512733E+05  6.451425E+04
        36   9 -3.900220E+06 -1.275947E+06 -7.801035E+05 -1.411896E+06  3.885957E+05  1.372480E+05
        36  10 -2.535657E+06 -2.593270E+05  2.098205E+04 -1.126427E+06 -1.078499E-09  8.246555E-10
        36  11 -2.509831E+06 -1.231479E+05 -6.821620E+04 -1.002601E+06  1.064422E-10 -1.002268E-09
        36  12 -2.671334E+06 -5.073942E+05 -3.867822E+05 -7.682934E+05 -9.905663E-10 -5.481561E-10
        36  13 -3.222966E+06 -4.587735E+05 -1.459759E+05 -1.254045E+06 -3.568361E-09  2.858161E-09
        36  14 -3.159658E+06 -4.138265E+05 -2.457073E+05 -1.227441E+06 -2.701054E-09 -7.037148E-10
        36  15 -3.286077E+06 -8.918374E+05 -5.835879E+05 -1.090295E+06 -1.866898E-09 -8.406510E-10
        36  16 -3.909813E+06 -6.582289E+05 -3.129671E+05 -1.381556E+06  5.000637E-10 -1.521309E-09
        36  17 -3.809064E+06 -7.044255E+05 -4.232361E+05 -1.452049E+06 -2.647255E-09  3.284341E-09
        36  18 -3.900388E+06 -1.276008E+06 -7.804250E+05 -1.411939E+06 -2.425794E-09 -8.282777E-10
        36  19 -2.535642E+06 -2.593229E+05  2.100897E+04 -1.126425E+06 -1.185020E+05 -1.485129E+04
        36  20 -2.509768E+06 -1.231282E+05 -6.809921E+04 -1.002589E+06 -2.413848E+05 -6.081680E+04
        36  21 -2.671192E+06 -5.073427E+05 -3.865116E+05 -7.682572E+05 -3.571689E+05 -1.255569E+05
        36  22 -3.222952E+06 -4.587699E+05 -1.459516E+05 -1.254044E+06 -1.126751E+05 -1.265759E+04
        36  23 -3.159592E+06 -4.138058E+05 -2.455852E+05 -1.227429E+06 -2.463319E+05 -6.266709E+04
        36  24 -3.285922E+06 -8.917811E+05 -5.832924E+05 -1.090255E+06 -3.728910E+05 -1.314106E+05
        36  25 -3.909801E+06 -6.582257E+05 -3.129453E+05 -1.381555E+06 -1.068551E+05 -1.046515E+04
        36  26 -3.808995E+06 -7.044039E+05 -4.231087E+05 -1.452036E+06 -2.512733E+05 -6.451425E+04
        36  27 -3.900220E+06 -1.275947E+06 -7.801035E+05 -1.411896E+06 -3.885957E+05 -1.372480E+05
        37   1  1.282962E+05 -7.011011E+05  1.206203E+05 -1.667011E+03  1.984000E+04  8.390466E+02
        37   2  1.265967E+05 -7.080271E+05  1.180720E+05  2.687844E+02  1.953233E+04  1.877593E+03
        37   3  1.244032E+05 -7.150438E+05  1.147597E+05 -2.016172E+03  1.915894E+04  2.915687E+03
        37   4 -1.270128E+01 -1.220235E+06 -1.238777E+03 -9.376007E+02  1.984077E+04  1.008477E+03
        37   5  7.195330E+00 -1.220186E+06 -2.166147E+03  1.172315E+03  1.953293E+04  2.087216E+03
        37   6 -4.742318E+02 -1.220234E+06 -3.885812E+03 -9.387335E+02  1.915935E+04  3.165514E+03
        37   7 -1.283408E+05 -1.739121E+06 -1.231163E+05 -2.086741E+02  1.984155E+04  1.177766E+03
        37   8 -1.266011E+05 -1.732103E+06 -1.224222E+05  2.075237E+03  1.953353E+04  2.296666E+03
        37   9 -1.253699E+05 -1.725190E+06 -1.225488E+05  1.379751E+02  1.915976E+04  3.415138E+03
        37  10  1.282958E+05 -7.011013E+05  1.206196E+05 -1.667024E+03 -8.972670E-10 -2.510243E-09
        37  11  1.265963E+05 -7.080272E+05  1.180712E+05  2.687548E+02  3.032622E-09 -6.282659E-09
        37  12  1.244028E+05 -7.150439E+05  1.147590E+05 -2.016217E+03  7.035710E-10 -4.745950E-09
        37  13 -1.312403E+01 -1.220235E+06 -1.239518E+03 -9.376168E+02 -5.395591E-09  2.246308E-09
        37  14  6.784689E+00 -1.220186E+06 -2.166872E+03  1.172282E+03  4.102311E-09  1.964439E-10
        37  15 -4.746284E+02 -1.220235E+06 -3.886520E+03 -9.387823E+02  2.669741E-09  1.802256E-09
        37  16 -1.283412E+05 -1.739121E+06 -1.231171E+05 -2.086930E+02  1.202899E-09  4.223129E-09
        37  17 -1.266015E+05 -1.732103E+06 -1.224230E+05  2.075201E+03  3.247237E-09  6.464401E-09
        37  18 -1.253703E+05 -1.725190E+06 -1.225496E+05  1.379223E+02  1.740452E-09  3.465404E-09
        37  19  1.282962E+05 -7.011011E+05  1.206203E+05 -1.667011E+03 -1.984000E+04 -8.390466E+02
        37  20  1.265967E+05 -7.080271E+05  1.180720E+05  2.687844E+02 -1.953233E+04 -1.877593E+03
        37  21  1.244032E+05 -7.150438E+05  1.147597E+05 -2.016172E+03 -1.915894E+04 -2.915687E+03
        37  22 -1.270128E+01 -1.220235E+06 -1.238777E+03 -9.376007E+02 -1.984077E+04 -1.008477E+03
        37  23  7.195330E+00 -1.220186E+06 -2.166147E+03  1.172315E+03 -1.953293E+04 -2.087216E+03
        37  24 -4.742318E+02 -1.220234E+06 -3.885812E+03 -9.387335E+02 -1.915935E+04 -3.165514E+03
        37  25 -1.283408E+05 -1.739121E+06 -1.231163E+05 -2.086741E+02 -1.984155E+04 -1.177766E+03
        37  26 -1.266011E+05 -1.732103E+06 -1.224222E+05  2.075237E+03 -1.953353E+04 -2.296666E+03
        37  27 -1.253699E+05 -1.725190E+06 -1.225488E+05  1.379751E+02 -1.915976E+04 -3.415138E+03
        38   1  1.230026E+05 -7.240145E+05  1.115460E+05 -1.377588E+03  1.902258E+04  3.863740E+03
        38   2  1.211069E+05 -7.319024E+05  1.059648E+05 -3.490767E+01  1.856394E+04  7.827974E+03
        38   3  1.131929E+05 -7.416768E+05  9.632487E+04 -4.058851E+03  1.748393E+04  1.178977E+04
        38   4  2.621572E+02 -1.220644E+06 -5.010772E+03 -1.187569E+03  1.902338E+04  3.947057E+03
        38   5  5.384355E+02 -1.219669E+06 -8.557479E+03  1.487318E+03  1.856354E+04  8.295711E+03
        38   6 -5.273036E+03 -1.220648E+06 -1.643232E+04 -1.204699E+03  1.748212E+04  1.264197E+04
        38   7 -1.224959E+05 -1.717047E+06 -1.215845E+05 -9.975470E+02  1.902418E+04  4.030306E+03
        38   8 -1.200470E+05 -1.707215E+06 -1.230961E+05  3.008502E+03  1.856314E+04  8.763081E+03
        38   9 -1.237554E+05 -1.699407E+06 -1.292053E+05  1.647405E+03  1.748032E+04  1.349352E+04
        38  10  1.230022E+05 -7.240146E+05  1.115453E+05 -1.377647E+03  2.188555E-09 -2.086324E-09
        38  11  1.211065E+05 -7.319026E+05  1.059640E+05 -3.502472E+01  3.461726E-10 -4.159113E-09
        38  12  1.131926E+05 -7.416771E+05  9.632403E+04 -4.059017E+03 -1.166779E-09 -2.428855E-09
        38  13  2.617646E+02 -1.220645E+06 -5.011481E+03 -1.187629E+03  5.230717E-09  2.972461E-09
        38  14  5.380472E+02 -1.219669E+06 -8.558256E+03  1.487194E+03  4.528345E-09  4.647537E-12
        38  15 -5.273407E+03 -1.220648E+06 -1.643320E+04 -1.204877E+03  9.311126E-10  2.574440E-09
        38  16 -1.224963E+05 -1.717047E+06 -1.215852E+05 -9.976088E+02  1.535181E-09  4.008023E-09
        38  17 -1.200474E+05 -1.707216E+06 -1.230968E+05  3.008371E+03 -2.658798E-09  4.526838E-09
        38  18 -1.237558E+05 -1.699408E+06 -1.292062E+05  1.647215E+03  3.895989E-09  9.559646E-10
        38  19  1.230026E+05 -7.240145E+05  1.115460E+05 -1.377588E+03 -1.902258E+04 -3.863740E+03
        38  20  1.211069E+05 -7.319024E+05  1.059648E+05 -3.490767E+01 -1.856394E+04 -7.827974E+03
        38  21  1.131929E+05 -7.416768E+05  9.632487E+04 -4.058851E+03 -1.748393E+04 -1.178977E+04
        38  22  2.621572E+02 -1.220644E+06 -5.010772E+03 -1.187569E+03 -1.902338E+04 -3.947057E+03
        38  23  5.384355E+02 -1.219669E+06 -8.557479E+03  1.487318E+03 -1.856354E+04 -8.295711E+03
        38  24 -5.273036E+03 -1.220648E+06 -1.643232E+04 -1.204699E+03 -1.748212E+04 -1.264197E+04
        38  25 -1.224959E+05 -1.717047E+06 -1.215845E+05 -9.975470E+02 -1.902418E+04 -4.030306E+03
        38  26 -1.200470E+05 -1.707215E+06 -1.230961E+05  3.008502E+03 -1.856314E+04 -8.763081E+03
        38  27 -1.237554E+05 -1.699407E+06 -1.292053E+05  1.647405E+03 -1.748032E+04 -1.349352E+04
        39   1  1.189711E+05 -7.558955E+05  8.943330E+04  5.968863E+03  1.852775E+04  1.797713E+04
        39   2  1.192979E+05 -7.573161E+05  7.444783E+04 -6.170773E+03  1.698938E+04  2.935689E+04
        39   3  5.173493E+04 -7.771035E+05  3.509371E+04 -2.522411E+04  5.188488E+03  4.069677E+04
        39   4  3.262708E+03 -1.224534E+06 -2.028947E+04 -1.468996E+03  1.853612E+04  1.570503E+04
        39   5  6.124514E+03 -1.214807E+06 -3.311792E+04  1.871821E+03  1.697578E+04  3.347194E+04
        39   6 -6.004105E+04 -1.224570E+06 -7.476875E+04 -1.702314E+03  5.150112E+03  5.119878E+04
        39   7 -1.124611E+05 -1.692969E+06 -1.300272E+05 -8.901029E+03  1.854454E+04  1.343462E+04
        39   8 -1.070636E+05 -1.672104E+06 -1.406980E+05  9.908618E+03  1.696228E+04  3.758396E+04
        39   9 -1.718299E+05 -1.671853E+06 -1.846453E+05  2.180264E+04  5.112519E+03  6.169322E+04
        39  10  1.189707E+05 -7.558959E+05  8.943205E+04  5.968594E+03 -4.954676E-10 -1.017915E-10
        39  11  1.192973E+05 -7.573171E+05  7.444567E+04 -6.171175E+03  1.660734E-09 -4.504161E-09
        39  12  5.173445E+04 -7.771053E+05  3.509054E+04 -2.522428E+04  2.170641E-10 -3.465583E-09
        39  13  3.262273E+03 -1.224534E+06 -2.029058E+04 -1.469231E+03  1.050633E-09  3.609672E-09
        39  14  6.123903E+03 -1.214808E+06 -3.312057E+04  1.871364E+03  2.798245E-09 -2.566206E-10
        39  15 -6.004178E+04 -1.224573E+06 -7.477373E+04 -1.702527E+03  1.156811E-09  2.575325E-09
        39  16 -1.124615E+05 -1.692970E+06 -1.300282E+05 -8.901230E+03  2.831744E-09  2.844080E-09
        39  17 -1.070643E+05 -1.672106E+06 -1.407012E+05  9.908104E+03  1.625299E-09  5.117944E-09
        39  18 -1.718309E+05 -1.671857E+06 -1.846525E+05  2.180239E+04  2.173439E-10  1.662532E-09
        39  19  1.189711E+05 -7.558955E+05  8.943330E+04  5.968863E+03 -1.852775E+04 -1.797713E+04
        39  20  1.192979E+05 -7.573161E+05  7.444783E+04 -6.170773E+03 -1.698938E+04 -2.935689E+04
        39  21  5.173493E+04 -7.771035E+05  3.509371E+04 -2.522411E+04 -5.188488E+03 -4.069677E+04
        39  22  3.262708E+03 -1.224534E+06 -2.028947E+04 -1.468996E+03 -1.853612E+04 -1.570503E+04
        39  23  6.124514E+03 -1.214807E+06 -3.311792E+04  1.871821E+03 -1.697578E+04 -3.347194E+04
        39  24 -6.004105E+04 -1.224570E+06 -7.476875E+04 -1.702314E+03 -5.150112E+03 -5.119878E+04
        39  25 -1.124611E+05 -1.692969E+06 -1.300272E+05 -8.901029E+03 -1.854454E+04 -1.343462E+04
        39  26 -1.070636E+05 -1.672104E+06 -1.406980E+05  9.908618E+03 -1.696228E+04 -3.758396E+04
        39  27 -1.718299E+05 -1.671853E+06 -1.846453E+05  2.180264E+04 -5.112519E+03 -6.169322E+04
        40   1  9.374616E+04  1.008645E+06  5.351398E+04 -2.066572E+02  3.280704E+04 -6.501536E+02
        40   2  9.388662E+04  1.008759E+06  5.429257E+04 -1.680904E+02  3.269613E+04 -1.650898E+03
        40   3  9.427659E+04  1.009074E+06  5.578722E+04 -1.094611E+02  3.243717E+04 -2.651750E+03
        40   4 -3.656910E+01  5.921148E+05  7.395451E+02  4.444648E+00  3.280932E+04 -5.601958E+02
        40   5  2.310215E+01  5.920446E+05  1.298047E+03 -5.522752E+00  3.269822E+04 -1.204742E+03
        40   6  2.705912E+02  5.921145E+05  2.325754E+03  4.572733E+00  3.243902E+04 -1.849389E+03
        40   7 -9.382637E+04  1.757630E+05 -5.203548E+04  2.154163E+02  3.281160E+04 -4.702953E+02
        40   8 -9.384752E+04  1.755086E+05 -5.169713E+04  1.569511E+02  3.270031E+04 -7.588694E+02
        40   9 -9.374257E+04  1.753326E+05 -5.113649E+04  1.185491E+02  3.244087E+04 -1.047539E+03
        40  10  9.374500E+04  1.008644E+06  5.351196E+04 -2.066400E+02  8.981566E-09  4.531371E-08
        40  11  9.388548E+04  1.008758E+06  5.429055E+04 -1.680470E+02  3.379544E-09  5.634417E-09
        40  12  9.427545E+04  1.009074E+06  5.578523E+04 -1.093918E+02  2.187883E-09 -3.137393E-08
        40  13 -3.772543E+01  5.921145E+05  7.375211E+02  4.459447E+00 -8.889630E-09  5.102742E-10
        40  14  2.195333E+01  5.920443E+05  1.296034E+03 -5.491033E+00 -6.403634E-09 -1.167164E-09
        40  15  2.694600E+02  5.921142E+05  2.323770E+03  4.621039E+00 -2.834976E-09  5.704660E-10
        40  16 -9.382752E+04  1.757627E+05 -5.203751E+04  2.154287E+02  6.846837E-09 -4.593657E-08
        40  17 -9.384867E+04  1.755083E+05 -5.169914E+04  1.569711E+02  3.541111E-09 -5.898849E-09
        40  18 -9.374370E+04  1.753323E+05 -5.113847E+04  1.185765E+02  1.253208E-09  3.154754E-08
        40  19  9.374616E+04  1.008645E+06  5.351398E+04 -2.066572E+02 -3.280704E+04  6.501536E+02
        40  20  9.388662E+04  1.008759E+06  5.429257E+04 -1.680904E+02 -3.269613E+04  1.650898E+03
        40  21  9.427659E+04  1.009074E+06  5.578722E+04 -1.094611E+02 -3.243717E+04  2.651750E+03
        40  22 -3.656910E+01  5.921148E+05  7.395451E+02  4.444648E+00 -3.280932E+04  5.601958E+02
        40  23  2.310215E+01  5.920446E+05  1.298047E+03 -5.522752E+00 -3.269822E+04  1.204742E+03
        40  24  2.705912E+02  5.921145E+05  2.325754E+03  4.572733E+00 -3.243902E+04  1.849389E+03
        40  25 -9.382637E+04  1.757630E+05 -5.203548E+04  2.154163E+02 -3.281160E+04  4.702953E+02
        40  26 -9.384752E+04  1.755086E+05 -5.169713E+04  1.569511E+02 -3.270031E+04  7.588694E+02
        40  27 -9.374257E+04  1.753326E+05 -5.113649E+04  1.185491E+02 -3.244087E+04  1.047539E+03
        41   1  9.451642E+04  1.009463E+06  5.686402E+04 -2.597062E+02  3.227360E+04 -3.191295E+03
        41   2  9.581033E+04  1.009088E+06  6.074554E+04  1.065359E+03  3.135465E+04 -8.615469E+03
        41   3  9.950734E+04  1.010028E+06  6.875766E+04  2.339412E+03  2.932969E+04 -1.404054E+04
        41   4  4.015480E+02  5.922732E+05  3.088925E+03 -1.141571E+01  3.227536E+04 -2.303324E+03
        41   5  1.395779E+03  5.918452E+05  5.516080E+03  1.518612E+01  3.135462E+04 -5.067755E+03
        41   6  4.332705E+03  5.922715E+05  1.022989E+04 -9.232470E+00  2.932751E+04 -7.833051E+03
        41   7 -9.372053E+04  1.752613E+05 -5.068704E+04  2.367241E+02  3.227712E+04 -1.415920E+03
        41   8 -9.302613E+04  1.747796E+05 -4.971463E+04 -1.034222E+03  3.135458E+04 -1.522308E+03
        41   9 -9.084966E+04  1.746914E+05 -4.829999E+04 -2.356201E+03  2.932527E+04 -1.629551E+03
        41  10  9.451530E+04  1.009463E+06  5.686204E+04 -2.596233E+02  1.809384E-09  4.253819E-09
        41  11  9.580925E+04  1.009088E+06  6.074355E+04  1.065576E+03  5.662035E-09 -3.322129E-09
        41  12  9.950637E+04  1.010028E+06  6.875567E+04  2.339744E+03  1.995110E-09 -8.122529E-09
        41  13  4.004277E+02  5.922729E+05  3.086957E+03 -1.135585E+01 -3.342512E-10  5.737072E-10
        41  14  1.394716E+03  5.918449E+05  5.514183E+03  1.531407E+01  6.552301E-09 -1.311024E-09
        41  15  4.331765E+03  5.922712E+05  1.022816E+04 -9.047496E+00  8.247793E-10  8.401025E-10
        41  16 -9.372165E+04  1.752610E+05 -5.068900E+04  2.367610E+02 -1.022240E-09 -5.245709E-09
        41  17 -9.302719E+04  1.747793E+05 -4.971649E+04 -1.034184E+03  3.127162E-09  2.904400E-09
        41  18 -9.085059E+04  1.746912E+05 -4.830161E+04 -2.356163E+03  1.623254E-09  8.488524E-09
        41  19  9.451642E+04  1.009463E+06  5.686402E+04 -2.597062E+02 -3.227360E+04  3.191295E+03
        41  20  9.581033E+04  1.009088E+06  6.074554E+04  1.065359E+03 -3.135465E+04  8.615469E+03
        41  21  9.950734E+04  1.010028E+06  6.875766E+04  2.339412E+03 -2.932969E+04  1.404054E+04
        41  22  4.015480E+02  5.922732E+05  3.088925E+03 -1.141571E+01 -3.227536E+04  2.303324E+03
        41  23  1.395779E+03  5.918452E+05  5.516080E+03  1.518612E+01 -3.135462E+04  5.067755E+03
        41  24  4.332705E+03  5.922715E+05  1.022989E+04 -9.232470E+00 -2.932751E+04  7.833051E+03
        41  25 -9.372053E+04  1.752613E+05 -5.068704E+04  2.367241E+02 -3.227712E+04  1.415920E+03
        41  26 -9.302613E+04  1.747796E+05 -4.971463E+04 -1.034222E+03 -3.135458E+04  1.522308E+03
        41  27 -9.084966E+04  1.746914E+05 -4.829999E+04 -2.356201E+03 -2.932527E+04  1.629551E+03
        42   1  1.017428E+05  1.012056E+06  7.444336E+04  1.468680E+03  2.804998E+04 -1.647937E+04
        42   2  1.147095E+05  1.007511E+06  9.661129E+04  1.706401E+04  2.112477E+04 -4.908727E+04
        42   3  1.502813E+05  1.012863E+06  1.456387E+05  3.201511E+04  6.008468E+03 -8.170334E+04
        42   4  5.972872E+03  5.935233E+05  1.371891E+04 -1.431710E+02  2.804701E+04 -9.619211E+03
        42   5  1.711947E+04  5.902741E+05  2.535371E+04  1.935923E+02  2.110705E+04 -2.253949E+04
        42   6  4.746351E+04  5.935113E+05  5.019327E+04 -1.141716E+02  5.975082E+03 -3.546710E+04
        42   7 -8.980505E+04  1.751677E+05 -4.700823E+04 -1.753861E+03  2.804400E+04 -2.763476E+03
        42   8 -8.047833E+04  1.732104E+05 -4.590684E+04 -1.666511E+04  2.108789E+04  3.991043E+03
        42   9 -5.536136E+04  1.743291E+05 -4.525502E+04 -3.222156E+04  5.936905E+03  1.073824E+04
        42  10  1.017419E+05  1.012055E+06  7.444137E+04  1.469052E+03  8.525574E-11  3.773339E-09
        42  11  1.147083E+05  1.007508E+06  9.660593E+04  1.706484E+04  2.420729E-09 -1.339260E-09
        42  12  1.502794E+05  1.012856E+06  1.456261E+05  3.201551E+04  3.126543E-10 -3.406348E-09
        42  13  5.972003E+03  5.935230E+05  1.371726E+04 -1.429538E+02 -2.295442E-09  9.136769E-10
        42  14  1.711885E+04  5.902734E+05  2.535192E+04  1.939754E+02  1.066941E-10 -1.498012E-09
        42  15  4.746313E+04  5.935099E+05  5.019084E+04 -1.140009E+02  5.326249E-10  9.922079E-10
        42  16 -8.980590E+04  1.751675E+05 -4.700973E+04 -1.753799E+03 -4.591033E-10 -4.802019E-09
        42  17 -8.047881E+04  1.732103E+05 -4.590771E+04 -1.666518E+04  2.742852E-09  8.869698E-10
        42  18 -5.536143E+04  1.743289E+05 -4.525531E+04 -3.222161E+04  8.862165E-10  3.726094E-09
        42  19  1.017428E+05  1.012056E+06  7.444336E+04  1.468680E+03 -2.804998E+04  1.647937E+04
        42  20  1.147095E+05  1.007511E+06  9.661129E+04  1.706401E+04 -2.112477E+04  4.908727E+04
        42  21  1.502813E+05  1.012863E+06  1.456387E+05  3.201511E+04 -6.008468E+03  8.170334E+04
        42  22  5.972872E+03  5.935233E+05  1.371891E+04 -1.431710E+02 -2.804701E+04  9.619211E+03
        42  23  1.711947E+04  5.902741E+05  2.535371E+04  1.935923E+02 -2.110705E+04  2.253949E+04
        42  24  4.746351E+04  5.935113E+05  5.019327E+04 -1.141716E+02 -5.975082E+03  3.546710E+04
        42  25 -8.980505E+04  1.751677E+05 -4.700823E+04 -1.753861E+03 -2.804400E+04  2.763476E+03
        42  26 -8.047833E+04  1.732104E+05 -4.590684E+04 -1.666511E+04 -2.108789E+04 -3.991043E+03
        42  27 -5.536136E+04  1.743291E+05 -4.525502E+04 -3.222156E+04 -5.936905E+03 -1.073824E+04
        43   1 -6.164902E+06 -1.775655E+06 -9.766161E+05 -2.288556E+06 -5.561176E+05 -2.041028E+05
        43   2 -6.042677E+06 -9.419112E+05 -4.605424E+05 -2.355581E+06 -3.563683E+05 -1.175553E+05
        43   3 -6.210051E+06 -8.768406E+05 -3.022374E+05 -2.251697E+06 -1.524134E+05 -4.211235E+04
        43   4 -5.906408E+06 -1.456274E+06 -8.623493E+05 -1.992215E+06 -5.473174E+05 -2.010299E+05
        43   5 -5.715621E+06 -7.520816E+05 -3.626794E+05 -2.198221E+06 -3.539991E+05 -1.167095E+05
        43   6 -5.813011E+06 -8.151330E+05 -2.155245E+05 -2.233378E+06 -1.564527E+05 -4.360975E+04
        43   7 -5.647725E+06 -1.136551E+06 -7.480662E+05 -1.695698E+06 -5.385132E+05 -1.979475E+05
        43   8 -5.388448E+06 -5.621917E+05 -2.648257E+05 -2.040770E+06 -3.516285E+05 -1.158624E+05
        43   9 -5.415802E+06 -7.534231E+05 -1.288161E+05 -2.215064E+06 -1.604948E+05 -4.510678E+04
        43  10 -6.165249E+06 -1.775784E+06 -9.772832E+05 -2.288648E+06  8.504324E-10  2.438778E-10
        43  11 -6.042818E+06 -9.419608E+05 -4.608101E+05 -2.355615E+06 -2.400468E-09  4.333241E-10
        43  12 -6.210076E+06 -8.768489E+05 -3.022849E+05 -2.251702E+06 -2.351074E-09  2.467314E-09
        43  13 -5.906743E+06 -1.456400E+06 -8.629951E+05 -1.992304E+06 -4.096265E-10 -1.756255E-09
        43  14 -5.715761E+06 -7.521305E+05 -3.629433E+05 -2.198254E+06  4.652727E-09  1.203337E-09
        43  15 -5.813038E+06 -8.151417E+05 -2.155746E+05 -2.233384E+06  3.197178E-09  8.219942E-10
        43  16 -5.648049E+06 -1.136672E+06 -7.486910E+05 -1.695784E+06  1.285068E-09  6.052995E-10
        43  17 -5.388585E+06 -5.622398E+05 -2.650858E+05 -2.040803E+06  3.021809E-09 -1.874576E-10
        43  18 -5.415831E+06 -7.534324E+05 -1.288689E+05 -2.215070E+06  5.637811E-10  6.318837E-10
        43  19 -6.164902E+06 -1.775655E+06 -9.766161E+05 -2.288556E+06  5.561176E+05  2.041028E+05
        43  20 -6.042677E+06 -9.419112E+05 -4.605424E+05 -2.355581E+06  3.563683E+05  1.175553E+05
        43  21 -6.210051E+06 -8.768406E+05 -3.022374E+05 -2.251697E+06  1.524134E+05  4.211235E+04
        43  22 -5.906408E+06 -1.456274E+06 -8.623493E+05 -1.992215E+06  5.473174E+05  2.010299E+05
        43  23 -5.715621E+06 -7.520816E+05 -3.626794E+05 -2.198221E+06  3.539991E+05  1.167095E+05
        43  24 -5.813011E+06 -8.151330E+05 -2.155245E+05 -2.233378E+06  1.564527E+05  4.360975E+04
        43  25 -5.647725E+06 -1.136551E+06 -7.480662E+05 -1.695698E+06  5.385132E+05  1.979475E+05
        43  26 -5.388448E+06 -5.621917E+05 -2.648257E+05 -2.040770E+06  3.516285E+05  1.158624E+05
        43  27 -5.415802E+06 -7.534231E+05 -1.288161E+05 -2.215064E+06  1.604948E+05  4.510678E+04
        44   1 -6.050109E+06 -1.018191E+06 -2.469845E+05 -2.276701E+06 -1.251537E+05 -3.498019E+04
        44   2 -6.001436E+06 -9.123876E+05 -1.448836E+05 -2.258311E+06 -8.024220E+04 -1.987961E+04
        44   3 -5.961810E+06 -9.011093E+05 -9.534889E+04 -2.249549E+06 -3.502818E+04 -5.564799E+03
        44   4 -5.784729E+06 -8.996487E+05 -1.741764E+05 -2.185358E+06 -1.258893E+05 -3.526248E+04
        44   5 -5.775853E+06 -8.224946E+05 -8.518344E+04 -2.191765E+06 -8.141672E+04 -2.032330E+04
        44   6 -5.775925E+06 -8.397609E+05 -4.838677E+04 -2.207803E+06 -3.664482E+04 -6.173377E+03
        44   7 -5.519278E+06 -7.810926E+05 -1.013744E+05 -2.093976E+06 -1.266253E+05 -3.554495E+04
        44   8 -5.550220E+06 -7.325966E+05 -2.548763E+04 -2.125196E+06 -8.259172E+04 -2.076718E+04
        44   9 -5.590006E+06 -7.784122E+05 -1.427316E+03 -2.166047E+06 -3.826199E+04 -6.782098E+03
        44  10 -6.050127E+06 -1.018197E+06 -2.470166E+05 -2.276705E+06  1.374008E-09  2.895700E-09
        44  11 -6.001443E+06 -9.123898E+05 -1.448965E+05 -2.258313E+06 -3.603886E-09 -1.341521E-09
        44  12 -5.961811E+06 -9.011097E+05 -9.535128E+04 -2.249549E+06 -7.074208E-09 -4.321367E-09
        44  13 -5.784747E+06 -8.996543E+05 -1.742089E+05 -2.185362E+06 -1.188492E-09  7.707344E-10
        44  14 -5.775860E+06 -8.224969E+05 -8.519681E+04 -2.191767E+06 -3.279045E-09  3.599474E-10
        44  15 -5.775927E+06 -8.397613E+05 -4.838939E+04 -2.207803E+06 -2.348948E-09 -1.183306E-09
        44  16 -5.519295E+06 -7.810983E+05 -1.014072E+05 -2.093979E+06 -1.888071E-09 -8.966798E-11
        44  17 -5.550227E+06 -7.325989E+05 -2.550140E+04 -2.125198E+06  9.007359E-10  2.825599E-09
        44  18 -5.590008E+06 -7.784127E+05 -1.430182E+03 -2.166047E+06  4.631948E-09  3.448055E-10
        44  19 -6.050109E+06 -1.018191E+06 -2.469845E+05 -2.276701E+06  1.251537E+05  3.498019E+04
        44  20 -6.001436E+06 -9.123876E+05 -1.448836E+05 -2.258311E+06  8.024220E+04  1.987961E+04
        44  21 -5.961810E+06 -9.011093E+05 -9.534889E+04 -2.249549E+06  3.502818E+04  5.564799E+03
        44  22 -5.784729E+06 -8.996487E+05 -1.741764E+05 -2.185358E+06  1.258893E+05  3.526248E+04
        44  23 -5.775853E+06 -8.224946E+05 -8.518344E+04 -2.191765E+06  8.141672E+04  2.032330E+04
        44  24 -5.775925E+06 -8.397609E+05 -4.838677E+04 -2.207803E+06  3.664482E+04  6.173377E+03
        44  25 -5.519278E+06 -7.810926E+05 -1.013744E+05 -2.093976E+06  1.266253E+05  3.554495E+04
        44  26 -5.550220E+06 -7.325966E+05 -2.548763E+04 -2.125196E+06  8.259172E+04  2.076718E+04
        44  27 -5.590006E+06 -7.784122E+05 -1.427316E+03 -2.166047E+06  3.826199E+04  6.782098E+03
        45   1 -5.890881E+06 -8.935708E+05 -6.837966E+04 -2.237050E+06 -2.778347E+04 -4.610078E+03
        45   2 -5.848830E+06 -8.542231E+05 -3.701660E+04 -2.209128E+06 -1.686695E+04 -3.350214E+03
        45   3 -5.785594E+06 -8.466564E+05 -1.494610E+04 -2.208367E+06 -5.923371E+03 -2.160064E+03
        45   4 -5.772367E+06 -8.477285E+05 -3.744645E+04 -2.203463E+06 -2.921366E+04 -5.148900E+03
        45   5 -5.782549E+06 -8.291067E+05 -1.972326E+04 -2.190901E+06 -1.833582E+04 -3.903443E+03
        45   6 -5.771541E+06 -8.422574E+05 -1.125954E+04 -2.205501E+06 -7.431806E+03 -2.728065E+03
        45   7 -5.653840E+06 -8.018852E+05 -6.514537E+03 -2.169870E+06 -3.064415E+04 -5.687841E+03
        45   8 -5.716265E+06 -8.039901E+05 -2.430291E+03 -2.172673E+06 -1.980486E+04 -4.456738E+03
        45   9 -5.757488E+06 -8.378585E+05 -7.572971E+03 -2.202636E+06 -8.940285E+03 -3.296076E+03
        45  10 -5.890882E+06 -8.935711E+05 -6.838116E+04 -2.237050E+06  2.174109E-10  4.239352E-10
        45  11 -5.848830E+06 -8.542232E+05 -3.701716E+04 -2.209128E+06  5.808200E-10  2.103864E-09
        45  12 -5.785594E+06 -8.466564E+05 -1.494618E+04 -2.208367E+06  2.832883E-09  6.816734E-10
        45  13 -5.772368E+06 -8.477287E+05 -3.744812E+04 -2.203463E+06 -9.239909E-10 -1.126752E-09
        45  14 -5.782550E+06 -8.291068E+05 -1.972393E+04 -2.190901E+06  1.893408E-09  9.109467E-11
        45  15 -5.771541E+06 -8.422575E+05 -1.125966E+04 -2.205501E+06  4.984543E-10  2.974173E-10
        45  16 -5.653842E+06 -8.018855E+05 -6.516381E+03 -2.169870E+06 -1.342690E-09 -1.853859E-09
        45  17 -5.716265E+06 -8.039902E+05 -2.431074E+03 -2.172673E+06 -5.684286E-10 -7.168515E-10
        45  18 -5.757488E+06 -8.378585E+05 -7.573143E+03 -2.202636E+06  1.246542E-09 -9.647707E-10
        45  19 -5.890881E+06 -8.935708E+05 -6.837966E+04 -2.237050E+06  2.778347E+04  4.610078E+03
        45  20 -5.848830E+06 -8.542231E+05 -3.701660E+04 -2.209128E+06  1.686695E+04  3.350214E+03
        45  21 -5.785594E+06 -8.466564E+05 -1.494610E+04 -2.208367E+06  5.923371E+03  2.160064E+03
        45  22 -5.772367E+06 -8.477285E+05 -3.744645E+04 -2.203463E+06  2.921366E+04  5.148900E+03
        45  23 -5.782549E+06 -8.291067E+05 -1.972326E+04 -2.190901E+06  1.833582E+04  3.903443E+03
        45  24 -5.771541E+06 -8.422574E+05 -1.125954E+04 -2.205501E+06  7.431806E+03  2.728065E+03
        45  25 -5.653840E+06 -8.018852E+05 -6.514537E+03 -2.169870E+06  3.064415E+04  5.687841E+03
        45  26 -5.716265E+06 -8.039901E+05 -2.430291E+03 -2.172673E+06  1.980486E+04  4.456738E+03
        45  27 -5.757488E+06 -8.378585E+05 -7.572971E+03 -2.202636E+06  8.940285E+03  3.296076E+03
        46   1 -5.722672E+06 -8.245297E+05  4.073241E+03 -2.191741E+06 -3.738486E+03 -3.062508E+03
        46   2 -5.682195E+06 -7.917295E+05  2.093224E+04 -2.163301E+06 -1.025987E+02 -4.611040E+03
        46   3 -5.617513E+06 -7.844387E+05  3.560705E+04 -2.163053E+06  3.519592E+03 -6.121003E+03
        46   4 -5.771158E+06 -8.428594E+05 -8.764995E+03 -2.204981E+06 -5.230304E+03 -3.624285E+03
        46   5 -5.783224E+06 -8.298922E+05 -5.401770E+03 -2.190962E+06 -1.572427E+03 -5.164705E+03
        46   6 -5.771093E+06 -8.424391E+05 -4.239962E+03 -2.205137E+06  2.071496E+03 -6.666637E+03
        46   7 -5.819641E+06 -8.611889E+05 -2.160342E+04 -2.218221E+06 -6.721994E+03 -4.186012E+03
        46   8 -5.884244E+06 -8.680542E+05 -3.173658E+04 -2.218620E+06 -3.041987E+03 -5.718270E+03
        46   9 -5.924650E+06 -9.004379E+05 -4.408880E+04 -2.247212E+06  6.238004E+02 -7.212119E+03
        46  10 -5.722672E+06 -8.245297E+05  4.073197E+03 -2.191741E+06  1.658035E-09  2.837945E-10
        46  11 -5.682195E+06 -7.917295E+05  2.093220E+04 -2.163301E+06 -2.204071E-09 -1.405666E-09
        46  12 -5.617513E+06 -7.844387E+05  3.560696E+04 -2.163053E+06  6.457632E-10 -1.596808E-09
        46  13 -5.771158E+06 -8.428594E+05 -8.765072E+03 -2.204981E+06  9.942859E-10  5.641612E-10
        46  14 -5.783224E+06 -8.298922E+05 -5.401825E+03 -2.190962E+06 -2.375404E-10 -7.607895E-10
        46  15 -5.771093E+06 -8.424392E+05 -4.240053E+03 -2.205137E+06  1.148172E-09 -8.040005E-10
        46  16 -5.819641E+06 -8.611889E+05 -2.160354E+04 -2.218221E+06 -4.428637E-10 -4.613577E-10
        46  17 -5.884244E+06 -8.680543E+05 -3.173666E+04 -2.218620E+06 -2.029643E-09  5.585880E-10
        46  18 -5.924650E+06 -9.004379E+05 -4.408890E+04 -2.247212E+06  1.415424E-09 -1.192937E-09
        46  19 -5.722672E+06 -8.245297E+05  4.073241E+03 -2.191741E+06  3.738486E+03  3.062508E+03
        46  20 -5.682195E+06 -7.917295E+05  2.093224E+04 -2.163301E+06  1.025987E+02  4.611040E+03
        46  21 -5.617513E+06 -7.844387E+05  3.560705E+04 -2.163053E+06 -3.519592E+03  6.121003E+03
        46  22 -5.771158E+06 -8.428594E+05 -8.764995E+03 -2.204981E+06  5.230304E+03  3.624285E+03
        46  23 -5.783224E+06 -8.298922E+05 -5.401770E+03 -2.190962E+06  1.572427E+03  5.164705E+03
        46  24 -5.771093E+06 -8.424391E+05 -4.239962E+03 -2.205137E+06 -2.071496E+03  6.666637E+03
        46  25 -5.819641E+06 -8.611889E+05 -2.160342E+04 -2.218221E+06  6.721994E+03  4.186012E+03
        46  26 -5.884244E+06 -8.680542E+05 -3.173658E+04 -2.218620E+06  3.041987E+03  5.718270E+03
        46  27 -5.924650E+06 -9.004379E+05 -4.408880E+04 -2.247212E+06 -6.238004E+02  7.212119E+03
        47   1 -5.558530E+06 -7.616840E+05  5.146220E+04 -2.146507E+06  4.729246E+03 -7.312127E+03
        47   2 -5.521325E+06 -7.318304E+05  6.277651E+04 -2.120116E+06  8.226176E+03 -8.725738E+03
        47   3 -5.461770E+06 -7.255197E+05  7.198654E+04 -2.119677E+06  1.168273E+04 -1.002763E+04
        47   4 -5.771513E+06 -8.420039E+05 -4.221954E+03 -2.204642E+06  3.310320E+03 -7.846970E+03
        47   5 -5.782720E+06 -8.304576E+05 -5.330710E+03 -2.191581E+06  6.870701E+03 -9.237078E+03
        47   6 -5.771593E+06 -8.424685E+05 -8.595178E+03 -2.204473E+06  1.039047E+04 -1.051552E+04
        47   7 -5.984452E+06 -9.223213E+05 -5.991016E+04 -2.262759E+06  1.891929E+03 -8.381613E+03
        47   8 -6.044048E+06 -9.290806E+05 -7.344383E+04 -2.263018E+06  5.515856E+03 -9.748182E+03
        47   9 -6.081321E+06 -9.594111E+05 -8.918500E+04 -2.289231E+06  9.098917E+03 -1.100314E+04
        47  10 -5.558530E+06 -7.616841E+05  5.146205E+04 -2.146507E+06 -4.263429E-10 -2.114963E-10
        47  11 -5.521325E+06 -7.318305E+05  6.277624E+04 -2.120116E+06 -3.939077E-09 -6.372798E-10
        47  12 -5.461770E+06 -7.255198E+05  7.198610E+04 -2.119677E+06 -2.483277E-09 -8.024186E-10
        47  13 -5.771513E+06 -8.420040E+05 -4.222090E+03 -2.204642E+06  2.615246E-10 -4.717552E-10
        47  14 -5.782720E+06 -8.304577E+05 -5.330958E+03 -2.191581E+06 -8.202100E-10 -1.614851E-09
        47  15 -5.771593E+06 -8.424686E+05 -8.595588E+03 -2.204473E+06 -5.907991E-09 -4.544295E-10
        47  16 -5.984452E+06 -9.223214E+05 -5.991030E+04 -2.262759E+06  1.964187E-09 -5.343996E-10
        47  17 -6.044048E+06 -9.290808E+05 -7.344407E+04 -2.263018E+06 -2.808798E-10  9.405805E-10
        47  18 -6.081321E+06 -9.594113E+05 -8.918538E+04 -2.289231E+06 -3.090503E-11  3.197565E-10
        47  19 -5.558530E+06 -7.616840E+05  5.146220E+04 -2.146507E+06 -4.729246E+03  7.312127E+03
        47  20 -5.521325E+06 -7.318304E+05  6.277651E+04 -2.120116E+06 -8.226176E+03  8.725738E+03
        47  21 -5.461770E+06 -7.255197E+05  7.198654E+04 -2.119677E+06 -1.168273E+04  1.002763E+04
        47  22 -5.771513E+06 -8.420039E+05 -4.221954E+03 -2.204642E+06 -3.310320E+03  7.846970E+03
        47  23 -5.782720E+06 -8.304576E+05 -5.330710E+03 -2.191581E+06 -6.870701E+03  9.237078E+03
        47  24 -5.771593E+06 -8.424685E+05 -8.595178E+03 -2.204473E+06 -1.039047E+04  1.051552E+04
        47  25 -5.984452E+06 -9.223213E+05 -5.991016E+04 -2.262759E+06 -1.891929E+03  8.381613E+03
        47  26 -6.044048E+06 -9.290806E+05 -7.344383E+04 -2.263018E+06 -5.515856E+03  9.748182E+03
        47  27 -6.081321E+06 -9.594111E+05 -8.918500E+04 -2.289231E+06 -9.098917E+03  1.100314E+04
        48   1 -5.409920E+06 -7.048998E+05  8.355361E+04 -2.105654E+06  1.373016E+04 -1.071953E+04
        48   2 -5.378074E+06 -6.783965E+05  8.574918E+04 -2.082193E+06  2.410065E+04 -9.147579E+03
        48   3 -5.330433E+06 -6.777964E+05  7.902874E+04 -2.079374E+06  3.438725E+04 -7.346753E+03
        48   4 -5.772782E+06 -8.410422E+05 -1.102083E+04 -2.204034E+06  1.247263E+04 -1.119463E+04
        48   5 -5.781077E+06 -8.307688E+05 -1.930646E+04 -2.192708E+06  2.296925E+04 -9.575629E+03
        48   6 -5.773605E+06 -8.464277E+05 -3.661341E+04 -2.202024E+06  3.338129E+04 -7.727968E+03
        48   7 -6.135514E+06 -9.771763E+05 -1.056061E+05 -2.302362E+06  1.121592E+04 -1.166942E+04
        48   8 -6.183920E+06 -9.831306E+05 -1.243758E+05 -2.303157E+06  2.183865E+04 -1.000337E+04
        48   9 -6.216586E+06 -1.015046E+06 -1.522726E+05 -2.324595E+06  3.237611E+04 -8.108882E+03
        48  10 -5.409920E+06 -7.048999E+05  8.355304E+04 -2.105654E+06 -5.121048E-09 -1.719777E-09
        48  11 -5.378075E+06 -6.783968E+05  8.574793E+04 -2.082193E+06 -7.925558E-09 -8.677923E-10
        48  12 -5.330434E+06 -6.777967E+05  7.902640E+04 -2.079374E+06 -7.827887E-09  1.667521E-09
        48  13 -5.772782E+06 -8.410424E+05 -1.102136E+04 -2.204034E+06 -1.229519E-09 -1.911803E-09
        48  14 -5.781077E+06 -8.307691E+05 -1.930762E+04 -2.192708E+06 -1.685717E-09 -3.946751E-09
        48  15 -5.773606E+06 -8.464281E+05 -3.661563E+04 -2.202024E+06  6.618855E-11 -6.609421E-09
        48  16 -6.135514E+06 -9.771765E+05 -1.056066E+05 -2.302362E+06  8.284437E-10  5.621376E-10
        48  17 -6.183920E+06 -9.831309E+05 -1.243769E+05 -2.303157E+06  5.873489E-09  1.168053E-09
        48  18 -6.216587E+06 -1.015047E+06 -1.522747E+05 -2.324595E+06  2.689920E-09  2.725052E-09
        48  19 -5.409920E+06 -7.048998E+05  8.355361E+04 -2.105654E+06 -1.373016E+04  1.071953E+04
        48  20 -5.378074E+06 -6.783965E+05  8.574918E+04 -2.082193E+06 -2.410065E+04  9.147579E+03
        48  21 -5.330433E+06 -6.777964E+05  7.902874E+04 -2.079374E+06 -3.438725E+04  7.346753E+03
        48  22 -5.772782E+06 -8.410422E+05 -1.102083E+04 -2.204034E+06 -1.247263E+04  1.119463E+04
        48  23 -5.781077E+06 -8.307688E+05 -1.930646E+04 -2.192708E+06 -2.296925E+04  9.575629E+03
        48  24 -5.773605E+06 -8.464277E+05 -3.661341E+04 -2.202024E+06 -3.338129E+04  7.727968E+03
        48  25 -6.135514E+06 -9.771763E+05 -1.056061E+05 -2.302362E+06 -1.121592E+04  1.166942E+04
        48  26 -6.183920E+06 -9.831306E+05 -1.243758E+05 -2.303157E+06 -2.183865E+04  1.000337E+04
        48  27 -6.216586E+06 -1.015046E+06 -1.522726E+05 -2.324595E+06 -3.237611E+04  8.108882E+03
        49   1 -5.285701E+06 -6.604666E+05  7.947144E+04 -2.079325E+06  4.173089E+04 -5.879389E+03
        49   2 -5.260820E+06 -6.266148E+05  5.127786E+04 -2.049115E+06  8.451517E+04  8.600622E+03
        49   3 -5.252853E+06 -6.763276E+05 -2.733693E+04 -2.018494E+06  1.268467E+05  2.428179E+04
        49   4 -5.777819E+06 -8.378907E+05 -4.730381E+04 -2.205423E+06  4.050348E+04 -6.343998E+03
        49   5 -5.773618E+06 -8.252715E+05 -8.329922E+04 -2.194624E+06  8.394830E+04  8.383949E+03
        49   6 -5.786490E+06 -8.963890E+05 -1.702765E+05 -2.183410E+06  1.269385E+05  2.431063E+04
        49   7 -6.269700E+06 -1.015305E+06 -1.740990E+05 -2.331433E+06  3.927714E+04 -6.808247E+03
        49   8 -6.286156E+06 -1.023907E+06 -2.178986E+05 -2.340021E+06  8.338193E+04  8.167472E+03
        49   9 -6.319843E+06 -1.116416E+06 -3.132408E+05 -2.348191E+06  1.270303E+05  2.433940E+04
        49  10 -5.285703E+06 -6.604671E+05  7.946808E+04 -2.079324E+06  1.028609E-09  4.107890E-09
        49  11 -5.260827E+06 -6.266168E+05  5.126418E+04 -2.049116E+06  4.274953E-09  4.558927E-09
        49  12 -5.252871E+06 -6.763326E+05 -2.736857E+04 -2.018497E+06  4.667389E-09  3.037663E-09
        49  13 -5.777821E+06 -8.378912E+05 -4.730699E+04 -2.205423E+06 -7.376668E-10 -5.739329E-09
        49  14 -5.773625E+06 -8.252735E+05 -8.331273E+04 -2.194625E+06  2.252668E-09 -5.184438E-09
        49  15 -5.786507E+06 -8.963940E+05 -1.703082E+05 -2.183413E+06  1.062682E-09 -3.796835E-10
        49  16 -6.269702E+06 -1.015305E+06 -1.741020E+05 -2.331433E+06 -5.463542E-09  9.751908E-10
        49  17 -6.286164E+06 -1.023909E+06 -2.179119E+05 -2.340022E+06 -4.675384E-09 -1.957120E-09
        49  18 -6.319861E+06 -1.116421E+06 -3.132726E+05 -2.348193E+06 -3.263860E-09 -1.829328E-09
        49  19 -5.285701E+06 -6.604666E+05  7.947144E+04 -2.079325E+06 -4.173089E+04  5.879389E+03
        49  20 -5.260820E+06 -6.266148E+05  5.127786E+04 -2.049115E+06 -8.451517E+04 -8.600622E+03
        49  21 -5.252853E+06 -6.763276E+05 -2.733693E+04 -2.018494E+06 -1.268467E+05 -2.428179E+04
        49  22 -5.777819E+06 -8.378907E+05 -4.730381E+04 -2.205423E+06 -4.050348E+04  6.343998E+03
        49  23 -5.773618E+06 -8.252715E+05 -8.329922E+04 -2.194624E+06 -8.394830E+04 -8.383949E+03
        49  24 -5.786490E+06 -8.963890E+05 -1.702765E+05 -2.183410E+06 -1.269385E+05 -2.431063E+04
        49  25 -6.269700E+06 -1.015305E+06 -1.740990E+05 -2.331433E+06 -3.927714E+04  6.808247E+03
        49  26 -6.286156E+06 -1.023907E+06 -2.178986E+05 -2.340021E+06 -8.338193E+04 -8.167472E+03
        49  27 -6.319843E+06 -1.116416E+06 -3.132408E+05 -2.348191E+06 -1.270303E+05 -2.433940E+04
        50   1 -5.176462E+06 -6.583028E+05 -6.097012E+04 -2.142684E+06  1.613277E+05  3.418194E+04
        50   2 -5.168820E+06 -4.855815E+05 -2.000435E+05 -1.985592E+06  3.447929E+05  1.041073E+05
        50   3 -5.452612E+06 -1.048489E+06 -6.762677E+05 -1.647790E+06  5.222585E+05  1.898969E+05
        50   4 -5.814643E+06 -8.132650E+05 -2.107005E+05 -2.229785E+06  1.568126E+05  3.249624E+04
        50   5 -5.713910E+06 -7.572658E+05 -3.545904E+05 -2.201864E+06  3.492671E+05  1.057579E+05
        50   6 -5.906748E+06 -1.439199E+06 -8.430516E+05 -1.993130E+06  5.357454E+05  1.947875E+05
        50   7 -6.452416E+06 -9.682392E+05 -3.604547E+05 -2.316831E+06  1.523026E+05  3.081090E+04
        50   8 -6.258694E+06 -1.028858E+06 -5.091641E+05 -2.417939E+06  3.537368E+05  1.074055E+05
        50   9 -6.360558E+06 -1.829507E+06 -1.009837E+06 -2.338152E+06  5.492213E+05  1.996620E+05
        50  10 -5.176491E+06 -6.583111E+05 -6.102171E+04 -2.142689E+06  5.450793E-10  1.106153E-09
        50  11 -5.168951E+06 -4.856256E+05 -2.002896E+05 -1.985621E+06 -1.396275E-10 -3.406595E-09
        50  12 -5.452917E+06 -1.048603E+06 -6.768537E+05 -1.647870E+06 -7.109426E-11 -1.647057E-09
        50  13 -5.814670E+06 -8.132728E+05 -2.107492E+05 -2.229789E+06  6.272611E-10  2.658315E-10
        50  14 -5.714045E+06 -7.573111E+05 -3.548433E+05 -2.201894E+06 -4.351591E-09  4.804356E-09
        50  15 -5.907069E+06 -1.439318E+06 -8.436688E+05 -1.993214E+06  2.070240E-09 -9.287438E-10
        50  16 -6.452441E+06 -9.682466E+05 -3.605006E+05 -2.316835E+06 -5.591139E-10 -8.349648E-10
        50  17 -6.258833E+06 -1.028905E+06 -5.094239E+05 -2.417970E+06 -2.622859E-09  4.264491E-09
        50  18 -6.360896E+06 -1.829633E+06 -1.010486E+06 -2.338241E+06  6.694565E-10  2.740734E-11
        50  19 -5.176462E+06 -6.583028E+05 -6.097012E+04 -2.142684E+06 -1.613277E+05 -3.418194E+04
        50  20 -5.168820E+06 -4.855815E+05 -2.000435E+05 -1.985592E+06 -3.447929E+05 -1.041073E+05
        50  21 -5.452612E+06 -1.048489E+06 -6.762677E+05 -1.647790E+06 -5.222585E+05 -1.898969E+05
        50  22 -5.814643E+06 -8.132650E+05 -2.107005E+05 -2.229785E+06 -1.568126E+05 -3.249624E+04
        50  23 -5.713910E+06 -7.572658E+05 -3.545904E+05 -2.201864E+06 -3.492671E+05 -1.057579E+05
        50  24 -5.906748E+06 -1.439199E+06 -8.430516E+05 -1.993130E+06 -5.357454E+05 -1.947875E+05
        50  25 -6.452416E+06 -9.682392E+05 -3.604547E+05 -2.316831E+06 -1.523026E+05 -3.081090E+04
        50  26 -6.258694E+06 -1.028858E+06 -5.091641E+05 -2.417939E+06 -3.537368E+05 -1.074055E+05
        50  27 -6.360558E+06 -1.829507E+06 -1.009837E+06 -2.338152E+06 -5.492213E+05 -1.996620E+05
        51   1 -1.416711E+06 -2.080117E+05 -1.689800E+05 -1.101065E+03  8.681625E+04  1.604794E+04
        51   2 -1.349859E+06 -3.354530E+05 -2.291739E+05 -9.310334E+03  6.668414E+04  4.851154E+04
        51   3 -1.239817E+06 -3.073296E+05 -2.370616E+05 -7.000304E+04  4.666547E+04  4.775828E+04
        51   4 -2.841947E+04  1.376174E+05  1.719011E+05 -4.852399E+04  1.176111E+05  1.614922E+04
        51   5 -5.174680E+04 -1.468120E+04  7.597101E+04 -2.204730E+04  7.671202E+04  4.853292E+04
        51   6 -2.837347E+04 -7.985875E+03  4.668971E+04 -4.804449E+04  3.593088E+04  4.772840E+04
        51   7  1.361637E+06  4.831128E+05  5.126455E+05 -9.605485E+04  1.484746E+05  1.624568E+04
        51   8  1.247920E+06  3.059712E+05  3.810008E+05 -3.481223E+04  8.676064E+04  4.855388E+04
        51   9  1.184425E+06  2.912552E+05  3.303415E+05 -2.604347E+04  2.517538E+04  4.769779E+04
        51  10 -1.416719E+06 -2.080140E+05 -1.689947E+05 -1.102188E+03  4.938216E-10  1.241220E-09
        51  11 -1.349865E+06 -3.354568E+05 -2.291867E+05 -9.312942E+03  4.558478E-10 -1.151222E-09
        51  12 -1.239820E+06 -3.073326E+05 -2.370700E+05 -7.000484E+04 -3.995134E-10 -5.576311E-10
        51  13 -2.843439E+04  1.376134E+05  1.718746E+05 -4.852552E+04  2.144460E-09  3.311292E-10
        51  14 -5.175375E+04 -1.468531E+04  7.595553E+04 -2.205030E+04  1.590487E-10 -4.218737E-09
        51  15 -2.837547E+04 -7.988668E+03  4.668301E+04 -4.804587E+04 -2.477154E-09 -2.729869E-10
        51  16  1.361613E+06  4.831067E+05  5.126037E+05 -9.605679E+04  6.365172E-10 -6.336638E-10
        51  17  1.247911E+06  3.059667E+05  3.809822E+05 -3.481562E+04  1.168828E-09 -1.032269E-09
        51  18  1.184423E+06  2.912526E+05  3.303361E+05 -2.604444E+04  1.262381E-09 -1.042333E-09
        51  19 -1.416711E+06 -2.080117E+05 -1.689800E+05 -1.101065E+03 -8.681625E+04 -1.604794E+04
        51  20 -1.349859E+06 -3.354530E+05 -2.291739E+05 -9.310334E+03 -6.668414E+04 -4.851154E+04
        51  21 -1.239817E+06 -3.073296E+05 -2.370616E+05 -7.000304E+04 -4.666547E+04 -4.775828E+04
        51  22 -2.841947E+04  1.376174E+05  1.719011E+05 -4.852399E+04 -1.176111E+05 -1.614922E+04
        51  23 -5.174680E+04 -1.468120E+04  7.597101E+04 -2.204730E+04 -7.671202E+04 -4.853292E+04
        51  24 -2.837347E+04 -7.985875E+03  4.668971E+04 -4.804449E+04 -3.593088E+04 -4.772840E+04
        51  25  1.361637E+06  4.831128E+05  5.126455E+05 -9.605485E+04 -1.484746E+05 -1.624568E+04
        51  26  1.247920E+06  3.059712E+05  3.810008E+05 -3.481223E+04 -8.676064E+04 -4.855388E+04
        51  27  1.184425E+06  2.912552E+05  3.303415E+05 -2.604347E+04 -2.517538E+04 -4.769779E+04
        52   1 -1.153482E+06 -2.642212E+05 -2.247472E+05 -4.620509E+04  2.944297E+04  4.108338E+04
        52   2 -1.068203E+06 -2.556108E+05 -2.216779E+05 -2.199145E+04  2.069347E+04  3.915878E+04
        52   3 -9.773221E+05 -2.331534E+05 -2.092292E+05 -5.094391E+04  1.193986E+04  3.532293E+04
        52   4 -3.740489E+04  1.164846E+04  3.779819E+04 -4.834807E+04  2.888529E+04  4.107708E+04
        52   5 -4.028225E+04 -1.639592E+03  1.957544E+04 -2.175683E+04  1.892880E+04  3.915166E+04
        52   6 -3.736225E+04 -8.832245E+02  1.155887E+04 -4.832593E+04  8.969452E+03  3.531635E+04
        52   7  1.079820E+06  2.874293E+05  3.002580E+05 -5.049546E+04  2.832658E+04  4.107080E+04
        52   8  9.886126E+05  2.522564E+05  2.607564E+05 -2.152218E+04  1.716120E+04  3.914454E+04
        52   9  9.034120E+05  2.313240E+05  2.322865E+05 -4.570414E+04  5.994560E+03  3.530976E+04
        52  10 -1.153483E+06 -2.642233E+05 -2.247520E+05 -4.620607E+04 -9.477797E-10 -1.469023E-09
        52  11 -1.068204E+06 -2.556126E+05 -2.216816E+05 -2.199210E+04  5.092339E-10  1.415761E-09
        52  12 -9.773226E+05 -2.331548E+05 -2.092318E+05 -5.094425E+04  1.265120E-09 -7.296173E-10
        52  13 -3.740623E+04  1.164642E+04  3.779345E+04 -4.834903E+04 -3.237975E-09 -6.586690E-10
        52  14 -4.028304E+04 -1.641334E+03  1.957189E+04 -2.175743E+04  1.939475E-09 -1.434891E-10
        52  15 -3.736267E+04 -8.845854E+02  1.155638E+04 -4.832619E+04  7.125269E-10 -8.315062E-10
        52  16  1.079818E+06  2.874272E+05  3.002534E+05 -5.049640E+04  3.745202E-10  7.379086E-10
        52  17  9.886119E+05  2.522546E+05  2.607530E+05 -2.152272E+04  9.086598E-11 -2.233778E-09
        52  18  9.034116E+05  2.313226E+05  2.322840E+05 -4.570431E+04 -4.454191E-10  8.610883E-11
        52  19 -1.153482E+06 -2.642212E+05 -2.247472E+05 -4.620509E+04 -2.944297E+04 -4.108338E+04
        52  20 -1.068203E+06 -2.556108E+05 -2.216779E+05 -2.199145E+04 -2.069347E+04 -3.915878E+04
        52  21 -9.773221E+05 -2.331534E+05 -2.092292E+05 -5.094391E+04 -1.193986E+04 -3.532293E+04
        52  22 -3.740489E+04  1.164846E+04  3.779819E+04 -4.834807E+04 -2.888529E+04 -4.107708E+04
        52  23 -4.028225E+04 -1.639592E+03  1.957544E+04 -2.175683E+04 -1.892880E+04 -3.915166E+04
        52  24 -3.736225E+04 -8.832245E+02  1.155887E+04 -4.832593E+04 -8.969452E+03 -3.531635E+04
        52  25  1.079820E+06  2.874293E+05  3.002580E+05 -5.049546E+04 -2.832658E+04 -4.107080E+04
        52  26  9.886126E+05  2.522564E+05  2.607564E+05 -2.152218E+04 -1.716120E+04 -3.914454E+04
        52  27  9.034120E+05  2.313240E+05  2.322865E+05 -4.570414E+04 -5.994560E+03 -3.530976E+04
        53   1 -8.829993E+05 -2.078285E+05 -1.890337E+05 -4.869696E+04  9.548201E+03  3.273595E+04
        53   2 -7.953830E+05 -1.871523E+05 -1.726015E+05 -2.198974E+04  7.177834E+03  2.884115E+04
        53   3 -7.066591E+05 -1.652538E+05 -1.542135E+05 -4.857018E+04  4.801787E+03  2.483562E+04
        53   4 -3.835959E+04  7.892710E+02  8.946175E+03 -4.836001E+04  7.162591E+03  3.273113E+04
        53   5 -3.889898E+04 -2.795715E+02  4.898198E+03 -2.171790E+04  4.720029E+03  2.883777E+04
        53   6 -3.832769E+04 -1.141613E+02  2.854293E+03 -4.835946E+04  2.272118E+03  2.483377E+04
        53   7  8.069380E+05  2.093563E+05  2.068773E+05 -4.802270E+04  4.773747E+03  3.272631E+04
        53   8  7.181125E+05  1.865525E+05  1.823588E+05 -2.144578E+04  2.259241E+03  2.883438E+04
        53   9  6.304152E+05  1.649936E+05  1.598915E+05 -4.814851E+04 -2.602615E+02  2.483192E+04
        53  10 -8.829997E+05 -2.078296E+05 -1.890359E+05 -4.869721E+04  2.685464E-10 -3.708890E-11
        53  11 -7.953832E+05 -1.871533E+05 -1.726032E+05 -2.198990E+04  4.405330E-10  3.351952E-10
        53  12 -7.066593E+05 -1.652545E+05 -1.542147E+05 -4.857027E+04 -1.413449E-09  6.205843E-10
        53  13 -3.835993E+04  7.881068E+02  8.944065E+03 -4.836020E+04 -1.075678E-09 -3.993820E-10
        53  14 -3.889923E+04 -2.804705E+02  4.896593E+03 -2.171801E+04 -1.686581E-09  1.071634E-10
        53  15 -3.832786E+04 -1.148249E+02  2.853124E+03 -4.835951E+04  2.829080E-09  1.460380E-10
        53  16  8.069376E+05  2.093551E+05  2.068753E+05 -4.802282E+04  2.977249E-11 -8.680299E-11
        53  17  7.181123E+05  1.865516E+05  1.823572E+05 -2.144583E+04 -8.125518E-11 -4.618219E-10
        53  18  6.304151E+05  1.649930E+05  1.598903E+05 -4.814850E+04  1.992338E-09 -4.754279E-10
        53  19 -8.829993E+05 -2.078285E+05 -1.890337E+05 -4.869696E+04 -9.548201E+03 -3.273595E+04
        53  20 -7.953830E+05 -1.871523E+05 -1.726015E+05 -2.198974E+04 -7.177834E+03 -2.884115E+04
        53  21 -7.066591E+05 -1.652538E+05 -1.542135E+05 -4.857018E+04 -4.801787E+03 -2.483562E+04
        53  22 -3.835959E+04  7.892710E+02  8.946175E+03 -4.836001E+04 -7.162591E+03 -3.273113E+04
        53  23 -3.889898E+04 -2.795715E+02  4.898198E+03 -2.171790E+04 -4.720029E+03 -2.883777E+04
        53  24 -3.832769E+04 -1.141613E+02  2.854293E+03 -4.835946E+04 -2.272118E+03 -2.483377E+04
        53  25  8.069380E+05  2.093563E+05  2.068773E+05 -4.802270E+04 -4.773747E+03 -3.272631E+04
        53  26  7.181125E+05  1.865525E+05  1.823588E+05 -2.144578E+04 -2.259241E+03 -2.883438E+04
        53  27  6.304152E+05  1.649936E+05  1.598915E+05 -4.814851E+04  2.602615E+02 -2.483192E+04
        54   1 -6.113929E+05 -1.414476E+05 -1.319963E+05 -4.834736E+04  4.317818E+03  2.248366E+04
        54   2 -5.232561E+05 -1.197533E+05 -1.125371E+05 -2.161483E+04  3.746577E+03  1.847399E+04
        54   3 -4.348699E+05 -9.791434E+04 -9.264160E+04 -4.820715E+04  3.171778E+03  1.445738E+04
        54   4 -3.848984E+04  7.040281E+00  2.150740E+03 -4.836819E+04  1.820837E+03  2.248265E+04
        54   5 -3.860102E+04 -4.994867E+01  1.161613E+03 -2.170705E+04  1.244613E+03  1.847395E+04
        54   6 -3.846934E+04  3.905126E+01  6.123673E+02 -4.836819E+04  6.649097E+02  1.445834E+04
        54   7  5.347159E+05  1.414384E+05  1.362755E+05 -4.838903E+04 -6.784348E+02  2.248163E+04
        54   8  4.462705E+05  1.196367E+05  1.148443E+05 -2.179932E+04 -1.259295E+03  1.847391E+04
        54   9  3.580759E+05  9.798124E+04  9.385556E+04 -4.852931E+04 -1.843551E+03  1.445930E+04
        54  10 -6.113931E+05 -1.414482E+05 -1.319973E+05 -4.834743E+04  7.175088E-10  7.083958E-10
        54  11 -5.232562E+05 -1.197537E+05 -1.125378E+05 -2.161489E+04 -3.302474E-09  3.881547E-10
        54  12 -4.348699E+05 -9.791457E+04 -9.264201E+04 -4.820719E+04 -2.161496E-09  1.860573E-10
        54  13 -3.848998E+04  6.496611E+00  2.149784E+03 -4.836823E+04 -2.141401E-09  2.575732E-10
        54  14 -3.860111E+04 -5.031556E+01  1.160969E+03 -2.170707E+04 -1.582076E-09 -1.951947E-10
        54  15 -3.846940E+04  3.882667E+01  6.119737E+02 -4.836820E+04  1.092750E-10 -6.229518E-10
        54  16  5.347158E+05  1.414378E+05  1.362745E+05 -4.838902E+04  5.583294E-10 -7.464506E-10
        54  17  4.462704E+05  1.196363E+05  1.148437E+05 -2.179930E+04 -4.726759E-10 -4.488112E-10
        54  18  3.580758E+05  9.798101E+04  9.385516E+04 -4.852929E+04  2.751754E-09 -6.426485E-10
        54  19 -6.113929E+05 -1.414476E+05 -1.319963E+05 -4.834736E+04 -4.317818E+03 -2.248366E+04
        54  20 -5.232561E+05 -1.197533E+05 -1.125371E+05 -2.161483E+04 -3.746577E+03 -1.847399E+04
        54  21 -4.348699E+05 -9.791434E+04 -9.264160E+04 -4.820715E+04 -3.171778E+03 -1.445738E+04
        54  22 -3.848984E+04  7.040281E+00  2.150740E+03 -4.836819E+04 -1.820837E+03 -2.248265E+04
        54  23 -3.860102E+04 -4.994867E+01  1.161613E+03 -2.170705E+04 -1.244613E+03 -1.847395E+04
        54  24 -3.846934E+04  3.905126E+01  6.123673E+02 -4.836819E+04 -6.649097E+02 -1.445834E+04
        54  25  5.347159E+05  1.414384E+05  1.362755E+05 -4.838903E+04  6.784348E+02 -2.248163E+04
        54  26  4.462705E+05  1.196367E+05  1.148443E+05 -2.179932E+04  1.259295E+03 -1.847391E+04
        54  27  3.580759E+05  9.798124E+04  9.385556E+04 -4.852931E+04  1.843551E+03 -1.445930E+04
        55   1 -3.394086E+05 -7.421452E+04 -6.992050E+04 -4.823708E+04  3.077697E+03  1.211765E+04
        55   2 -2.510680E+05 -5.246849E+04 -4.980673E+04 -2.159222E+04  3.046906E+03  8.100218E+03
        55   3 -1.627704E+05 -3.066676E+04 -2.967483E+04 -4.829252E+04  3.014587E+03  4.085219E+03
        55   4 -3.851697E+04  4.064488E+01  3.955862E+02 -4.837303E+04  5.711590E+02  1.211908E+04
        55   5 -3.848791E+04  2.738772E+01  5.568301E+01 -2.170100E+04  5.417083E+02  8.102065E+03
        55   6 -3.850798E+04  7.043708E+01 -2.663316E+02 -4.837302E+04  5.107338E+02  4.087511E+03
        55   7  2.624581E+05  7.428939E+04  7.070554E+04 -4.850902E+04 -1.936587E+03  1.212051E+04
        55   8  1.741338E+05  5.252005E+04  4.991503E+04 -2.180982E+04 -1.964342E+03  8.103913E+03
        55   9  8.576863E+04  3.080653E+04  2.914112E+04 -4.845353E+04 -1.993618E+03  4.089804E+03
        55  10 -3.394086E+05 -7.421468E+04 -6.992080E+04 -4.823711E+04 -8.868981E-10 -2.014244E-10
        55  11 -2.510680E+05 -5.246856E+04 -4.980687E+04 -2.159224E+04 -2.478188E-09 -2.338879E-10
        55  12 -1.627704E+05 -3.066678E+04 -2.967488E+04 -4.829253E+04  8.404726E-10 -4.298512E-10
        55  13 -3.851701E+04  4.048708E+01  3.953096E+02 -4.837303E+04  1.288129E-11  4.080266E-10
        55  14 -3.848793E+04  2.731715E+01  5.555910E+01 -2.170101E+04 -4.246580E-10  4.406099E-10
        55  15 -3.850798E+04  7.041907E+01 -2.663635E+02 -4.837302E+04 -4.532004E-10 -8.875320E-10
        55  16  2.624581E+05  7.428923E+04  7.070526E+04 -4.850900E+04  1.008313E-09 -7.005859E-10
        55  17  1.741338E+05  5.251998E+04  4.991490E+04 -2.180980E+04  2.809941E-10 -8.382614E-11
        55  18  8.576862E+04  3.080651E+04  2.914108E+04 -4.845352E+04 -1.851465E-09  7.940064E-10
        55  19 -3.394086E+05 -7.421452E+04 -6.992050E+04 -4.823708E+04 -3.077697E+03 -1.211765E+04
        55  20 -2.510680E+05 -5.246849E+04 -4.980673E+04 -2.159222E+04 -3.046906E+03 -8.100218E+03
        55  21 -1.627704E+05 -3.066676E+04 -2.967483E+04 -4.829252E+04 -3.014587E+03 -4.085219E+03
        55  22 -3.851697E+04  4.064488E+01  3.955862E+02 -4.837303E+04 -5.711590E+02 -1.211908E+04
        55  23 -3.848791E+04  2.738772E+01  5.568301E+01 -2.170100E+04 -5.417083E+02 -8.102065E+03
        55  24 -3.850798E+04  7.043708E+01 -2.663316E+02 -4.837302E+04 -5.107338E+02 -4.087511E+03
        55  25  2.624581E+05  7.428939E+04  7.070554E+04 -4.850902E+04  1.936587E+03 -1.212051E+04
        55  26  1.741338E+05  5.252005E+04  4.991503E+04 -2.180982E+04  1.964342E+03 -8.103913E+03
        55  27  8.576863E+04  3.080653E+04  2.914112E+04 -4.845353E+04  1.993618E+03 -4.089804E+03
        56   1 -6.724160E+04 -6.937391E+03 -6.918546E+03 -4.840514E+04  3.093408E+03  1.738919E+03
        56   2  2.120354E+04  1.479329E+04  1.304987E+04 -2.174458E+04  3.522849E+03 -2.273978E+03
        56   3  1.094475E+05  3.635066E+04  3.267001E+04 -4.843319E+04  3.952830E+03 -6.229917E+03
        56   4 -3.854127E+04  9.649757E+01 -4.507040E+02 -4.837416E+04  5.719200E+02  1.741332E+03
        56   5 -3.843455E+04  6.810804E+01 -9.372857E+02 -2.169953E+04  1.036673E+03 -2.271734E+03
        56   6 -3.854382E+04 -1.395733E+02 -1.796690E+03 -4.837438E+04  1.501904E+03 -6.227811E+03
        56   7 -9.840167E+03  7.130334E+03  6.017110E+03 -4.834318E+04 -1.949683E+03  1.743744E+03
        56   8 -9.806935E+04 -1.465732E+04 -1.492466E+04 -2.165448E+04 -1.449267E+03 -2.269490E+03
        56   9 -1.865149E+05 -3.663135E+04 -3.626485E+04 -4.831558E+04 -9.484417E+02 -6.225704E+03
        56  10 -6.724161E+04 -6.937397E+03 -6.918570E+03 -4.840514E+04  1.653773E-09  7.352888E-10
        56  11  2.120353E+04  1.479328E+04  1.304984E+04 -2.174458E+04  7.250044E-10 -1.927324E-10
        56  12  1.094474E+05  3.635061E+04  3.266991E+04 -4.843317E+04  3.115677E-09 -1.951288E-10
        56  13 -3.854127E+04  9.649423E+01 -4.507103E+02 -4.837416E+04 -1.475085E-11 -5.044083E-10
        56  14 -3.843455E+04  6.810221E+01 -9.372974E+02 -2.169953E+04  2.244778E-09 -1.538190E-09
        56  15 -3.854383E+04 -1.396156E+02 -1.796767E+03 -4.837437E+04  2.400065E-09  1.887381E-10
        56  16 -9.840172E+03  7.130329E+03  6.017097E+03 -4.834318E+04  2.247438E-09  1.777714E-09
        56  17 -9.806935E+04 -1.465733E+04 -1.492468E+04 -2.165449E+04  2.679190E-09 -1.669162E-09
        56  18 -1.865149E+05 -3.663139E+04 -3.626492E+04 -4.831558E+04 -1.486966E-09 -4.659096E-10
        56  19 -6.724160E+04 -6.937391E+03 -6.918546E+03 -4.840514E+04 -3.093408E+03 -1.738919E+03
        56  20  2.120354E+04  1.479329E+04  1.304987E+04 -2.174458E+04 -3.522849E+03  2.273978E+03
        56  21  1.094475E+05  3.635066E+04  3.267001E+04 -4.843319E+04 -3.952830E+03  6.229917E+03
        56  22 -3.854127E+04  9.649757E+01 -4.507040E+02 -4.837416E+04 -5.719200E+02 -1.741332E+03
        56  23 -3.843455E+04  6.810804E+01 -9.372857E+02 -2.169953E+04 -1.036673E+03  2.271734E+03
        56  24 -3.854382E+04 -1.395733E+02 -1.796690E+03 -4.837438E+04 -1.501904E+03  6.227811E+03
        56  25 -9.840167E+03  7.130334E+03  6.017110E+03 -4.834318E+04  1.949683E+03 -1.743744E+03
        56  26 -9.806935E+04 -1.465732E+04 -1.492466E+04 -2.165448E+04  1.449267E+03  2.269490E+03
        56  27 -1.865149E+05 -3.663135E+04 -3.626485E+04 -4.831558E+04  9.484417E+02  6.225704E+03
        57   1  2.048565E+05  6.039554E+04  5.502325E+04 -4.891774E+04  4.616762E+03 -8.696413E+03
        57   2  2.936356E+05  8.221441E+04  7.380205E+04 -2.166778E+04  6.047563E+03 -1.261475E+04
        57   3  3.815544E+05  1.013033E+05  9.096517E+04 -4.772301E+04  7.481309E+03 -1.554441E+04
        57   4 -3.872223E+04  2.124732E+02 -2.334045E+03 -4.836433E+04  1.862493E+03 -8.694312E+03
        57   5 -3.824163E+04  2.830272E+02 -4.031212E+03 -2.171160E+04  3.909319E+03 -1.261379E+04
        57   6 -3.873635E+04 -2.483809E+03 -7.772280E+03 -4.836591E+04  5.958890E+03 -1.554433E+04
        57   7 -2.822464E+05 -5.997482E+04 -5.969539E+04 -4.781113E+04 -8.907024E+02 -8.692215E+03
        57   8 -3.700175E+05 -8.165618E+04 -8.187198E+04 -2.175538E+04  1.772210E+03 -1.261283E+04
        57   9 -4.588646E+05 -1.062835E+05 -1.065218E+05 -4.900834E+04  4.437493E+03 -1.554425E+04
        57  10  2.048565E+05  6.039545E+04  5.502307E+04 -4.891771E+04  5.927414E-10 -1.102437E-09
        57  11  2.936356E+05  8.221423E+04  7.380168E+04 -2.166772E+04  9.249034E-10  4.570488E-10
        57  12  3.815543E+05  1.013030E+05  9.096461E+04 -4.772292E+04 -3.368923E-10  2.288307E-10
        57  13 -3.872226E+04  2.123911E+02 -2.334194E+03 -4.836432E+04 -1.075255E-09  1.865008E-10
        57  14 -3.824169E+04  2.828522E+02 -4.031539E+03 -2.171156E+04  6.119733E-10  3.261393E-10
        57  15 -3.873645E+04 -2.484078E+03 -7.772801E+03 -4.836584E+04  1.875997E-09  5.803514E-10
        57  16 -2.822464E+05 -5.997490E+04 -5.969554E+04 -4.781114E+04 -5.042221E-10  5.944430E-10
        57  17 -3.700175E+05 -8.165636E+04 -8.187229E+04 -2.175536E+04 -2.687461E-09  8.895883E-10
        57  18 -4.588646E+05 -1.062837E+05 -1.065223E+05 -4.900829E+04 -1.405764E-09  5.342071E-10
        57  19  2.048565E+05  6.039554E+04  5.502325E+04 -4.891774E+04 -4.616762E+03  8.696413E+03
        57  20  2.936356E+05  8.221441E+04  7.380205E+04 -2.166778E+04 -6.047563E+03  1.261475E+04
        57  21  3.815544E+05  1.013033E+05  9.096517E+04 -4.772301E+04 -7.481309E+03  1.554441E+04
        57  22 -3.872223E+04  2.124732E+02 -2.334045E+03 -4.836433E+04 -1.862493E+03  8.694312E+03
        57  23 -3.824163E+04  2.830272E+02 -4.031212E+03 -2.171160E+04 -3.909319E+03  1.261379E+04
        57  24 -3.873635E+04 -2.483809E+03 -7.772280E+03 -4.836591E+04 -5.958890E+03  1.554433E+04
        57  25 -2.822464E+05 -5.997482E+04 -5.969539E+04 -4.781113E+04  8.907024E+02  8.692215E+03
        57  26 -3.700175E+05 -8.165618E+04 -8.187198E+04 -2.175538E+04 -1.772210E+03  1.261283E+04
        57  27 -4.588646E+05 -1.062835E+05 -1.065218E+05 -4.900834E+04 -4.437493E+03  1.554425E+04
        58   1  4.755142E+05  1.289054E+05  1.112285E+05 -5.247040E+04  1.418798E+04 -2.010010E+04
        58   2  5.675458E+05  1.518682E+05  1.260615E+05 -1.866634E+04  1.191556E+04 -2.238857E+04
        58   3  6.524702E+05  1.441144E+05  1.347500E+05 -3.760089E+04  9.640908E+03 -7.537903E+03
        58   4 -4.053784E+04  1.555579E+03 -9.588172E+03 -4.823960E+04  7.402733E+03 -2.009850E+04
        58   5 -3.606151E+04  2.835034E+03 -1.569722E+04 -2.186718E+04  1.582679E+04 -2.239040E+04
        58   6 -4.056368E+04 -2.847451E+04 -3.538373E+04 -4.823728E+04  2.424863E+04 -7.535741E+03
        58   7 -5.563445E+05 -1.258130E+05 -1.304229E+05 -4.401231E+04  6.230857E+02 -2.009698E+04
        58   8 -6.393335E+05 -1.462240E+05 -1.574809E+05 -2.506488E+04  1.973424E+04 -2.239228E+04
        58   9 -7.331599E+05 -2.010985E+05 -2.055519E+05 -5.886180E+04  3.884008E+04 -7.534080E+03
        58  10  4.755139E+05  1.289049E+05  1.112274E+05 -5.247017E+04  9.697414E-10  5.183814E-11
        58  11  5.675455E+05  1.518676E+05  1.260603E+05 -1.866612E+04 -2.775236E-10  3.128724E-10
        58  12  6.524701E+05  1.441143E+05  1.347498E+05 -3.760083E+04  5.627291E-10  2.442059E-10
        58  13 -4.053801E+04  1.555131E+03 -9.589034E+03 -4.823948E+04 -2.124511E-09  9.509149E-10
        58  14 -3.606192E+04  2.834428E+03 -1.569863E+04 -2.186690E+04  1.077274E-09  1.322342E-10
        58  15 -4.056432E+04 -2.847473E+04 -3.538494E+04 -4.823714E+04  1.280422E-11 -5.730023E-11
        58  16 -5.563446E+05 -1.258135E+05 -1.304236E+05 -4.401230E+04  5.112934E-11  4.661806E-10
        58  17 -6.393340E+05 -1.462247E+05 -1.574825E+05 -2.506453E+04 -1.011764E-09  4.547056E-11
        58  18 -7.331615E+05 -2.010990E+05 -2.055549E+05 -5.886156E+04  9.925341E-10  1.109154E-10
        58  19  4.755142E+05  1.289054E+05  1.112285E+05 -5.247040E+04 -1.418798E+04  2.010010E+04
        58  20  5.675458E+05  1.518682E+05  1.260615E+05 -1.866634E+04 -1.191556E+04  2.238857E+04
        58  21  6.524702E+05  1.441144E+05  1.347500E+05 -3.760089E+04 -9.640908E+03  7.537903E+03
        58  22 -4.053784E+04  1.555579E+03 -9.588172E+03 -4.823960E+04 -7.402733E+03  2.009850E+04
        58  23 -3.606151E+04  2.835034E+03 -1.569722E+04 -2.186718E+04 -1.582679E+04  2.239040E+04
        58  24 -4.056368E+04 -2.847451E+04 -3.538373E+04 -4.823728E+04 -2.424863E+04  7.535741E+03
        58  25 -5.563445E+05 -1.258130E+05 -1.304229E+05 -4.401231E+04 -6.230857E+02  2.009698E+04
        58  26 -6.393335E+05 -1.462240E+05 -1.574809E+05 -2.506488E+04 -1.973424E+04  2.239228E+04
        58  27 -7.331599E+05 -2.010985E+05 -2.055519E+05 -5.886180E+04 -3.884008E+04  7.534080E+03
        59   1  9.298402E+05  2.934123E+06  8.954663E+05 -9.616363E+05  3.641147E+04  2.429953E+05
        59   2  6.398071E+05  2.032500E+06  5.593794E+05 -8.423744E+05  1.117937E+05  7.287849E+04
        59   3  4.152877E+05  1.168730E+06  3.499367E+05 -9.123533E+05  1.015992E+05 -9.731935E+04
        59   4  7.165395E+04 -5.353913E+05  7.171195E+04 -9.065048E+05  3.756305E+04  3.967510E+04
        59   5  2.209356E+04 -5.404272E+05  4.295769E+04 -8.120443E+05  1.121556E+05  1.815042E+04
        59   6  1.250409E+04 -5.339326E+05  3.803718E+04 -9.068368E+05  1.010215E+05 -3.703921E+03
        59   7 -7.873672E+05 -3.993789E+06 -7.527270E+05 -8.516597E+05  3.868256E+04 -1.625190E+05
        59   8 -5.960239E+05 -3.107042E+06 -4.737896E+05 -7.818293E+05  1.125132E+05 -3.635594E+04
        59   9 -3.904392E+05 -2.233763E+06 -2.739477E+05 -9.013297E+05  1.004445E+05  8.966198E+04
        59  10  9.298230E+05  2.934060E+06  8.953533E+05 -9.616434E+05 -3.263855E-10 -1.233030E-09
        59  11  6.397922E+05  2.032490E+06  5.593459E+05 -8.423809E+05 -3.143076E-09  8.634796E-10
        59  12  4.152741E+05  1.168717E+06  3.498996E+05 -9.123454E+05  1.574455E-09  4.960919E-09
        59  13  7.165201E+04 -5.353934E+05  7.170633E+04 -9.065060E+05  1.056778E-09 -2.185224E-10
        59  14  2.207997E+04 -5.404310E+05  4.293343E+04 -8.120459E+05 -1.309918E-09 -2.621754E-09
        59  15  1.249314E+04 -5.339354E+05  3.801798E+04 -9.068365E+05  3.595282E-09 -7.897908E-10
        59  16 -7.873760E+05 -3.993818E+06 -7.527797E+05 -8.516546E+05 -9.123776E-10 -2.008689E-10
        59  17 -5.960378E+05 -3.107047E+06 -4.738159E+05 -7.818260E+05  4.729984E-09  1.537325E-09
        59  18 -3.904522E+05 -2.233775E+06 -2.739819E+05 -9.013370E+05  3.930897E-10 -3.221942E-09
        59  19  9.298402E+05  2.934123E+06  8.954663E+05 -9.616363E+05 -3.641147E+04 -2.429953E+05
        59  20  6.398071E+05  2.032500E+06  5.593794E+05 -8.423744E+05 -1.117937E+05 -7.287849E+04
        59  21  4.152877E+05  1.168730E+06  3.499367E+05 -9.123533E+05 -1.015992E+05  9.731935E+04
        59  22  7.165395E+04 -5.353913E+05  7.171195E+04 -9.065048E+05 -3.756305E+04 -3.967510E+04
        59  23  2.209356E+04 -5.404272E+05  4.295769E+04 -8.120443E+05 -1.121556E+05 -1.815042E+04
        59  24  1.250409E+04 -5.339326E+05  3.803718E+04 -9.068368E+05 -1.010215E+05  3.703921E+03
        59  25 -7.873672E+05 -3.993789E+06 -7.527270E+05 -8.516597E+05 -3.868256E+04  1.625190E+05
        59  26 -5.960239E+05 -3.107042E+06 -4.737896E+05 -7.818293E+05 -1.125132E+05  3.635594E+04
        59  27 -3.904392E+05 -2.233763E+06 -2.739477E+05 -9.013297E+05 -1.004445E+05 -8.966198E+04
        60   1  2.796423E+05  5.907017E+05  2.462837E+05 -9.173482E+05  6.787629E+04 -9.592023E+04
        60   2  7.003516E+04 -2.939177E+05  9.686327E+04 -8.098521E+05  1.806629E+04 -1.255228E+05
        60   3 -1.229083E+05 -1.172064E+06 -2.977653E+04 -8.969431E+05 -3.276576E+04 -1.551011E+05
        60   4  1.327051E+04 -5.349860E+05  4.050774E+04 -9.079945E+05  6.732343E+04 -1.036712E+04
        60   5  1.298802E+04 -5.376035E+05  5.529709E+04 -8.106555E+05  1.749625E+04 -3.825202E+04
        60   6  2.910060E+04 -5.348318E+05  9.165183E+04 -9.078952E+05 -3.335388E+04 -6.615198E+04
        60   7 -2.531689E+05 -1.659427E+06 -1.652921E+05 -8.986555E+05  6.677252E+04  7.503514E+04
        60   8 -4.405818E+04 -7.812144E+05  1.375759E+04 -8.114586E+05  1.692584E+04  4.898561E+04
        60   9  1.810902E+05  1.028098E+05  2.130917E+05 -9.188580E+05 -3.394477E+04  2.288646E+04
        60  10  2.796349E+05  5.906906E+05  2.462578E+05 -9.173430E+05  6.621642E-10 -2.350448E-09
        60  11  7.003058E+04 -2.939347E+05  9.683305E+04 -8.098503E+05  5.135041E-10 -1.718239E-09
        60  12 -1.229159E+05 -1.172090E+06 -2.982387E+04 -8.969472E+05 -8.101628E-12  2.677241E-09
        60  13  1.326562E+04 -5.349874E+05  4.049903E+04 -9.079940E+05  1.971127E-09  2.470867E-10
        60  14  1.298730E+04 -5.376051E+05  5.529377E+04 -8.106550E+05 -4.622270E-09 -2.999139E-09
        60  15  2.909822E+04 -5.348368E+05  9.164149E+04 -9.078970E+05 -3.099045E-10 -8.537695E-10
        60  16 -2.531753E+05 -1.659434E+06 -1.653111E+05 -8.986596E+05  1.699034E-09  1.102953E-09
        60  17 -4.405914E+04 -7.812171E+05  1.375253E+04 -8.114593E+05 -2.038000E-10  2.990279E-09
        60  18  1.810888E+05  1.028089E+05  2.130886E+05 -9.188574E+05  2.170490E-09 -1.216748E-09
        60  19  2.796423E+05  5.907017E+05  2.462837E+05 -9.173482E+05 -6.787629E+04  9.592023E+04
        60  20  7.003516E+04 -2.939177E+05  9.686327E+04 -8.098521E+05 -1.806629E+04  1.255228E+05
        60  21 -1.229083E+05 -1.172064E+06 -2.977653E+04 -8.969431E+05  3.276576E+04  1.551011E+05
        60  22  1.327051E+04 -5.349860E+05  4.050774E+04 -9.079945E+05 -6.732343E+04  1.036712E+04
        60  23  1.298802E+04 -5.376035E+05  5.529709E+04 -8.106555E+05 -1.749625E+04  3.825202E+04
        60  24  2.910060E+04 -5.348318E+05  9.165183E+04 -9.078952E+05  3.335388E+04  6.615198E+04
        60  25 -2.531689E+05 -1.659427E+06 -1.652921E+05 -8.986555E+05 -6.677252E+04 -7.503514E+04
        60  26 -4.405818E+04 -7.812144E+05  1.375759E+04 -8.114586E+05 -1.692584E+04 -4.898561E+04
        60  27  1.810902E+05  1.028098E+05  2.130917E+05 -9.188580E+05  3.394477E+04 -2.288646E+04
        61   1 -2.633372E+05 -1.733463E+06 -1.084932E+05 -9.215588E+05 -6.696743E+04 -1.776198E+05
        61   2 -4.048792E+05 -2.636290E+06 -2.128089E+05 -6.897094E+05 -8.549485E+04 -1.579387E+05
        61   3 -3.417536E+05 -3.491159E+06 -2.791769E+05 -6.476445E+05 -2.956936E+04 -1.379612E+05
        61   4  2.460650E+04 -5.208586E+05  1.182969E+05 -9.070384E+05 -6.759005E+04 -8.201829E+04
        61   5  9.840156E+04 -5.560005E+05  2.112567E+05 -8.111880E+05 -8.524205E+04 -1.908549E+05
        61   6  3.987584E+05 -5.219441E+05  4.313217E+05 -9.049046E+05 -2.856440E+04 -2.993806E+05
        61   7  3.124712E+05  6.931924E+05  3.450585E+05 -8.924857E+05 -6.820743E+04  1.376572E+04
        61   8  6.014635E+05  1.528448E+06  6.351057E+05 -9.330742E+05 -8.497688E+04 -2.238789E+05
        61   9  1.138882E+06  2.455574E+06  1.141328E+06 -1.163390E+06 -2.742816E+04 -4.615693E+05
        61  10 -2.633506E+05 -1.733498E+06 -1.085612E+05 -9.215684E+05  1.051067E-09  3.238547E-08
        61  11 -4.048938E+05 -2.636319E+06 -2.128698E+05 -6.897203E+05  2.396435E-09  1.221011E-09
        61  12 -3.417597E+05 -3.491180E+06 -2.792145E+05 -6.476478E+05  1.393030E-09 -2.802757E-08
        61  13  2.459977E+04 -5.208670E+05  1.182756E+05 -9.070428E+05  1.652640E-09 -9.891867E-11
        61  14  9.838394E+04 -5.560416E+05  2.111745E+05 -8.112011E+05 -3.911054E-09 -2.954340E-09
        61  15  3.987334E+05 -5.220406E+05  4.311516E+05 -9.049115E+05  1.384205E-09 -9.349793E-10
        61  16  3.124662E+05  6.931909E+05  3.450495E+05 -8.924849E+05 -2.615994E-10 -3.345834E-08
        61  17  6.014423E+05  1.528393E+06  6.349981E+05 -9.330895E+05  3.711088E-09  3.860510E-10
        61  18  1.138824E+06  2.455346E+06  1.140927E+06 -1.163400E+06  6.818852E-10  2.970198E-08
        61  19 -2.633372E+05 -1.733463E+06 -1.084932E+05 -9.215588E+05  6.696743E+04  1.776198E+05
        61  20 -4.048792E+05 -2.636290E+06 -2.128089E+05 -6.897094E+05  8.549485E+04  1.579387E+05
        61  21 -3.417536E+05 -3.491159E+06 -2.791769E+05 -6.476445E+05  2.956936E+04  1.379612E+05
        61  22  2.460650E+04 -5.208586E+05  1.182969E+05 -9.070384E+05  6.759005E+04  8.201829E+04
        61  23  9.840156E+04 -5.560005E+05  2.112567E+05 -8.111880E+05  8.524205E+04  1.908549E+05
        61  24  3.987584E+05 -5.219441E+05  4.313217E+05 -9.049046E+05  2.856440E+04  2.993806E+05
        61  25  3.124712E+05  6.931924E+05  3.450585E+05 -8.924857E+05  6.820743E+04 -1.376572E+04
        61  26  6.014635E+05  1.528448E+06  6.351057E+05 -9.330742E+05  8.497688E+04  2.238789E+05
        61  27  1.138882E+06  2.455574E+06  1.141328E+06 -1.163390E+06  2.742816E+04  4.615693E+05
        62   1 -3.278025E+06 -1.249774E+06 -6.934853E+05 -1.144439E+06 -1.992783E+05 -2.323306E+04
        62   2 -3.062158E+06 -1.193699E+06 -5.467880E+05 -1.072769E+06 -1.328459E+05  1.237308E+05
        62   3 -2.818366E+06 -1.153235E+06 -4.741254E+05 -1.049192E+06 -3.655315E+04  1.921947E+05
        62   4 -2.458759E+05 -1.475238E+05  8.220070E+04 -3.524969E+05  3.568734E+04  6.576590E+04
        62   5 -2.767723E+05 -1.841804E+05  3.789459E+04 -3.163085E+05 -2.426729E+04  1.647198E+05
        62   6 -2.546537E+05 -2.113791E+05  2.011695E+04 -3.282102E+05 -5.447803E+04  1.853449E+05
        62   7  2.795275E+06  9.551777E+05  8.573539E+05  4.428978E+05  2.719111E+05  1.552016E+05
        62   8  2.516564E+06  8.259267E+05  6.221983E+05  4.432655E+05  8.483812E+04  2.059001E+05
        62   9  2.315958E+06  7.311136E+05  5.140872E+05  3.955633E+05 -7.248312E+04  1.784648E+05
        62  10 -3.278068E+06 -1.249785E+06 -6.935614E+05 -1.144442E+06  2.986190E-08  8.328654E-09
        62  11 -3.062181E+06 -1.193721E+06 -5.468500E+05 -1.072756E+06  5.442415E-09 -8.471392E-10
        62  12 -2.818377E+06 -1.153275E+06 -4.741974E+05 -1.049186E+06 -2.277837E-08 -1.120191E-08
        62  13 -2.458784E+05 -1.475288E+05  8.219017E+04 -3.524988E+05  3.056978E-09  2.457675E-11
        62  14 -2.767802E+05 -1.842096E+05  3.784250E+04 -3.163053E+05  4.419378E-09  1.524102E-09
        62  15 -2.546661E+05 -2.114168E+05  2.004682E+04 -3.282020E+05  4.611380E-09 -1.347861E-09
        62  16  2.795190E+06  9.551321E+05  8.571704E+05  4.428639E+05 -2.376578E-08 -1.002449E-08
        62  17  2.516545E+06  8.258793E+05  6.221052E+05  4.432515E+05  2.629069E-09 -1.193168E-09
        62  18  2.315944E+06  7.310780E+05  5.140175E+05  3.955737E+05  2.529923E-08  8.203717E-09
        62  19 -3.278025E+06 -1.249774E+06 -6.934853E+05 -1.144439E+06  1.992783E+05  2.323306E+04
        62  20 -3.062158E+06 -1.193699E+06 -5.467880E+05 -1.072769E+06  1.328459E+05 -1.237308E+05
        62  21 -2.818366E+06 -1.153235E+06 -4.741254E+05 -1.049192E+06  3.655315E+04 -1.921947E+05
        62  22 -2.458759E+05 -1.475238E+05  8.220070E+04 -3.524969E+05 -3.568734E+04 -6.576590E+04
        62  23 -2.767723E+05 -1.841804E+05  3.789459E+04 -3.163085E+05  2.426729E+04 -1.647198E+05
        62  24 -2.546537E+05 -2.113791E+05  2.011695E+04 -3.282102E+05  5.447803E+04 -1.853449E+05
        62  25  2.795275E+06  9.551777E+05  8.573539E+05  4.428978E+05 -2.719111E+05 -1.552016E+05
        62  26  2.516564E+06  8.259267E+05  6.221983E+05  4.432655E+05 -8.483812E+04 -2.059001E+05
        62  27  2.315958E+06  7.311136E+05  5.140872E+05  3.955633E+05  7.248312E+04 -1.784648E+05
        63   1 -2.678844E+06 -1.094479E+06 -4.476889E+05 -1.006146E+06 -4.751780E+04  1.795172E+05
        63   2 -2.481441E+06 -9.972996E+05 -4.035476E+05 -9.247689E+05 -3.847032E+04  1.746925E+05
        63   3 -2.246940E+06 -9.368565E+05 -3.638190E+05 -8.857574E+05 -2.704516E+04  1.634962E+05
        63   4 -2.561323E+05 -2.109869E+05  1.518304E+04 -3.307317E+05 -5.394755E+04  1.770159E+05
        63   5 -2.756498E+05 -1.946515E+05  7.911111E+03 -3.090920E+05 -5.517278E+04  1.683346E+05
        63   6 -2.560869E+05 -2.130093E+05  4.381222E+03 -3.298251E+05 -5.402734E+04  1.532935E+05
        63   7  2.172712E+06  6.730438E+05  4.778084E+05  3.471384E+05 -6.040455E+04  1.745047E+05
        63   8  1.935237E+06  6.084483E+05  4.191789E+05  3.086236E+05 -7.193903E+04  1.619528E+05
        63   9  1.738913E+06  5.112053E+05  3.724295E+05  2.277672E+05 -8.110213E+04  1.430560E+05
        63  10 -2.678855E+06 -1.094514E+06 -4.477537E+05 -1.006139E+06 -1.054005E-09 -8.323861E-10
        63  11 -2.481451E+06 -9.973328E+05 -4.036078E+05 -9.247635E+05 -4.979163E-10 -4.567898E-10
        63  12 -2.246948E+06 -9.368854E+05 -3.638706E+05 -8.857538E+05 -5.228075E-09 -4.117123E-10
        63  13 -2.561438E+05 -2.110213E+05  1.511870E+04 -3.307240E+05  1.136060E-10 -2.885420E-09
        63  14 -2.756607E+05 -1.946827E+05  7.852152E+03 -3.090845E+05  6.724811E-10 -1.034225E-09
        63  15 -2.560964E+05 -2.130353E+05  4.331588E+03 -3.298184E+05  1.285487E-09  6.331678E-10
        63  16  2.172700E+06  6.730101E+05  4.777443E+05  3.471469E+05 -1.694187E-09  1.057964E-09
        63  17  1.935224E+06  6.084187E+05  4.191199E+05  3.086330E+05  2.167488E-09 -2.133616E-09
        63  18  1.738900E+06  5.111816E+05  3.723787E+05  2.277766E+05  3.077070E-09  2.041176E-09
        63  19 -2.678844E+06 -1.094479E+06 -4.476889E+05 -1.006146E+06  4.751780E+04 -1.795172E+05
        63  20 -2.481441E+06 -9.972996E+05 -4.035476E+05 -9.247689E+05  3.847032E+04 -1.746925E+05
        63  21 -2.246940E+06 -9.368565E+05 -3.638190E+05 -8.857574E+05  2.704516E+04 -1.634962E+05
        63  22 -2.561323E+05 -2.109869E+05  1.518304E+04 -3.307317E+05  5.394755E+04 -1.770159E+05
        63  23 -2.756498E+05 -1.946515E+05  7.911111E+03 -3.090920E+05  5.517278E+04 -1.683346E+05
        63  24 -2.560869E+05 -2.130093E+05  4.381222E+03 -3.298251E+05  5.402734E+04 -1.532935E+05
        63  25  2.172712E+06  6.730438E+05  4.778084E+05  3.471384E+05  6.040455E+04 -1.745047E+05
        63  26  1.935237E+06  6.084483E+05  4.191789E+05  3.086236E+05  7.193903E+04 -1.619528E+05
        63  27  1.738913E+06  5.112053E+05  3.724295E+05  2.277672E+05  8.110213E+04 -1.430560E+05
        64   1 -2.104964E+06 -8.842579E+05 -3.372739E+05 -8.458554E+05 -2.485270E+04  1.530986E+05
        64   2 -1.907645E+06 -7.864028E+05 -2.986211E+05 -7.639420E+05 -1.865566E+04  1.366600E+05
        64   3 -1.672519E+06 -7.258723E+05 -2.598574E+05 -7.246112E+05 -1.228459E+04  1.196883E+05
        64   4 -2.561486E+05 -2.128878E+05  3.262758E+03 -3.300816E+05 -5.092938E+04  1.432508E+05
        64   5 -2.749390E+05 -1.940168E+05  1.723405E+03 -3.088388E+05 -4.559239E+04  1.265096E+05
        64   6 -2.558150E+05 -2.123016E+05  9.669928E+02 -3.301920E+05 -4.008171E+04  1.092361E+05
        64   7  1.596280E+06  4.588118E+05  3.436800E+05  1.871317E+05 -7.708960E+04  1.333716E+05
        64   8  1.360579E+06  3.986234E+05  3.019744E+05  1.473841E+05 -7.260518E+04  1.163306E+05
        64   9  1.163000E+06  3.014576E+05  2.617201E+05  6.506728E+04 -6.794677E+04  9.875847E+04
        64  10 -2.104971E+06 -8.842832E+05 -3.373191E+05 -8.458524E+05  1.849509E-09  2.179723E-10
        64  11 -1.907651E+06 -7.864230E+05 -2.986568E+05 -7.639399E+05 -1.804541E-09 -9.998143E-10
        64  12 -1.672523E+06 -7.258878E+05 -2.598846E+05 -7.246100E+05 -3.447946E-09  1.403713E-09
        64  13 -2.561569E+05 -2.129105E+05  3.219330E+03 -3.300757E+05 -1.218298E-09 -5.912210E-10
        64  14 -2.749455E+05 -1.940346E+05  1.689430E+03 -3.088342E+05 -1.225014E-09 -1.033954E-09
        64  15 -2.558199E+05 -2.123148E+05  9.415557E+02 -3.301885E+05 -8.727603E-10  2.638693E-10
        64  16  1.596269E+06  4.587911E+05  3.436354E+05  1.871400E+05 -2.524540E-09  9.760878E-10
        64  17  1.360570E+06  3.986075E+05  3.019390E+05  1.473909E+05 -8.203451E-10 -4.544026E-10
        64  18  1.162992E+06  3.014459E+05  2.616931E+05  6.507268E+04  1.640448E-09 -1.430627E-09
        64  19 -2.104964E+06 -8.842579E+05 -3.372739E+05 -8.458554E+05  2.485270E+04 -1.530986E+05
        64  20 -1.907645E+06 -7.864028E+05 -2.986211E+05 -7.639420E+05  1.865566E+04 -1.366600E+05
        64  21 -1.672519E+06 -7.258723E+05 -2.598574E+05 -7.246112E+05  1.228459E+04 -1.196883E+05
        64  22 -2.561486E+05 -2.128878E+05  3.262758E+03 -3.300816E+05  5.092938E+04 -1.432508E+05
        64  23 -2.749390E+05 -1.940168E+05  1.723405E+03 -3.088388E+05  4.559239E+04 -1.265096E+05
        64  24 -2.558150E+05 -2.123016E+05  9.669928E+02 -3.301920E+05  4.008171E+04 -1.092361E+05
        64  25  1.596280E+06  4.588118E+05  3.436800E+05  1.871317E+05  7.708960E+04 -1.333716E+05
        64  26  1.360579E+06  3.986234E+05  3.019744E+05  1.473841E+05  7.260518E+04 -1.163306E+05
        64  27  1.163000E+06  3.014576E+05  2.617201E+05  6.506728E+04  6.794677E+04 -9.875847E+04
        65   1 -1.530015E+06 -6.737655E+05 -2.327313E+05 -6.849458E+05 -8.710026E+03  1.095786E+05
        65   2 -1.331919E+06 -5.762259E+05 -1.937782E+05 -6.030646E+05 -2.317880E+03  9.234040E+04
        65   3 -1.096192E+06 -5.160463E+05 -1.547204E+05 -5.639743E+05  4.076529E+03  7.504924E+04
        65   4 -2.557853E+05 -2.122067E+05  6.958686E+02 -3.302547E+05 -3.645194E+04  9.915763E+04
        65   5 -2.744746E+05 -1.933137E+05  3.117702E+02 -3.089002E+05 -3.014602E+04  8.190093E+04
        65   6 -2.555691E+05 -2.117663E+05  9.473411E+01 -3.303524E+05 -2.383781E+04  6.459132E+04
        65   7  1.020141E+06  2.495004E+05  2.340636E+05  2.511274E+04 -6.425452E+04  8.871390E+04
        65   8  7.841464E+05  1.897035E+05  1.943638E+05 -1.426823E+04 -5.802486E+04  7.144247E+04
        65   9  5.858047E+05  9.258287E+04  1.548890E+05 -9.643319E+04 -5.179282E+04  5.411817E+04
        65  10 -1.530019E+06 -6.737784E+05 -2.327540E+05 -6.849451E+05  4.785007E-08  2.027380E-08
        65  11 -1.331921E+06 -5.762351E+05 -1.937942E+05 -6.030645E+05  4.161067E-09  1.104499E-09
        65  12 -1.096193E+06 -5.160524E+05 -1.547310E+05 -5.639746E+05 -6.682176E-08 -2.737416E-08
        65  13 -2.557893E+05 -2.122176E+05  6.748994E+02 -3.302518E+05  8.288790E-09  3.529487E-09
        65  14 -2.744773E+05 -1.933211E+05  2.974603E+02 -3.088982E+05  1.413930E-08  3.733910E-09
        65  15 -2.555708E+05 -2.117709E+05  8.582811E+01 -3.303512E+05 -8.946233E-09 -9.542367E-09
        65  16  1.020135E+06  2.494908E+05  2.340411E+05  2.511733E+04 -3.073687E-08 -1.149211E-08
        65  17  7.841414E+05  1.896971E+05  1.943479E+05 -1.426489E+04  2.810876E-08  1.594565E-08
        65  18  5.858011E+05  9.257901E+04  1.548785E+05 -9.643094E+04  4.997075E-08  2.515897E-08
        65  19 -1.530015E+06 -6.737655E+05 -2.327313E+05 -6.849458E+05  8.710026E+03 -1.095786E+05
        65  20 -1.331919E+06 -5.762259E+05 -1.937782E+05 -6.030646E+05  2.317880E+03 -9.234040E+04
        65  21 -1.096192E+06 -5.160463E+05 -1.547204E+05 -5.639743E+05 -4.076529E+03 -7.504924E+04
        65  22 -2.557853E+05 -2.122067E+05  6.958686E+02 -3.302547E+05  3.645194E+04 -9.915763E+04
        65  23 -2.744746E+05 -1.933137E+05  3.117702E+02 -3.089002E+05  3.014602E+04 -8.190093E+04
        65  24 -2.555691E+05 -2.117663E+05  9.473411E+01 -3.303524E+05  2.383781E+04 -6.459132E+04
        65  25  1.020141E+06  2.495004E+05  2.340636E+05  2.511274E+04  6.425452E+04 -8.871390E+04
        65  26  7.841464E+05  1.897035E+05  1.943638E+05 -1.426823E+04  5.802486E+04 -7.144247E+04
        65  27  5.858047E+05  9.258287E+04  1.548890E+05 -9.643319E+04  5.179282E+04 -5.411817E+04
        66   1 -9.533183E+05 -4.640611E+05 -1.274297E+05 -5.243597E+05  7.846066E+03  6.498663E+04
        66   2 -7.547133E+05 -3.667269E+05 -8.836832E+04 -4.424946E+05  1.442914E+04  4.775186E+04
        66   3 -5.186228E+05 -3.067792E+05 -4.937569E+04 -4.035335E+05  2.099985E+04  3.052824E+04
        66   4 -2.555484E+05 -2.117108E+05 -1.813428E+01 -3.303816E+05 -2.007808E+04  5.453101E+04
        66   5 -2.742124E+05 -1.929093E+05 -2.583542E+02 -3.089446E+05 -1.347969E+04  3.730827E+04
        66   6 -2.554464E+05 -2.115008E+05 -5.833282E+02 -3.304287E+05 -6.893720E+03  2.009674E+04
        66   7  4.427346E+05  4.068553E+04  1.273791E+05 -1.362000E+05 -4.803576E+04  4.406283E+04
        66   8  2.065303E+05 -1.907063E+04  8.784580E+04 -1.752986E+05 -4.141145E+04  2.685608E+04
        66   9  7.801608E+03 -1.162164E+05  4.820901E+04 -2.572953E+05 -3.479966E+04  9.660606E+03
        66  10 -9.533195E+05 -4.640657E+05 -1.274377E+05 -5.243601E+05 -1.835220E-10  8.657440E-11
        66  11 -7.547142E+05 -3.667294E+05 -8.837300E+04 -4.424951E+05  7.849557E-09  5.672307E-09
        66  12 -5.186235E+05 -3.067803E+05 -4.937827E+04 -4.035340E+05  2.445331E-09  3.046864E-09
        66  13 -2.555497E+05 -2.117141E+05 -2.447852E+01 -3.303808E+05 -1.339787E-08 -1.350886E-08
        66  14 -2.742129E+05 -1.929109E+05 -2.613107E+02 -3.089442E+05 -1.319558E-09 -4.865625E-09
        66  15 -2.554466E+05 -2.115013E+05 -5.841763E+02 -3.304286E+05 -1.206247E-10 -1.074691E-09
        66  16  4.427316E+05  4.068283E+04  1.273711E+05 -1.361983E+05 -3.114434E-08 -8.615524E-09
        66  17  2.065282E+05 -1.907186E+04  8.784122E+04 -1.752977E+05 -9.722276E-09 -6.805082E-09
        66  18  7.800283E+03 -1.162168E+05  4.820656E+04 -2.572950E+05  3.061951E-09 -2.625746E-09
        66  19 -9.533183E+05 -4.640611E+05 -1.274297E+05 -5.243597E+05 -7.846066E+03 -6.498663E+04
        66  20 -7.547133E+05 -3.667269E+05 -8.836832E+04 -4.424946E+05 -1.442914E+04 -4.775186E+04
        66  21 -5.186228E+05 -3.067792E+05 -4.937569E+04 -4.035335E+05 -2.099985E+04 -3.052824E+04
        66  22 -2.555484E+05 -2.117108E+05 -1.813428E+01 -3.303816E+05  2.007808E+04 -5.453101E+04
        66  23 -2.742124E+05 -1.929093E+05 -2.583542E+02 -3.089446E+05  1.347969E+04 -3.730827E+04
        66  24 -2.554464E+05 -2.115008E+05 -5.833282E+02 -3.304287E+05  6.893720E+03 -2.009674E+04
        66  25  4.427346E+05  4.068553E+04  1.273791E+05 -1.362000E+05  4.803576E+04 -4.406283E+04
        66  26  2.065303E+05 -1.907063E+04  8.784580E+04 -1.752986E+05  4.141145E+04 -2.685608E+04
        66  27  7.801608E+03 -1.162164E+05  4.820901E+04 -2.572953E+05  3.479966E+04 -9.660606E+03
        67   1 -3.755333E+05 -2.548550E+05 -2.218166E+04 -3.639250E+05  2.492001E+04  2.052726E+04
        67   2 -1.767079E+05 -1.576362E+05  1.653476E+04 -2.820293E+05  3.169922E+04  3.516480E+03
        67   3  5.952120E+04 -9.781569E+04  5.498181E+04 -2.430560E+05  3.838339E+04 -1.323642E+04
        67   4 -2.554667E+05 -2.114814E+05 -8.181142E+02 -3.304446E+05 -3.016481E+03  1.008121E+04
        67   5 -2.741134E+05 -1.927822E+05 -1.552673E+03 -3.089587E+05  4.173966E+03 -6.777148E+03
        67   6 -2.554931E+05 -2.115709E+05 -2.886408E+03 -3.304173E+05  1.126921E+04 -2.337756E+04
        67   7 -1.353820E+05 -1.681053E+05  2.054863E+04 -2.969573E+05 -3.095899E+04 -3.671102E+02
        67   8 -3.715077E+05 -2.279270E+05 -1.963736E+04 -3.358839E+05 -2.334681E+04 -1.706911E+04
        67   9 -5.704019E+05 -3.253165E+05 -6.075518E+04 -4.177369E+05 -1.583030E+04 -3.351322E+04
        67  10 -3.755341E+05 -2.548556E+05 -2.218362E+04 -3.639254E+05 -1.002648E-09  1.091774E-09
        67  11 -1.767090E+05 -1.576364E+05  1.653285E+04 -2.820294E+05  9.075598E-09  3.503391E-09
        67  12  5.951957E+04 -9.781628E+04  5.497871E+04 -2.430556E+05  9.203618E-09  2.453195E-09
        67  13 -2.554668E+05 -2.114815E+05 -8.183222E+02 -3.304445E+05  4.223400E-09  6.624128E-10
        67  14 -2.741134E+05 -1.927823E+05 -1.552792E+03 -3.089587E+05  6.408141E-09  1.150322E-09
        67  15 -2.554934E+05 -2.115716E+05 -2.887674E+03 -3.304170E+05  3.480243E-09  1.652312E-09
        67  16 -1.353830E+05 -1.681056E+05  2.054683E+04 -2.969573E+05  8.142677E-09  4.471559E-10
        67  17 -3.715084E+05 -2.279275E+05 -1.963893E+04 -3.358843E+05  6.614249E-09 -9.711932E-11
        67  18 -5.704025E+05 -3.253178E+05 -6.075777E+04 -4.177373E+05 -2.721721E-09 -3.208636E-10
        67  19 -3.755333E+05 -2.548550E+05 -2.218166E+04 -3.639250E+05 -2.492001E+04 -2.052726E+04
        67  20 -1.767079E+05 -1.576362E+05  1.653476E+04 -2.820293E+05 -3.169922E+04 -3.516480E+03
        67  21  5.952120E+04 -9.781569E+04  5.498181E+04 -2.430560E+05 -3.838339E+04  1.323642E+04
        67  22 -2.554667E+05 -2.114814E+05 -8.181142E+02 -3.304446E+05  3.016481E+03 -1.008121E+04
        67  23 -2.741134E+05 -1.927822E+05 -1.552673E+03 -3.089587E+05 -4.173966E+03  6.777148E+03
        67  24 -2.554931E+05 -2.115709E+05 -2.886408E+03 -3.304173E+05 -1.126921E+04  2.337756E+04
        67  25 -1.353820E+05 -1.681053E+05  2.054863E+04 -2.969573E+05  3.095899E+04  3.671102E+02
        67  26 -3.715077E+05 -2.279270E+05 -1.963736E+04 -3.358839E+05  2.334681E+04  1.706911E+04
        67  27 -5.704019E+05 -3.253165E+05 -6.075518E+04 -4.177369E+05  1.583030E+04  3.351322E+04
        68   1  2.028105E+05 -4.595788E+04  8.158660E+04 -2.036187E+05  4.311421E+04 -2.282127E+04
        68   2  4.010354E+05  5.152242E+04  1.196844E+05 -1.210308E+05  4.732483E+04 -3.885760E+04
        68   3  6.364868E+05  1.109380E+05  1.587248E+05 -8.081355E+04  5.034947E+04 -5.170639E+04
        68   4 -2.557059E+05 -2.115143E+05 -3.855941E+03 -3.304602E+05  1.553089E+04 -3.314076E+04
        68   5 -2.740281E+05 -1.933464E+05 -7.099470E+03 -3.087696E+05  2.489207E+04 -4.725818E+04
        68   6 -2.561912E+05 -2.142712E+05 -1.348093E+04 -3.294719E+05  3.306713E+04 -5.818592E+04
        68   7 -7.139967E+05 -3.770495E+05 -8.930222E+04 -4.572131E+05 -1.203041E+04 -4.345206E+04
        68   8 -9.486148E+05 -4.381731E+05 -1.338993E+05 -4.963185E+05  2.485376E+03 -5.564899E+04
        68   9 -1.148049E+06 -5.394111E+05 -1.857223E+05 -5.778007E+05  1.581121E+04 -6.465548E+04
        68  10  2.028084E+05 -4.595894E+04  8.158213E+04 -2.036179E+05  2.647327E-08  1.061956E-08
        68  11  4.010326E+05  5.152020E+04  1.196773E+05 -1.210294E+05  9.200151E-09  4.317287E-09
        68  12  6.364834E+05  1.109344E+05  1.587150E+05 -8.081145E+04 -1.877877E-08 -6.885548E-09
        68  13 -2.557065E+05 -2.115155E+05 -3.858457E+03 -3.304598E+05  4.676714E-10  1.028164E-09
        68  14 -2.740294E+05 -1.933490E+05 -7.104829E+03 -3.087687E+05  3.632747E-09  2.782819E-09
        68  15 -2.561933E+05 -2.142751E+05 -1.348934E+04 -3.294704E+05 -1.450420E-09  1.159741E-09
        68  16 -7.139973E+05 -3.770515E+05 -8.930605E+04 -4.572135E+05 -2.199357E-08 -6.907121E-09
        68  17 -9.486157E+05 -4.381764E+05 -1.339052E+05 -4.963184E+05  2.213602E-09  3.567038E-09
        68  18 -1.148051E+06 -5.394157E+05 -1.857306E+05 -5.777999E+05  2.158105E-08  9.772446E-09
        68  19  2.028105E+05 -4.595788E+04  8.158660E+04 -2.036187E+05 -4.311421E+04  2.282127E+04
        68  20  4.010354E+05  5.152242E+04  1.196844E+05 -1.210308E+05 -4.732483E+04  3.885760E+04
        68  21  6.364868E+05  1.109380E+05  1.587248E+05 -8.081355E+04 -5.034947E+04  5.170639E+04
        68  22 -2.557059E+05 -2.115143E+05 -3.855941E+03 -3.304602E+05 -1.553089E+04  3.314076E+04
        68  23 -2.740281E+05 -1.933464E+05 -7.099470E+03 -3.087696E+05 -2.489207E+04  4.725818E+04
        68  24 -2.561912E+05 -2.142712E+05 -1.348093E+04 -3.294719E+05 -3.306713E+04  5.818592E+04
        68  25 -7.139967E+05 -3.770495E+05 -8.930222E+04 -4.572131E+05  1.203041E+04  4.345206E+04
        68  26 -9.486148E+05 -4.381731E+05 -1.338993E+05 -4.963185E+05 -2.485376E+03  5.564899E+04
        68  27 -1.148049E+06 -5.394111E+05 -1.857223E+05 -5.778007E+05 -1.581121E+04  6.465548E+04
        69   1  7.825834E+05  1.615636E+05  1.838311E+05 -4.553722E+04  6.147265E+04 -5.755744E+04
        69   2  9.665276E+05  2.654003E+05  2.328335E+05  5.504795E+04  1.340877E+04 -6.936923E+04
        69   3  1.182655E+06  3.097659E+05  3.091540E+05  1.242511E+05 -4.944825E+04 -4.185360E+04
        69   4 -2.587383E+05 -2.130279E+05 -1.782339E+04 -3.302748E+05  3.837827E+04 -6.621869E+04
        69   5 -2.725764E+05 -2.052805E+05 -3.380929E+04 -3.040032E+05  5.404319E+04 -5.415267E+04
        69   6 -2.669082E+05 -2.696703E+05 -7.294916E+04 -3.091377E+05  5.491698E+04 -2.709715E+03
        69   7 -1.298941E+06 -5.875312E+05 -2.195249E+05 -6.145739E+05  1.532523E+04 -7.486484E+04
        69   8 -1.510092E+06 -6.757979E+05 -3.005282E+05 -6.623780E+05  9.458964E+04 -3.897182E+04
        69   9 -1.714348E+06 -8.488649E+05 -4.551714E+05 -7.415616E+05  1.590119E+05  3.631726E+04
        69  10  7.825784E+05  1.615590E+05  1.838178E+05 -4.553437E+04 -3.042868E-10 -9.840496E-10
        69  11  9.665261E+05  2.653951E+05  2.328241E+05  5.504870E+04 -3.103391E-10 -6.695801E-10
        69  12  1.182652E+06  3.097633E+05  3.091461E+05  1.242494E+05  1.072690E-09 -8.839956E-11
        69  13 -2.587411E+05 -2.130330E+05 -1.783439E+04 -3.302727E+05 -9.058722E-10  2.954885E-10
        69  14 -2.725803E+05 -2.052844E+05 -3.382029E+04 -3.040009E+05  1.117728E-09  1.416307E-10
        69  15 -2.669114E+05 -2.696711E+05 -7.295484E+04 -3.091376E+05  2.717960E-09  1.126879E-10
        69  16 -1.298943E+06 -5.875373E+05 -2.195359E+05 -6.145729E+05  7.765561E-10  9.421186E-10
        69  17 -1.510102E+06 -6.758019E+05 -3.005479E+05 -6.623750E+05 -1.555873E-09  1.255887E-09
        69  18 -1.714376E+06 -8.488731E+05 -4.552215E+05 -7.415663E+05 -8.517068E-10  2.513583E-10
        69  19  7.825834E+05  1.615636E+05  1.838311E+05 -4.553722E+04 -6.147265E+04  5.755744E+04
        69  20  9.665276E+05  2.654003E+05  2.328335E+05  5.504795E+04 -1.340877E+04  6.936923E+04
        69  21  1.182655E+06  3.097659E+05  3.091540E+05  1.242511E+05  4.944825E+04  4.185360E+04
        69  22 -2.587383E+05 -2.130279E+05 -1.782339E+04 -3.302748E+05 -3.837827E+04  6.621869E+04
        69  23 -2.725764E+05 -2.052805E+05 -3.380929E+04 -3.040032E+05 -5.404319E+04  5.415267E+04
        69  24 -2.669082E+05 -2.696703E+05 -7.294916E+04 -3.091377E+05 -5.491698E+04  2.709715E+03
        69  25 -1.298941E+06 -5.875312E+05 -2.195249E+05 -6.145739E+05 -1.532523E+04  7.486484E+04
        69  26 -1.510092E+06 -6.757979E+05 -3.005282E+05 -6.623780E+05 -9.458964E+04  3.897182E+04
        69  27 -1.714348E+06 -8.488649E+05 -4.551714E+05 -7.415616E+05 -1.590119E+05 -3.631726E+04
        70   1 -2.150923E+05 -9.628039E+04 -8.493957E+04 -7.067994E+04 -1.725916E+04  6.862940E+03
        70   2 -1.414980E+05 -1.022502E+05 -6.549141E+04 -8.033095E+04 -1.694072E+03  2.282555E+04
        70   3 -6.635961E+04 -9.405387E+04 -5.263583E+04 -1.009571E+05  1.387817E+04  2.695086E+04
        70   4  3.672155E+05  4.712043E+04  4.989237E+04 -1.027499E+05  3.525315E+04  6.873148E+03
        70   5  3.639995E+05  1.696992E+04  2.520113E+04 -9.726071E+04  2.241380E+04  2.282700E+04
        70   6  3.672478E+05  5.908531E+03  1.363822E+04 -1.027448E+05  9.579556E+03  2.694877E+04
        70   7  9.498447E+05  1.905028E+05  1.847125E+05 -1.348503E+05  8.781435E+04  6.877929E+03
        70   8  8.697479E+05  1.361772E+05  1.158862E+05 -1.142046E+05  4.654074E+04  2.282714E+04
        70   9  8.010433E+05  1.058619E+05  7.990827E+04 -1.045339E+05  5.278051E+03  2.694669E+04
        70  10 -2.150926E+05 -9.628052E+04 -8.494022E+04 -7.067985E+04 -7.784031E-10  4.561338E-10
        70  11 -1.414981E+05 -1.022507E+05 -6.549240E+04 -8.033091E+04 -3.607717E-09  1.396954E-09
        70  12 -6.636002E+04 -9.405470E+04 -5.263755E+04 -1.009574E+05 -4.647490E-09  1.249884E-09
        70  13  3.672141E+05  4.712005E+04  4.988995E+04 -1.027501E+05 -9.657209E-10  7.569589E-10
        70  14  3.639988E+05  1.696923E+04  2.519921E+04 -9.726112E+04  1.782808E-09  1.395244E-09
        70  15  3.672475E+05  5.907727E+03  1.363668E+04 -1.027450E+05  2.686240E-09  3.512375E-10
        70  16  9.498364E+05  1.905007E+05  1.846980E+05 -1.348507E+05  3.335560E-09  8.868015E-10
        70  17  8.697455E+05  1.361761E+05  1.158811E+05 -1.142055E+05  2.804064E-09  1.516397E-09
        70  18  8.010431E+05  1.058611E+05  7.990685E+04 -1.045340E+05  3.735042E-09 -4.790561E-11
        70  19 -2.150923E+05 -9.628039E+04 -8.493957E+04 -7.067994E+04  1.725916E+04 -6.862940E+03
        70  20 -1.414980E+05 -1.022502E+05 -6.549141E+04 -8.033095E+04  1.694072E+03 -2.282555E+04
        70  21 -6.635961E+04 -9.405387E+04 -5.263583E+04 -1.009571E+05 -1.387817E+04 -2.695086E+04
        70  22  3.672155E+05  4.712043E+04  4.989237E+04 -1.027499E+05 -3.525315E+04 -6.873148E+03
        70  23  3.639995E+05  1.696992E+04  2.520113E+04 -9.726071E+04 -2.241380E+04 -2.282700E+04
        70  24  3.672478E+05  5.908531E+03  1.363822E+04 -1.027448E+05 -9.579556E+03 -2.694877E+04
        70  25  9.498447E+05  1.905028E+05  1.847125E+05 -1.348503E+05 -8.781435E+04 -6.877929E+03
        70  26  8.697479E+05  1.361772E+05  1.158862E+05 -1.142046E+05 -4.654074E+04 -2.282714E+04
        70  27  8.010433E+05  1.058619E+05  7.990827E+04 -1.045339E+05 -5.278051E+03 -2.694669E+04
        71   1 -2.096353E+04 -8.451026E+04 -4.693024E+04 -1.004174E+05  1.304638E+04  2.535954E+04
        71   2  5.320000E+04 -6.969940E+04 -3.763429E+04 -9.578675E+04  1.413978E+04  2.237390E+04
        71   3  1.275536E+05 -5.362705E+04 -2.873158E+04 -1.030056E+05  1.523294E+04  1.778842E+04
        71   4  3.660070E+05  4.289335E+03  1.016974E+04 -1.029403E+05  7.804417E+03  2.535780E+04
        71   5  3.655901E+05  1.388157E+03  5.485031E+03 -9.701594E+04  5.056511E+03  2.237282E+04
        71   6  3.660238E+05  4.148547E+02  3.073159E+03 -1.029404E+05  2.308252E+03  1.778844E+04
        71   7  7.531283E+05  9.308198E+04  6.726712E+04 -1.054650E+05  2.559320E+03  2.535610E+04
        71   8  6.780794E+05  7.247147E+04  4.860355E+04 -9.824576E+04 -4.031122E+03  2.237178E+04
        71   9  6.045524E+05  5.445443E+04  3.487806E+04 -1.028752E+05 -1.062117E+04  1.778845E+04
        71  10 -2.096388E+04 -8.451099E+04 -4.693177E+04 -1.004176E+05 -2.035697E-08  1.512199E-09
        71  11  5.319965E+04 -6.969999E+04 -3.763561E+04 -9.578701E+04 -1.962924E-08  2.926329E-09
        71  12  1.275533E+05 -5.362746E+04 -2.873261E+04 -1.030058E+05 -1.669841E-08  4.353628E-09
        71  13  3.660068E+05  4.288628E+03  1.016842E+04 -1.029405E+05  2.285687E-09 -1.345194E-09
        71  14  3.655899E+05  1.387613E+03  5.484042E+03 -9.701603E+04  2.371882E-09 -6.694831E-09
        71  15  3.660237E+05  4.145134E+02  3.072554E+03 -1.029404E+05 -3.889670E-09 -1.228420E-08
        71  16  7.531281E+05  9.308129E+04  6.726590E+04 -1.054650E+05  1.774647E-08 -4.025307E-11
        71  17  6.780793E+05  7.247093E+04  4.860257E+04 -9.824569E+04  1.992704E-08  3.274264E-09
        71  18  6.045522E+05  5.445406E+04  3.487725E+04 -1.028750E+05  1.668514E-08  6.129706E-09
        71  19 -2.096353E+04 -8.451026E+04 -4.693024E+04 -1.004174E+05 -1.304638E+04 -2.535954E+04
        71  20  5.320000E+04 -6.969940E+04 -3.763429E+04 -9.578675E+04 -1.413978E+04 -2.237390E+04
        71  21  1.275536E+05 -5.362705E+04 -2.873158E+04 -1.030056E+05 -1.523294E+04 -1.778842E+04
        71  22  3.660070E+05  4.289335E+03  1.016974E+04 -1.029403E+05 -7.804417E+03 -2.535780E+04
        71  23  3.655901E+05  1.388157E+03  5.485031E+03 -9.701594E+04 -5.056511E+03 -2.237282E+04
        71  24  3.660238E+05  4.148547E+02  3.073159E+03 -1.029404E+05 -2.308252E+03 -1.778844E+04
        71  25  7.531283E+05  9.308198E+04  6.726712E+04 -1.054650E+05 -2.559320E+03 -2.535610E+04
        71  26  6.780794E+05  7.247147E+04  4.860355E+04 -9.824576E+04  4.031122E+03 -2.237178E+04
        71  27  6.045524E+05  5.445443E+04  3.487806E+04 -1.028752E+05  1.062117E+04 -1.778845E+04
        72   1  1.732919E+05 -4.328190E+04 -2.303056E+04 -1.029059E+05  1.490814E+04  1.458054E+04
        72   2  2.475056E+05 -2.668726E+04 -1.414942E+04 -9.698801E+04  1.478301E+04  9.035642E+03
        72   3  3.217682E+05 -9.999616E+03 -5.162264E+03 -1.030353E+05  1.465755E+04  3.275399E+03
        72   4  3.658683E+05  2.907742E+02  2.314595E+03 -1.029662E+05  1.856206E+03  1.458101E+04
        72   5  3.658044E+05  5.305192E+01  1.294405E+03 -9.698375E+04  1.213238E+03  9.036584E+03
        72   6  3.658745E+05 -1.451260E+00  7.394260E+02 -1.029663E+05  5.699674E+02  3.276825E+03
        72   7  5.584829E+05  4.386198E+04  2.766014E+04 -1.030266E+05 -1.119959E+04  1.458148E+04
        72   8  4.841178E+05  2.679287E+04  1.673884E+04 -9.697949E+04 -1.235899E+04  9.037525E+03
        72   9  4.099832E+05  9.996737E+03  6.641845E+03 -1.028973E+05 -1.351857E+04  3.278247E+03
        72  10  1.732916E+05 -4.328219E+04 -2.303138E+04 -1.029061E+05  1.015889E-08  4.280047E-09
        72  11  2.475053E+05 -2.668740E+04 -1.414999E+04 -9.698811E+04  1.500473E-08  2.605625E-09
        72  12  3.217680E+05 -9.999686E+03 -5.162688E+03 -1.030353E+05  1.101312E-08  1.177568E-09
        72  13  3.658682E+05  2.905449E+02  2.314189E+03 -1.029663E+05  9.533369E-10 -1.225164E-08
        72  14  3.658043E+05  5.296382E+01  1.294249E+03 -9.698376E+04 -2.686060E-09 -6.619384E-09
        72  15  3.658745E+05 -1.462879E+00  7.394052E+02 -1.029663E+05  3.104044E-09 -8.843364E-10
        72  16  5.584827E+05  4.386172E+04  2.765950E+04 -1.030265E+05 -1.139193E-08  6.224344E-09
        72  17  4.841176E+05  2.679275E+04  1.673840E+04 -9.697940E+04 -1.441898E-08  3.861333E-09
        72  18  4.099830E+05  9.996677E+03  6.641482E+03 -1.028973E+05 -1.061566E-08  1.424216E-09
        72  19  1.732919E+05 -4.328190E+04 -2.303056E+04 -1.029059E+05 -1.490814E+04 -1.458054E+04
        72  20  2.475056E+05 -2.668726E+04 -1.414942E+04 -9.698801E+04 -1.478301E+04 -9.035642E+03
        72  21  3.217682E+05 -9.999616E+03 -5.162264E+03 -1.030353E+05 -1.465755E+04 -3.275399E+03
        72  22  3.658683E+05  2.907742E+02  2.314595E+03 -1.029662E+05 -1.856206E+03 -1.458101E+04
        72  23  3.658044E+05  5.305192E+01  1.294405E+03 -9.698375E+04 -1.213238E+03 -9.036584E+03
        72  24  3.658745E+05 -1.451260E+00  7.394260E+02 -1.029663E+05 -5.699674E+02 -3.276825E+03
        72  25  5.584829E+05  4.386198E+04  2.766014E+04 -1.030266E+05  1.119959E+04 -1.458148E+04
        72  26  4.841178E+05  2.679287E+04  1.673884E+04 -9.697949E+04  1.235899E+04 -9.037525E+03
        72  27  4.099832E+05  9.996737E+03  6.641845E+03 -1.028973E+05  1.351857E+04 -3.278247E+03
        73   1  3.675439E+05  3.724245E+02  7.525912E+02 -1.030158E+05  1.455952E+04 -1.495983E+02
        73   2  4.417761E+05  1.707218E+04  9.869357E+03 -9.701431E+04  1.445719E+04 -6.035323E+03
        73   3  5.160334E+05  3.377595E+04  1.905524E+04 -1.029934E+05  1.435508E+04 -1.194425E+04
        73   4  3.658513E+05 -4.292285E+00  5.606402E+02 -1.029698E+05  4.547460E+02 -1.481251E+02
        73   5  3.658354E+05 -1.846184E+01  3.209091E+02 -9.697944E+04  2.957567E+02 -6.034130E+03
        73   6  3.658474E+05 -1.901311E+01  1.887049E+02 -1.029698E+05  1.370016E+02 -1.194335E+04
        73   7  3.641591E+05 -3.809024E+02  3.694365E+02 -1.029237E+05 -1.364999E+04 -1.466538E+02
        73   8  2.899010E+05 -1.710923E+04 -9.226801E+03 -9.694457E+04 -1.386403E+04 -6.032939E+03
        73   9  2.156851E+05 -3.381478E+04 -1.867713E+04 -1.029461E+05 -1.407782E+04 -1.194246E+04
        73  10  3.675437E+05  3.723676E+02  7.521930E+02 -1.030158E+05 -3.676232E-09  1.451488E-09
        73  11  4.417759E+05  1.707209E+04  9.868896E+03 -9.701424E+04 -3.998540E-08  3.183265E-09
        73  12  5.160332E+05  3.377574E+04  1.905458E+04 -1.029933E+05 -6.646463E-08  4.161824E-09
        73  13  3.658513E+05 -4.292364E+00  5.606397E+02 -1.029698E+05 -1.676598E-11 -8.156566E-10
        73  14  3.658354E+05 -1.850097E+01  3.208405E+02 -9.697943E+04  4.825651E-10 -6.675734E-09
        73  15  3.658474E+05 -1.916631E+01  1.884368E+02 -1.029698E+05  1.896537E-09 -1.335099E-08
        73  16  3.641589E+05 -3.809525E+02  3.690865E+02 -1.029237E+05  3.242111E-09  1.376977E-09
        73  17  2.899008E+05 -1.710932E+04 -9.227230E+03 -9.694464E+04  3.681256E-08  3.170792E-09
        73  18  2.156848E+05 -3.381499E+04 -1.867777E+04 -1.029463E+05  6.786488E-08  4.146371E-09
        73  19  3.675439E+05  3.724245E+02  7.525912E+02 -1.030158E+05 -1.455952E+04  1.495983E+02
        73  20  4.417761E+05  1.707218E+04  9.869357E+03 -9.701431E+04 -1.445719E+04  6.035323E+03
        73  21  5.160334E+05  3.377595E+04  1.905524E+04 -1.029934E+05 -1.435508E+04  1.194425E+04
        73  22  3.658513E+05 -4.292285E+00  5.606402E+02 -1.029698E+05 -4.547460E+02  1.481251E+02
        73  23  3.658354E+05 -1.846184E+01  3.209091E+02 -9.697944E+04 -2.957567E+02  6.034130E+03
        73  24  3.658474E+05 -1.901311E+01  1.887049E+02 -1.029698E+05 -1.370016E+02  1.194335E+04
        73  25  3.641591E+05 -3.809024E+02  3.694365E+02 -1.029237E+05  1.364999E+04  1.466538E+02
        73  26  2.899010E+05 -1.710923E+04 -9.226801E+03 -9.694457E+04  1.386403E+04  6.032939E+03
        73  27  2.156851E+05 -3.381478E+04 -1.867713E+04 -1.029461E+05  1.407782E+04  1.194246E+04
        74   1  5.618277E+05  4.413829E+04  2.506797E+04 -1.029874E+05  1.432466E+04 -1.539241E+04
        74   2  6.360795E+05  6.083621E+04  3.434864E+04 -9.698024E+04  1.418072E+04 -2.129137E+04
        74   3  7.103691E+05  7.755040E+04  4.372979E+04 -1.029551E+05  1.403757E+04 -2.714894E+04
        74   4  3.658416E+05 -2.183546E+01  1.466735E+02 -1.029701E+05  1.066109E+02 -1.539191E+04
        74   5  3.658272E+05 -3.370911E+01  9.191659E+01 -9.697898E+04  6.125568E+01 -2.129190E+04
        74   6  3.658278E+05 -4.632655E+01  6.867377E+01 -1.029701E+05  1.671551E+01 -2.715051E+04
        74   7  1.698953E+05 -4.418343E+04 -2.477400E+04 -1.029528E+05 -1.410717E+04 -1.539140E+04
        74   8  9.565028E+04 -6.090650E+04 -3.416431E+04 -9.697771E+04 -1.405237E+04 -2.129243E+04
        74   9  2.140865E+04 -7.764779E+04 -4.359211E+04 -1.029852E+05 -1.399675E+04 -2.715208E+04
        74  10  5.618274E+05  4.413798E+04  2.506714E+04 -1.029873E+05  7.229640E-08  3.470413E-09
        74  11  6.360791E+05  6.083567E+04  3.434741E+04 -9.698000E+04  4.177566E-08  1.045093E-09
        74  12  7.103687E+05  7.754955E+04  4.372803E+04 -1.029548E+05  6.911693E-09 -9.805730E-10
        74  13  3.658415E+05 -2.208991E+01  1.462282E+02 -1.029701E+05  2.425679E-09 -1.416628E-08
        74  14  3.658271E+05 -3.419601E+01  9.106451E+01 -9.697898E+04 -2.520746E-10 -9.119107E-09
        74  15  3.658276E+05 -4.711826E+01  6.728828E+01 -1.029701E+05  4.722996E-10 -3.144333E-09
        74  16  1.698950E+05 -4.418373E+04 -2.477482E+04 -1.029530E+05 -7.024374E-08  3.166579E-09
        74  17  9.564994E+04 -6.090704E+04 -3.416554E+04 -9.697796E+04 -4.045169E-08  2.370175E-10
        74  18  2.140824E+04 -7.764863E+04 -4.359386E+04 -1.029855E+05 -7.233576E-09 -9.737534E-10
        74  19  5.618277E+05  4.413829E+04  2.506797E+04 -1.029874E+05 -1.432466E+04  1.539241E+04
        74  20  6.360795E+05  6.083621E+04  3.434864E+04 -9.698024E+04 -1.418072E+04  2.129137E+04
        74  21  7.103691E+05  7.755040E+04  4.372979E+04 -1.029551E+05 -1.403757E+04  2.714894E+04
        74  22  3.658416E+05 -2.183546E+01  1.466735E+02 -1.029701E+05 -1.066109E+02  1.539191E+04
        74  23  3.658272E+05 -3.370911E+01  9.191659E+01 -9.697898E+04 -6.125568E+01  2.129190E+04
        74  24  3.658278E+05 -4.632655E+01  6.867377E+01 -1.029701E+05 -1.671551E+01  2.715051E+04
        74  25  1.698953E+05 -4.418343E+04 -2.477400E+04 -1.029528E+05  1.410717E+04  1.539140E+04
        74  26  9.565028E+04 -6.090650E+04 -3.416431E+04 -9.697771E+04  1.405237E+04  2.129243E+04
        74  27  2.140865E+04 -7.764779E+04 -4.359211E+04 -1.029852E+05  1.399675E+04  2.715208E+04
        75   1  7.562092E+05  8.792735E+04  4.985455E+04 -1.029390E+05  1.400142E+04 -3.055526E+04
        75   2  8.304385E+05  1.046847E+05  5.956696E+04 -9.692709E+04  1.315405E+04 -3.621160E+04
        75   3  9.048398E+05  1.215875E+05  6.987269E+04 -1.028786E+05  1.230785E+04 -4.152924E+04
        75   4  3.658240E+05 -5.577401E+01  6.537063E+01 -1.029661E+05  5.154117E+00 -3.055765E+04
        75   5  3.657990E+05 -7.666178E+01  7.096496E+01 -9.698408E+04 -2.906484E+01 -3.621565E+04
        75   6  3.658003E+05 -9.260960E+01  1.056025E+02 -1.029661E+05 -6.203658E+01 -4.153483E+04
        75   7 -2.440455E+04 -8.804504E+04 -4.972369E+04 -1.029931E+05 -1.398275E+04 -3.056004E+04
        75   8 -9.861904E+04 -1.048468E+05 -5.942532E+04 -9.704101E+04 -1.320281E+04 -3.621970E+04
        75   9 -1.729416E+05 -1.217847E+05 -6.966247E+04 -1.030534E+05 -1.242171E+04 -4.154042E+04
        75  10  7.562088E+05  8.792629E+04  4.985243E+04 -1.029387E+05  5.172706E-09 -6.414464E-10
        75  11  8.304380E+05  1.046832E+05  5.956417E+04 -9.692671E+04  6.787870E-09  7.889646E-10
        75  12  9.048392E+05  1.215856E+05  6.986916E+04 -1.028782E+05  6.283870E-09  2.395860E-09
        75  13  3.658238E+05 -5.677689E+01  6.361559E+01 -1.029661E+05 -2.162533E-09 -6.811144E-10
        75  14  3.657986E+05 -7.807042E+01  6.849984E+01 -9.698408E+04  1.513550E-09  7.539776E-10
        75  15  3.657999E+05 -9.446242E+01  1.023600E+02 -1.029661E+05  1.269282E-09  2.033955E-09
        75  16 -2.440501E+04 -8.804610E+04 -4.972581E+04 -1.029934E+05 -4.912182E-09 -7.655658E-10
        75  17 -9.861958E+04 -1.048482E+05 -5.942811E+04 -9.704140E+04 -8.241887E-09  5.093727E-10
        75  18 -1.729423E+05 -1.217866E+05 -6.966600E+04 -1.030538E+05 -3.452628E-09  2.053928E-09
        75  19  7.562092E+05  8.792735E+04  4.985455E+04 -1.029390E+05 -1.400142E+04  3.055526E+04
        75  20  8.304385E+05  1.046847E+05  5.956696E+04 -9.692709E+04 -1.315405E+04  3.621160E+04
        75  21  9.048398E+05  1.215875E+05  6.987269E+04 -1.028786E+05 -1.230785E+04  4.152924E+04
        75  22  3.658240E+05 -5.577401E+01  6.537063E+01 -1.029661E+05 -5.154117E+00  3.055765E+04
        75  23  3.657990E+05 -7.666178E+01  7.096496E+01 -9.698408E+04  2.906484E+01  3.621565E+04
        75  24  3.658003E+05 -9.260960E+01  1.056025E+02 -1.029661E+05  6.203658E+01  4.153483E+04
        75  25 -2.440455E+04 -8.804504E+04 -4.972369E+04 -1.029931E+05  1.398275E+04  3.056004E+04
        75  26 -9.861904E+04 -1.048468E+05 -5.942532E+04 -9.704101E+04  1.320281E+04  3.621970E+04
        75  27 -1.729416E+05 -1.217847E+05 -6.966247E+04 -1.030534E+05  1.242171E+04  4.154042E+04
        76   1  9.508769E+05  1.321163E+05  7.660962E+04 -1.028067E+05  1.209100E+04 -4.459347E+04
        76   2  1.024704E+06  1.493840E+05  8.919941E+04 -9.691145E+04  5.934557E+03 -4.840184E+04
        76   3  1.099657E+06  1.677798E+05  1.060851E+05 -1.027945E+05 -2.226471E+02 -4.969442E+04
        76   4  3.658009E+05 -1.025355E+02  1.346492E+02 -1.029250E+05 -8.106254E+01 -4.460015E+04
        76   5  3.657483E+05 -9.313863E+01  2.258994E+02 -9.703544E+04 -1.911795E+02 -4.840882E+04
        76   6  3.657677E+05 -3.967675E+00  4.184975E+02 -1.029250E+05 -3.012624E+02 -4.970029E+04
        76   7 -2.189252E+05 -1.323357E+05 -7.634192E+04 -1.030431E+05 -1.224221E+04 -4.460683E+04
        76   8 -2.927654E+05 -1.495890E+05 -8.875154E+04 -9.715928E+04 -6.310721E+03 -4.841580E+04
        76   9 -3.675786E+05 -1.678123E+05 -1.052565E+05 -1.030553E+05 -3.797886E+02 -4.970616E+04
        76  10  9.508762E+05  1.321142E+05  7.660561E+04 -1.028063E+05  1.417175E-07  3.205417E-09
        76  11  1.024703E+06  1.493815E+05  8.919494E+04 -9.691122E+04  5.576965E-09  3.501333E-09
        76  12  1.099656E+06  1.677772E+05  1.060804E+05 -1.027945E+05 -1.339571E-07  1.733011E-09
        76  13  3.658003E+05 -1.046719E+02  1.309105E+02 -1.029250E+05  1.074448E-09  2.901264E-09
        76  14  3.657477E+05 -9.565549E+01  2.214948E+02 -9.703544E+04  1.690532E-09  3.464363E-09
        76  15  3.657671E+05 -6.620634E+00  4.138547E+02 -1.029250E+05  3.705007E-10  2.367682E-09
        76  16 -2.189259E+05 -1.323378E+05 -7.634594E+04 -1.030436E+05 -1.406617E-07  2.820816E-09
        76  17 -2.927660E+05 -1.495915E+05 -8.875602E+04 -9.715953E+04 -2.822947E-09  4.265331E-09
        76  18 -3.675793E+05 -1.678150E+05 -1.052611E+05 -1.030553E+05  1.363439E-07  3.138759E-09
        76  19  9.508769E+05  1.321163E+05  7.660962E+04 -1.028067E+05 -1.209100E+04  4.459347E+04
        76  20  1.024704E+06  1.493840E+05  8.919941E+04 -9.691145E+04 -5.934557E+03  4.840184E+04
        76  21  1.099657E+06  1.677798E+05  1.060851E+05 -1.027945E+05  2.226471E+02  4.969442E+04
        76  22  3.658009E+05 -1.025355E+02  1.346492E+02 -1.029250E+05  8.106254E+01  4.460015E+04
        76  23  3.657483E+05 -9.313863E+01  2.258994E+02 -9.703544E+04  1.911795E+02  4.840882E+04
        76  24  3.657677E+05 -3.967675E+00  4.184975E+02 -1.029250E+05  3.012624E+02  4.970029E+04
        76  25 -2.189252E+05 -1.323357E+05 -7.634192E+04 -1.030431E+05  1.224221E+04  4.460683E+04
        76  26 -2.927654E+05 -1.495890E+05 -8.875154E+04 -9.715928E+04  6.310721E+03  4.841580E+04
        76  27 -3.675786E+05 -1.678123E+05 -1.052565E+05 -1.030553E+05  3.797886E+02  4.970616E+04
        77   1  1.146939E+06  1.794615E+05  1.172075E+05 -1.024088E+05 -1.778648E+03 -5.021636E+04
        77   2  1.217465E+06  2.006489E+05  1.507924E+05 -9.777662E+04 -4.704602E+04 -4.034411E+04
        77   3  1.296080E+06  2.304171E+05  2.159693E+05 -1.035395E+05 -9.233841E+04 -1.185666E+04
        77   4  3.658121E+05  4.686226E+01  5.616631E+02 -1.026171E+05 -3.746768E+02 -5.022194E+04
        77   5  3.656273E+05  4.884669E+02  1.026362E+03 -9.742049E+04 -8.876179E+02 -4.032453E+04
        77   6  3.657712E+05  1.754147E+03  2.038860E+03 -1.026180E+05 -1.418522E+03 -1.180027E+04
        77   7 -4.147027E+05 -1.793966E+05 -1.160959E+05 -1.028252E+05  1.027601E+03 -5.022752E+04
        77   8 -4.854966E+05 -1.997104E+05 -1.487580E+05 -9.706491E+04  4.520942E+04 -4.030489E+04
        77   9 -5.637203E+05 -2.269647E+05 -2.119178E+05 -1.016979E+05  8.936644E+04 -1.174357E+04
        77  10  1.146938E+06  1.794588E+05  1.172027E+05 -1.024089E+05  2.846024E-09  1.020816E-10
        77  11  1.217462E+06  2.006465E+05  1.507852E+05 -9.777815E+04 -1.741288E-09 -1.864576E-09
        77  12  1.296071E+06  2.304146E+05  2.159530E+05 -1.035404E+05 -2.090393E-09 -6.604920E-10
        77  13  3.658114E+05  4.415330E+01  5.569223E+02 -1.026171E+05 -4.039057E-10 -9.105689E-10
        77  14  3.656269E+05  4.867203E+02  1.023304E+03 -9.742052E+04  4.933333E-10  1.311760E-09
        77  15  3.657712E+05  1.753997E+03  2.038595E+03 -1.026180E+05  9.355784E-11 -8.502564E-11
        77  16 -4.147033E+05 -1.793993E+05 -1.161007E+05 -1.028251E+05 -5.152734E-10  1.540979E-09
        77  17 -4.854992E+05 -1.997127E+05 -1.487649E+05 -9.706344E+04 -7.508702E-10  1.123339E-09
        77  18 -5.637290E+05 -2.269670E+05 -2.119331E+05 -1.016970E+05  2.974723E-09 -7.991344E-10
        77  19  1.146939E+06  1.794615E+05  1.172075E+05 -1.024088E+05  1.778648E+03  5.021636E+04
        77  20  1.217465E+06  2.006489E+05  1.507924E+05 -9.777662E+04  4.704602E+04  4.034411E+04
        77  21  1.296080E+06  2.304171E+05  2.159693E+05 -1.035395E+05  9.233841E+04  1.185666E+04
        77  22  3.658121E+05  4.686226E+01  5.616631E+02 -1.026171E+05  3.746768E+02  5.022194E+04
        77  23  3.656273E+05  4.884669E+02  1.026362E+03 -9.742049E+04  8.876179E+02  4.032453E+04
        77  24  3.657712E+05  1.754147E+03  2.038860E+03 -1.026180E+05  1.418522E+03  1.180027E+04
        77  25 -4.147027E+05 -1.793966E+05 -1.160959E+05 -1.028252E+05 -1.027601E+03  5.022752E+04
        77  26 -4.854966E+05 -1.997104E+05 -1.487580E+05 -9.706491E+04 -4.520942E+04  4.030489E+04
        77  27 -5.637203E+05 -2.269647E+05 -2.119178E+05 -1.016979E+05 -8.936644E+04  1.174357E+04
        78   1  1.960350E+05  9.325705E+05  1.869527E+05 -2.339631E+05  7.663604E+03  6.260938E+04
        78   2  1.433554E+05  7.626916E+05  1.160042E+05 -2.182515E+05  2.400722E+04  2.217008E+04
        78   3  1.009116E+05  6.006473E+05  7.391626E+04 -2.281745E+05  2.457067E+04 -1.826272E+04
        78   4  8.707739E+03  1.732631E+05  9.172633E+03 -2.276404E+05  7.709087E+03  5.040825E+03
        78   5  3.351883E+03  1.726438E+05  5.737365E+03 -2.148254E+05  2.402597E+04  2.146813E+03
        78   6  1.726320E+03  1.733284E+05  5.116632E+03 -2.276457E+05  2.455611E+04 -7.516135E+02
        78   7 -1.786585E+05 -5.855064E+05 -1.686343E+05 -2.213253E+05  7.753438E+03 -5.245785E+04
        78   8 -1.366714E+05 -4.170666E+05 -1.045429E+05 -2.114026E+05  2.404451E+04 -1.785792E+04
        78   9 -9.746796E+04 -2.538087E+05 -6.368677E+04 -2.271172E+05  2.454158E+04  1.674788E+04
        78  10  1.960339E+05  9.325662E+05  1.869452E+05 -2.339635E+05 -8.979405E-10  1.303651E-09
        78  11  1.433546E+05  7.626909E+05  1.160022E+05 -2.182519E+05  1.250409E-09  3.336838E-10
        78  12  1.009108E+05  6.006468E+05  7.391450E+04 -2.281741E+05  7.516038E-10 -1.359368E-09
        78  13  8.707668E+03  1.732631E+05  9.172473E+03 -2.276404E+05  3.620892E-10 -1.959857E-11
        78  14  3.351262E+03  1.726436E+05  5.736272E+03 -2.148254E+05 -1.276108E-10  2.703660E-10
        78  15  1.725672E+03  1.733282E+05  5.115498E+03 -2.276457E+05 -4.884305E-10 -9.993225E-11
        78  16 -1.786593E+05 -5.855094E+05 -1.686396E+05 -2.213250E+05  7.172813E-10 -9.187361E-10
        78  17 -1.366721E+05 -4.170671E+05 -1.045446E+05 -2.114022E+05 -2.677129E-11  9.734329E-11
        78  18 -9.746869E+04 -2.538092E+05 -6.368843E+04 -2.271175E+05  2.989923E-10  1.326018E-09
        78  19  1.960350E+05  9.325705E+05  1.869527E+05 -2.339631E+05 -7.663604E+03 -6.260938E+04
        78  20  1.433554E+05  7.626916E+05  1.160042E+05 -2.182515E+05 -2.400722E+04 -2.217008E+04
        78  21  1.009116E+05  6.006473E+05  7.391626E+04 -2.281745E+05 -2.457067E+04  1.826272E+04
        78  22  8.707739E+03  1.732631E+05  9.172633E+03 -2.276404E+05 -7.709087E+03 -5.040825E+03
        78  23  3.351883E+03  1.726438E+05  5.737365E+03 -2.148254E+05 -2.402597E+04 -2.146813E+03
        78  24  1.726320E+03  1.733284E+05  5.116632E+03 -2.276457E+05 -2.455611E+04  7.516135E+02
        78  25 -1.786585E+05 -5.855064E+05 -1.686343E+05 -2.213253E+05 -7.753438E+03  5.245785E+04
        78  26 -1.366714E+05 -4.170666E+05 -1.045429E+05 -2.114026E+05 -2.404451E+04  1.785792E+04
        78  27 -9.746796E+04 -2.538087E+05 -6.368677E+04 -2.271172E+05 -2.454158E+04 -1.674788E+04
        79   1  7.647426E+04  4.970086E+05  5.622073E+04 -2.286566E+05  1.952210E+04 -2.019002E+04
        79   2  3.821668E+04  3.304223E+05  2.971725E+04 -2.133527E+05  1.129564E+04 -2.604777E+04
        79   3  3.072863E+03  1.653726E+05  7.794240E+03 -2.247762E+05  2.238989E+03 -3.190528E+04
        79   4  1.614400E+03  1.733119E+05  5.496415E+03 -2.278884E+05  1.950539E+04 -1.606453E+03
        79   5  2.296692E+03  1.727374E+05  7.741481E+03 -2.145232E+05  1.127625E+04 -5.492347E+03
        79   6  5.751738E+03  1.733292E+05  1.319730E+04 -2.278851E+05  2.216822E+03 -9.379443E+03
        79   7 -7.325043E+04 -1.502795E+05 -4.522914E+04 -2.271206E+05  1.948873E+04  1.696779E+04
        79   8 -3.362416E+04  1.507852E+04 -1.423301E+04 -2.156933E+05  1.125679E+04  1.505809E+04
        79   9  8.430908E+03  1.812869E+05  1.860226E+04 -2.309941E+05  2.194429E+03  1.314673E+04
        79  10  7.647374E+04  4.970080E+05  5.621925E+04 -2.286563E+05  1.627167E-09 -1.094792E-09
        79  11  3.821636E+04  3.304216E+05  2.971574E+04 -2.133525E+05 -1.003612E-09 -1.455792E-09
        79  12  3.072584E+03  1.653715E+05  7.792318E+03 -2.247761E+05 -2.496856E-09 -2.480464E-09
        79  13  1.613990E+03  1.733118E+05  5.495695E+03 -2.278884E+05  1.275823E-10 -4.412459E-11
        79  14  2.296548E+03  1.727373E+05  7.741186E+03 -2.145231E+05 -2.386914E-10  2.503579E-10
        79  15  5.751709E+03  1.733291E+05  1.319712E+04 -2.278851E+05 -3.699997E-09 -7.594572E-11
        79  16 -7.325092E+04 -1.502799E+05 -4.523039E+04 -2.271209E+05  5.547905E-10  1.715047E-09
        79  17 -3.362436E+04  1.507824E+04 -1.423367E+04 -2.156934E+05 -8.030839E-10  1.755890E-09
        79  18  8.430857E+03  1.812867E+05  1.860193E+04 -2.309942E+05 -2.679750E-11  2.419024E-09
        79  19  7.647426E+04  4.970086E+05  5.622073E+04 -2.286566E+05 -1.952210E+04  2.019002E+04
        79  20  3.821668E+04  3.304223E+05  2.971725E+04 -2.133527E+05 -1.129564E+04  2.604777E+04
        79  21  3.072863E+03  1.653726E+05  7.794240E+03 -2.247762E+05 -2.238989E+03  3.190528E+04
        79  22  1.614400E+03  1.733119E+05  5.496415E+03 -2.278884E+05 -1.950539E+04  1.606453E+03
        79  23  2.296692E+03  1.727374E+05  7.741481E+03 -2.145232E+05 -1.127625E+04  5.492347E+03
        79  24  5.751738E+03  1.733292E+05  1.319730E+04 -2.278851E+05 -2.216822E+03  9.379443E+03
        79  25 -7.325043E+04 -1.502795E+05 -4.522914E+04 -2.271206E+05 -1.948873E+04 -1.696779E+04
        79  26 -3.362416E+04  1.507852E+04 -1.423301E+04 -2.156933E+05 -1.125679E+04 -1.505809E+04
        79  27  8.430908E+03  1.812869E+05  1.860226E+04 -2.309941E+05 -2.194429E+03 -1.314673E+04
        80   1 -1.896158E+04  6.372387E+04 -4.697715E+03 -2.255961E+05 -3.643620E+03 -3.363560E+04
        80   2 -4.485986E+04 -1.041959E+05 -2.443045E+04 -1.933853E+05 -8.160570E+03 -2.725895E+04
        80   3 -5.047165E+04 -2.678678E+05 -4.324981E+04 -1.873325E+05 -3.205361E+03 -2.087970E+04
        80   4  7.689168E+03  1.748721E+05  1.739718E+04 -2.277589E+05 -3.665124E+03 -1.167172E+04
        80   5  2.139878E+04  1.707953E+05  3.165939E+04 -2.146622E+05 -8.158848E+03 -2.780402E+04
        80   6  5.929515E+04  1.748372E+05  6.245950E+04 -2.277173E+05 -3.182749E+03 -4.393200E+04
        80   7  3.433944E+04  2.860332E+05  3.949327E+04 -2.299222E+05 -3.686780E+03  1.029602E+04
        80   8  8.765437E+04  4.458592E+05  8.774548E+04 -2.359487E+05 -8.157089E+03 -2.834932E+04
        80   9  1.690542E+05  6.177265E+05  1.681579E+05 -2.681310E+05 -3.157147E+03 -6.700067E+04
        80  10 -1.896190E+04  6.372265E+04 -4.699866E+03 -2.255962E+05 -1.625812E-09  4.053969E-09
        80  11 -4.486013E+04 -1.041967E+05 -2.443197E+04 -1.933855E+05  1.461939E-11  1.470358E-09
        80  12 -5.047178E+04 -2.678682E+05 -4.325065E+04 -1.873325E+05 -4.384667E-10 -1.644941E-09
        80  13  7.689117E+03  1.748720E+05  1.739690E+04 -2.277590E+05 -1.712997E-09 -3.882231E-11
        80  14  2.139850E+04  1.707944E+05  3.165781E+04 -2.146624E+05 -2.347603E-10  3.018230E-10
        80  15  5.929462E+04  1.748351E+05  6.245585E+04 -2.277174E+05  1.154573E-09 -1.202628E-10
        80  16  3.433939E+04  2.860331E+05  3.949305E+04 -2.299222E+05 -2.238013E-09 -3.379962E-09
        80  17  8.765408E+04  4.458584E+05  8.774384E+04 -2.359489E+05 -3.277035E-10 -1.104782E-09
        80  18  1.690529E+05  6.177217E+05  1.681494E+05 -2.681312E+05 -5.246995E-10  1.686458E-09
        80  19 -1.896158E+04  6.372387E+04 -4.697715E+03 -2.255961E+05  3.643620E+03  3.363560E+04
        80  20 -4.485986E+04 -1.041959E+05 -2.443045E+04 -1.933853E+05  8.160570E+03  2.725895E+04
        80  21 -5.047165E+04 -2.678678E+05 -4.324981E+04 -1.873325E+05  3.205361E+03  2.087970E+04
        80  22  7.689168E+03  1.748721E+05  1.739718E+04 -2.277589E+05  3.665124E+03  1.167172E+04
        80  23  2.139878E+04  1.707953E+05  3.165939E+04 -2.146622E+05  8.158848E+03  2.780402E+04
        80  24  5.929515E+04  1.748372E+05  6.245950E+04 -2.277173E+05  3.182749E+03  4.393200E+04
        80  25  3.433944E+04  2.860332E+05  3.949327E+04 -2.299222E+05  3.686780E+03 -1.029602E+04
        80  26  8.765437E+04  4.458592E+05  8.774548E+04 -2.359487E+05  8.157089E+03  2.834932E+04
        80  27  1.690542E+05  6.177265E+05  1.681579E+05 -2.681310E+05  3.157147E+03  6.700067E+04
        81   1 -4.086530E+05 -2.281714E+05 -1.386431E+05 -1.766226E+05 -6.909997E+04 -2.211925E+04
        81   2 -3.844789E+05 -1.472944E+05 -7.955980E+04 -1.648714E+05 -4.298046E+04 -3.760842E+03
        81   3 -3.751044E+05 -1.126740E+05 -5.332650E+04 -1.485049E+05 -1.454081E+04  8.424449E+03
        81   4 -2.039301E+05 -1.121825E+05 -7.833430E+04 -8.023258E+04 -5.198817E+04 -1.570171E+04
        81   5 -1.932444E+05 -5.971374E+04 -3.628446E+04 -9.392085E+04 -3.584915E+04 -1.086154E+03
        81   6 -1.953755E+05 -5.151845E+04 -1.916936E+04 -1.029964E+05 -1.739136E+04  7.354459E+03
        81   7  8.352992E+02  3.826721E+03 -1.802891E+04  1.619015E+04 -3.487051E+04 -9.279236E+03
        81   8 -1.972265E+03  2.787587E+04  6.988640E+03 -2.294838E+04 -2.871552E+04  1.589914E+03
        81   9 -1.561195E+04  9.639378E+03  1.498677E+04 -5.747597E+04 -2.024281E+04  6.284179E+03
        81  10 -4.086583E+05 -2.281732E+05 -1.386530E+05 -1.766238E+05  9.789759E-10  1.224385E-11
        81  11 -3.844809E+05 -1.472949E+05 -7.956330E+04 -1.648716E+05  3.776981E-10  3.865670E-10
        81  12 -3.751047E+05 -1.126742E+05 -5.332703E+04 -1.485048E+05 -4.148680E-09  2.070613E-09
        81  13 -2.039331E+05 -1.121834E+05 -7.833984E+04 -8.023324E+04 -1.018237E-09  3.626277E-10
        81  14 -1.932458E+05 -5.971408E+04 -3.628688E+04 -9.392088E+04 -3.595551E-10  7.751387E-10
        81  15 -1.953758E+05 -5.151859E+04 -1.917003E+04 -1.029963E+05 -4.981350E-10  1.536671E-09
        81  16  8.339703E+02  3.826302E+03 -1.803136E+04  1.618989E+04 -9.778737E-10 -2.530818E-10
        81  17 -1.973151E+03  2.787565E+04  6.987086E+03 -2.294835E+04 -1.140392E-09  5.412411E-10
        81  18 -1.561240E+04  9.639225E+03  1.498593E+04 -5.747587E+04  3.859829E-09  1.632666E-09
        81  19 -4.086530E+05 -2.281714E+05 -1.386431E+05 -1.766226E+05  6.909997E+04  2.211925E+04
        81  20 -3.844789E+05 -1.472944E+05 -7.955980E+04 -1.648714E+05  4.298046E+04  3.760842E+03
        81  21 -3.751044E+05 -1.126740E+05 -5.332650E+04 -1.485049E+05  1.454081E+04 -8.424449E+03
        81  22 -2.039301E+05 -1.121825E+05 -7.833430E+04 -8.023258E+04  5.198817E+04  1.570171E+04
        81  23 -1.932444E+05 -5.971374E+04 -3.628446E+04 -9.392085E+04  3.584915E+04  1.086154E+03
        81  24 -1.953755E+05 -5.151845E+04 -1.916936E+04 -1.029964E+05  1.739136E+04 -7.354459E+03
        81  25  8.352992E+02  3.826721E+03 -1.802891E+04  1.619015E+04  3.487051E+04  9.279236E+03
        81  26 -1.972265E+03  2.787587E+04  6.988640E+03 -2.294838E+04  2.871552E+04 -1.589914E+03
        81  27 -1.561195E+04  9.639378E+03  1.498677E+04 -5.747597E+04  2.024281E+04 -6.284179E+03
        82   1 -3.500928E+05 -1.107175E+05 -4.478692E+04 -1.464150E+05 -1.285912E+04  7.798974E+03
        82   2 -3.240460E+05 -9.503264E+04 -3.188785E+04 -1.359064E+05 -7.661729E+03  8.096910E+03
        82   3 -2.945743E+05 -8.634591E+04 -2.302294E+04 -1.305704E+05 -2.276866E+03  7.895292E+03
        82   4 -1.930471E+05 -5.255159E+04 -1.449586E+04 -1.016601E+05 -1.479917E+04  7.070667E+03
        82   5 -1.946482E+05 -4.778331E+04 -7.641960E+03 -9.957934E+04 -1.040878E+04  7.065975E+03
        82   6 -1.926647E+05 -4.985291E+04 -4.181909E+03 -1.026715E+05 -5.831111E+03  6.561698E+03
        82   7 -3.597726E+04  5.616176E+03  1.579375E+04 -5.689501E+04 -1.673973E+04  6.342161E+03
        82   8 -6.523286E+04 -5.323758E+02  1.660331E+04 -6.324519E+04 -1.315644E+04  6.034806E+03
        82   9 -9.074313E+04 -1.335865E+04  1.465905E+04 -7.476805E+04 -9.386013E+03  5.227863E+03
        82  10 -3.500929E+05 -1.107176E+05 -4.478734E+04 -1.464149E+05 -8.927896E-10  3.292587E-09
        82  11 -3.240461E+05 -9.503273E+04 -3.188809E+04 -1.359064E+05  7.001664E-09  2.762356E-09
        82  12 -2.945744E+05 -8.634597E+04 -2.302307E+04 -1.305704E+05  1.014774E-08  6.551898E-10
        82  13 -1.930474E+05 -5.255171E+04 -1.449636E+04 -1.016600E+05  5.554057E-09  2.639961E-09
        82  14 -1.946483E+05 -4.778339E+04 -7.642257E+03 -9.957928E+04  6.408526E-09  1.922030E-09
        82  15 -1.926647E+05 -4.985296E+04 -4.182054E+03 -1.026715E+05  6.159601E-10  2.193780E-11
        82  16 -3.597757E+04  5.616058E+03  1.579314E+04 -5.689493E+04  6.827913E-09  1.875159E-09
        82  17 -6.523306E+04 -5.324614E+02  1.660291E+04 -6.324513E+04  6.236442E-09  1.822822E-09
        82  18 -9.074323E+04 -1.335870E+04  1.465883E+04 -7.476802E+04 -2.077738E-09 -6.546811E-10
        82  19 -3.500928E+05 -1.107175E+05 -4.478692E+04 -1.464150E+05  1.285912E+04 -7.798974E+03
        82  20 -3.240460E+05 -9.503264E+04 -3.188785E+04 -1.359064E+05  7.661729E+03 -8.096910E+03
        82  21 -2.945743E+05 -8.634591E+04 -2.302294E+04 -1.305704E+05  2.276866E+03 -7.895292E+03
        82  22 -1.930471E+05 -5.255159E+04 -1.449586E+04 -1.016601E+05  1.479917E+04 -7.070667E+03
        82  23 -1.946482E+05 -4.778331E+04 -7.641960E+03 -9.957934E+04  1.040878E+04 -7.065975E+03
        82  24 -1.926647E+05 -4.985291E+04 -4.181909E+03 -1.026715E+05  5.831111E+03 -6.561698E+03
        82  25 -3.597726E+04  5.616176E+03  1.579375E+04 -5.689501E+04  1.673973E+04 -6.342161E+03
        82  26 -6.523286E+04 -5.323758E+02  1.660331E+04 -6.324519E+04  1.315644E+04 -6.034806E+03
        82  27 -9.074313E+04 -1.335865E+04  1.465905E+04 -7.476805E+04  9.386013E+03 -5.227863E+03
        83   1 -2.756540E+05 -7.989113E+04 -1.841407E+04 -1.255847E+05 -1.285582E+03  6.801109E+03
        83   2 -2.498465E+05 -6.722659E+04 -1.183961E+04 -1.150128E+05  4.563636E+02  4.976351E+03
        83   3 -2.193542E+05 -5.952634E+04 -5.982209E+03 -1.100026E+05  2.213409E+03  3.111054E+03
        83   4 -1.924839E+05 -4.991288E+04 -3.143108E+03 -1.025776E+05 -4.766669E+03  5.495049E+03
        83   5 -1.948275E+05 -4.740673E+04 -1.726925E+03 -9.980790E+04 -3.090207E+03  3.645817E+03
        83   6 -1.924741E+05 -4.985185E+04 -9.758288E+02 -1.026000E+05 -1.398695E+03  1.756037E+03
        83   7 -1.093065E+05 -1.993401E+04  1.212764E+04 -7.956776E+04 -8.248252E+03  4.188803E+03
        83   8 -1.398056E+05 -2.758670E+04  8.385626E+03 -8.460181E+04 -6.637095E+03  2.315166E+03
        83   9 -1.655935E+05 -4.017738E+04  4.030507E+03 -9.519717E+04 -5.010932E+03  4.009720E+02
        83  10 -2.756540E+05 -7.989118E+04 -1.841416E+04 -1.255846E+05  1.535636E-09 -1.771729E-09
        83  11 -2.498465E+05 -6.722661E+04 -1.183966E+04 -1.150128E+05 -5.547033E-10 -6.616783E-10
        83  12 -2.193542E+05 -5.952635E+04 -5.982237E+03 -1.100026E+05 -2.336501E-10  1.712170E-10
        83  13 -1.924839E+05 -4.991292E+04 -3.143207E+03 -1.025776E+05 -2.905009E-09 -9.694211E-10
        83  14 -1.948275E+05 -4.740675E+04 -1.726968E+03 -9.980789E+04 -7.892626E-10 -3.836444E-10
        83  15 -1.924741E+05 -4.985185E+04 -9.758383E+02 -1.026000E+05  1.145709E-09  9.851547E-10
        83  16 -1.093066E+05 -1.993404E+04  1.212748E+04 -7.956773E+04  7.678614E-10 -1.872768E-10
        83  17 -1.398056E+05 -2.758671E+04  8.385533E+03 -8.460179E+04  3.780713E-10 -3.718191E-10
        83  18 -1.655936E+05 -4.017739E+04  4.030460E+03 -9.519716E+04  2.989296E-09  1.755195E-09
        83  19 -2.756540E+05 -7.989113E+04 -1.841407E+04 -1.255847E+05  1.285582E+03 -6.801109E+03
        83  20 -2.498465E+05 -6.722659E+04 -1.183961E+04 -1.150128E+05 -4.563636E+02 -4.976351E+03
        83  21 -2.193542E+05 -5.952634E+04 -5.982209E+03 -1.100026E+05 -2.213409E+03 -3.111054E+03
        83  22 -1.924839E+05 -4.991288E+04 -3.143108E+03 -1.025776E+05  4.766669E+03 -5.495049E+03
        83  23 -1.948275E+05 -4.740673E+04 -1.726925E+03 -9.980790E+04  3.090207E+03 -3.645817E+03
        83  24 -1.924741E+05 -4.985185E+04 -9.758288E+02 -1.026000E+05  1.398695E+03 -1.756037E+03
        83  25 -1.093065E+05 -1.993401E+04  1.212764E+04 -7.956776E+04  8.248252E+03 -4.188803E+03
        83  26 -1.398056E+05 -2.758670E+04  8.385626E+03 -8.460181E+04  6.637095E+03 -2.315166E+03
        83  27 -1.655935E+05 -4.017738E+04  4.030507E+03 -9.519717E+04  5.010932E+03 -4.009720E+02
        84   1 -2.008108E+05 -5.282239E+04 -2.210796E+03 -1.048702E+05  2.838734E+03  1.862405E+03
        84   2 -1.750803E+05 -4.024701E+04  3.155183E+03 -9.427128E+04  3.915504E+03 -2.785568E+02
        84   3 -1.445360E+05 -3.252520E+04  8.342041E+03 -8.923036E+04  4.993351E+03 -2.422280E+03
        84   4 -1.924520E+05 -4.985649E+04 -7.517984E+02 -1.025893E+05 -7.675794E+02  5.095782E+02
        84   5 -1.948596E+05 -4.743554E+04 -4.725780E+02 -9.980802E+04  3.046003E+02 -1.633148E+03
        84   6 -1.924538E+05 -4.986764E+04 -3.690719E+02 -1.025852E+05  1.377842E+03 -3.778635E+03
        84   7 -1.840930E+05 -4.689054E+04  7.072758E+02 -1.003084E+05 -4.373979E+03 -8.432797E+02
        84   8 -2.146384E+05 -5.462406E+04 -4.100325E+03 -1.053446E+05 -3.306199E+03 -2.987700E+03
        84   9 -2.403691E+05 -6.720986E+04 -9.080216E+03 -1.159392E+05 -2.237371E+03 -5.134879E+03
        84  10 -2.008108E+05 -5.282240E+04 -2.210818E+03 -1.048702E+05  1.103177E-09  1.341265E-09
        84  11 -1.750804E+05 -4.024701E+04  3.155154E+03 -9.427128E+04 -2.070442E-09  5.069323E-10
        84  12 -1.445360E+05 -3.252521E+04  8.341984E+03 -8.923035E+04 -2.735212E-09  5.774672E-10
        84  13 -1.924520E+05 -4.985649E+04 -7.518000E+02 -1.025893E+05 -3.024991E-10  9.505265E-10
        84  14 -1.948596E+05 -4.743554E+04 -4.725832E+02 -9.980802E+04 -2.398877E-09  4.853793E-10
        84  15 -1.924538E+05 -4.986765E+04 -3.691023E+02 -1.025852E+05 -6.798170E-10  5.803523E-10
        84  16 -1.840930E+05 -4.689054E+04  7.072385E+02 -1.003084E+05 -5.035410E-09  7.842066E-10
        84  17 -2.146384E+05 -5.462407E+04 -4.100362E+03 -1.053446E+05 -2.097980E-09  4.762887E-10
        84  18 -2.403691E+05 -6.720989E+04 -9.080275E+03 -1.159392E+05  2.450726E-09  7.712927E-10
        84  19 -2.008108E+05 -5.282239E+04 -2.210796E+03 -1.048702E+05 -2.838734E+03 -1.862405E+03
        84  20 -1.750803E+05 -4.024701E+04  3.155183E+03 -9.427128E+04 -3.915504E+03  2.785568E+02
        84  21 -1.445360E+05 -3.252520E+04  8.342041E+03 -8.923036E+04 -4.993351E+03  2.422280E+03
        84  22 -1.924520E+05 -4.985649E+04 -7.517984E+02 -1.025893E+05  7.675794E+02 -5.095782E+02
        84  23 -1.948596E+05 -4.743554E+04 -4.725780E+02 -9.980802E+04 -3.046003E+02  1.633148E+03
        84  24 -1.924538E+05 -4.986764E+04 -3.690719E+02 -1.025852E+05 -1.377842E+03  3.778635E+03
        84  25 -1.840930E+05 -4.689054E+04  7.072758E+02 -1.003084E+05  4.373979E+03  8.432797E+02
        84  26 -2.146384E+05 -5.462406E+04 -4.100325E+03 -1.053446E+05  3.306199E+03  2.987700E+03
        84  27 -2.403691E+05 -6.720986E+04 -9.080216E+03 -1.159392E+05  2.237371E+03  5.134879E+03
        85   1 -1.260320E+05 -2.580550E+04  1.188844E+04 -8.409352E+04  5.543131E+03 -3.700240E+03
        85   2 -1.003088E+05 -1.322407E+04  1.687395E+04 -7.349796E+04  6.604201E+03 -5.848940E+03
        85   3 -6.976989E+04 -5.493003E+03  2.169304E+04 -6.845858E+04  7.663593E+03 -7.992695E+03
        85   4 -1.924546E+05 -4.986807E+04 -3.676334E+02 -1.025848E+05  1.927610E+03 -5.056654E+03
        85   5 -1.948616E+05 -4.743972E+04 -4.645123E+02 -9.980781E+04  2.996509E+03 -7.202571E+03
        85   6 -1.924553E+05 -4.986329E+04 -7.340021E+02 -1.025872E+05  4.063725E+03 -9.343555E+03
        85   7 -2.588718E+05 -7.392998E+04 -1.262365E+04 -1.210741E+05 -1.687465E+03 -6.412900E+03
        85   8 -2.894050E+05 -8.165453E+04 -1.780325E+04 -1.261139E+05 -6.105971E+02 -8.555983E+03
        85   9 -3.151260E+05 -9.423260E+04 -2.316185E+04 -1.367099E+05  4.645822E+02 -1.069414E+04
        85  10 -1.260321E+05 -2.580552E+04  1.188836E+04 -8.409350E+04 -2.431736E-09  9.546825E-10
        85  11 -1.003089E+05 -1.322412E+04  1.687380E+04 -7.349793E+04 -1.598090E-09  1.301683E-09
        85  12 -6.976997E+04 -5.493088E+03  2.169281E+04 -6.845853E+04  6.245633E-12 -1.759458E-10
        85  13 -1.924546E+05 -4.986810E+04 -3.676884E+02 -1.025848E+05 -1.562596E-09  1.356209E-09
        85  14 -1.948617E+05 -4.743978E+04 -4.646266E+02 -9.980779E+04 -1.409000E-10  1.238101E-09
        85  15 -1.924553E+05 -4.986339E+04 -7.341971E+02 -1.025872E+05 -1.254879E-09  6.043250E-10
        85  16 -2.588718E+05 -7.393003E+04 -1.262373E+04 -1.210741E+05  6.950701E-10  1.385443E-09
        85  17 -2.894051E+05 -8.165461E+04 -1.780339E+04 -1.261139E+05  5.781131E-10  1.740342E-09
        85  18 -3.151261E+05 -9.423273E+04 -2.316207E+04 -1.367099E+05 -1.751706E-09  1.323448E-09
        85  19 -1.260320E+05 -2.580550E+04  1.188844E+04 -8.409352E+04 -5.543131E+03  3.700240E+03
        85  20 -1.003088E+05 -1.322407E+04  1.687395E+04 -7.349796E+04 -6.604201E+03  5.848940E+03
        85  21 -6.976989E+04 -5.493003E+03  2.169304E+04 -6.845858E+04 -7.663593E+03  7.992695E+03
        85  22 -1.924546E+05 -4.986807E+04 -3.676334E+02 -1.025848E+05 -1.927610E+03  5.056654E+03
        85  23 -1.948616E+05 -4.743972E+04 -4.645123E+02 -9.980781E+04 -2.996509E+03  7.202571E+03
        85  24 -1.924553E+05 -4.986329E+04 -7.340021E+02 -1.025872E+05 -4.063725E+03  9.343555E+03
        85  25 -2.588718E+05 -7.392998E+04 -1.262365E+04 -1.210741E+05  1.687465E+03  6.412900E+03
        85  26 -2.894050E+05 -8.165453E+04 -1.780325E+04 -1.261139E+05  6.105971E+02  8.555983E+03
        85  27 -3.151260E+05 -9.423260E+04 -2.316185E+04 -1.367099E+05 -4.645822E+02  1.069414E+04
        86   1 -5.128088E+04  1.218449E+03  2.502195E+04 -6.334538E+04  8.298994E+03 -9.235906E+03
        86   2 -2.552099E+04  1.380278E+04  2.940659E+04 -5.275350E+04  9.866472E+03 -1.115758E+04
        86   3  4.957125E+03  2.146139E+04  3.322078E+04 -4.771636E+04  1.141176E+04 -1.301921E+04
        86   4 -1.924786E+05 -4.985947E+04 -9.512613E+02 -1.025967E+05  4.691004E+03 -1.058995E+04
        86   5 -1.948344E+05 -4.741960E+04 -1.681067E+03 -9.980772E+04  6.355240E+03 -1.247559E+04
        86   6 -1.924918E+05 -4.992483E+04 -3.058091E+03 -1.025739E+05  7.997240E+03 -1.430120E+04
        86   7 -3.336554E+05 -1.009355E+05 -2.692514E+04 -1.418397E+05  1.083892E+03 -1.194367E+04
        86   8 -3.641169E+05 -1.086390E+05 -3.276950E+04 -1.468498E+05  2.845048E+03 -1.379322E+04
        86   9 -3.898979E+05 -1.213067E+05 -3.933782E+04 -1.574148E+05  4.583913E+03 -1.558274E+04
        86  10 -5.128098E+04  1.218339E+03  2.502166E+04 -6.334532E+04 -1.222864E-09 -1.804143E-09
        86  11 -2.552113E+04  1.380262E+04  2.940618E+04 -5.275342E+04 -1.386187E-08 -7.339311E-09
        86  12  4.956940E+03  2.146117E+04  3.322021E+04 -4.771624E+04 -3.003887E-08 -1.122785E-08
        86  13 -1.924787E+05 -4.985960E+04 -9.515134E+02 -1.025967E+05 -2.183005E-09 -6.484648E-10
        86  14 -1.948345E+05 -4.741978E+04 -1.681436E+03 -9.980766E+04  2.132937E-09 -4.890352E-09
        86  15 -1.924919E+05 -4.992507E+04 -3.058595E+03 -1.025738E+05 -6.857842E-09 -1.079067E-08
        86  16 -3.336554E+05 -1.009357E+05 -2.692541E+04 -1.418397E+05  9.167740E-10  2.563466E-09
        86  17 -3.641169E+05 -1.086392E+05 -3.276987E+04 -1.468497E+05  1.050255E-08  7.076672E-09
        86  18 -3.898980E+05 -1.213070E+05 -3.933832E+04 -1.574147E+05  1.574008E-08  7.273435E-09
        86  19 -5.128088E+04  1.218449E+03  2.502195E+04 -6.334538E+04 -8.298994E+03  9.235906E+03
        86  20 -2.552099E+04  1.380278E+04  2.940659E+04 -5.275350E+04 -9.866472E+03  1.115758E+04
        86  21  4.957125E+03  2.146139E+04  3.322078E+04 -4.771636E+04 -1.141176E+04  1.301921E+04
        86  22 -1.924786E+05 -4.985947E+04 -9.512613E+02 -1.025967E+05 -4.691004E+03  1.058995E+04
        86  23 -1.948344E+05 -4.741960E+04 -1.681067E+03 -9.980772E+04 -6.355240E+03  1.247559E+04
        86  24 -1.924918E+05 -4.992483E+04 -3.058091E+03 -1.025739E+05 -7.997240E+03  1.430120E+04
        86  25 -3.336554E+05 -1.009355E+05 -2.692514E+04 -1.418397E+05 -1.083892E+03  1.194367E+04
        86  26 -3.641169E+05 -1.086390E+05 -3.276950E+04 -1.468498E+05 -2.845048E+03  1.379322E+04
        86  27 -3.898979E+05 -1.213067E+05 -3.933782E+04 -1.574148E+05 -4.583913E+03  1.558274E+04
        87   1  2.350697E+04  2.804608E+04  3.578951E+04 -4.290007E+04  1.256492E+04 -1.404208E+04
        87   2  4.895701E+04  4.086463E+04  3.797539E+04 -3.143603E+04  1.579751E+04 -1.489223E+04
        87   3  7.824824E+04  4.715749E+04  3.780415E+04 -2.512847E+04  1.875453E+04 -1.500688E+04
        87   4 -1.926700E+05 -4.986393E+04 -4.067754E+03 -1.026602E+05  9.042914E+03 -1.536461E+04
        87   5 -1.946602E+05 -4.779771E+04 -7.433381E+03 -9.958927E+04  1.346391E+04 -1.576905E+04
        87   6 -1.930464E+05 -5.249374E+04 -1.409880E+04 -1.016756E+05  1.760916E+04 -1.543788E+04
        87   7 -4.088001E+05 -1.277705E+05 -4.392730E+04 -1.624016E+05  5.522180E+03 -1.668667E+04
        87   8 -4.382165E+05 -1.364549E+05 -5.284478E+04 -1.677179E+05  1.113127E+04 -1.664551E+04
        87   9 -4.642644E+05 -1.521379E+05 -6.600487E+04 -1.781917E+05  1.646432E+04 -1.586867E+04
        87  10  2.350674E+04  2.804583E+04  3.578884E+04 -4.289993E+04  1.514764E-08  7.350468E-09
        87  11  4.895669E+04  4.086432E+04  3.797451E+04 -3.143584E+04  1.118128E-08  6.906958E-09
        87  12  7.824780E+04  4.715715E+04  3.780306E+04 -2.512824E+04  2.213205E-09  1.570151E-09
        87  13 -1.926702E+05 -4.986421E+04 -4.068351E+03 -1.026601E+05 -5.727853E-09 -1.169453E-08
        87  14 -1.946605E+05 -4.779802E+04 -7.434188E+03 -9.958910E+04  5.668953E-10 -5.378698E-09
        87  15 -1.930468E+05 -5.249408E+04 -1.409983E+04 -1.016754E+05 -2.192341E-10 -1.006780E-09
        87  16 -4.088002E+05 -1.277708E+05 -4.392788E+04 -1.624015E+05 -3.041813E-08 -1.209454E-08
        87  17 -4.382167E+05 -1.364552E+05 -5.284553E+04 -1.677178E+05 -1.326161E-08 -7.488392E-09
        87  18 -4.642647E+05 -1.521383E+05 -6.600585E+04 -1.781915E+05 -1.237989E-09 -2.099480E-11
        87  19  2.350697E+04  2.804608E+04  3.578951E+04 -4.290007E+04 -1.256492E+04  1.404208E+04
        87  20  4.895701E+04  4.086463E+04  3.797539E+04 -3.143603E+04 -1.579751E+04  1.489223E+04
        87  21  7.824824E+04  4.715749E+04  3.780415E+04 -2.512847E+04 -1.875453E+04  1.500688E+04
        87  22 -1.926700E+05 -4.986393E+04 -4.067754E+03 -1.026602E+05 -9.042914E+03  1.536461E+04
        87  23 -1.946602E+05 -4.779771E+04 -7.433381E+03 -9.958927E+04 -1.346391E+04  1.576905E+04
        87  24 -1.930464E+05 -5.249374E+04 -1.409880E+04 -1.016756E+05 -1.760916E+04  1.543788E+04
        87  25 -4.088001E+05 -1.277705E+05 -4.392730E+04 -1.624016E+05 -5.522180E+03  1.668667E+04
        87  26 -4.382165E+05 -1.364549E+05 -5.284478E+04 -1.677179E+05 -1.113127E+04  1.664551E+04
        87  27 -4.642644E+05 -1.521379E+05 -6.600487E+04 -1.781917E+05 -1.646432E+04  1.586867E+04
        88   1  9.865463E+04  5.135801E+04  3.727249E+04 -2.548066E+04  2.259190E+04 -1.471329E+04
        88   2  1.122709E+05  6.957091E+04  3.164170E+04  8.029809E+03  2.520089E+04 -1.029843E+04
        88   3  1.163109E+05  4.769420E+04  1.341208E+04  4.607285E+04  2.439678E+04  3.202695E+03
        88   4 -1.953432E+05 -5.145770E+04 -1.864379E+04 -1.029377E+05  2.010583E+04 -1.564770E+04
        88   5 -1.932618E+05 -5.944422E+04 -3.529067E+04 -9.413193E+04  3.741156E+04 -5.714221E+03
        88   6 -2.036768E+05 -1.104457E+05 -7.618686E+04 -8.079298E+04  5.130278E+04  1.330717E+04
        88   7 -4.892509E+05 -1.542671E+05 -7.456353E+04 -1.803614E+05  1.762101E+04 -1.658168E+04
        88   8 -4.986932E+05 -1.884407E+05 -1.022266E+05 -1.962427E+05  4.961560E+04 -1.133349E+03
        88   9 -5.235502E+05 -2.685497E+05 -1.657893E+05 -2.075883E+05  7.819296E+04  2.340153E+04
        88  10  9.865403E+04  5.135764E+04  3.727113E+04 -2.548039E+04 -1.769197E-09  1.137917E-09
        88  11  1.122702E+05  6.957062E+04  3.164031E+04  8.030018E+03  1.116091E-09  1.522995E-09
        88  12  1.163102E+05  4.769402E+04  1.341094E+04  4.607279E+04  1.769859E-09  5.744412E-10
        88  13 -1.953437E+05 -5.145807E+04 -1.864501E+04 -1.029375E+05 -7.488008E-11 -1.184794E-10
        88  14 -1.932634E+05 -5.944463E+04 -3.529336E+04 -9.413176E+04 -1.046246E-09 -6.888760E-10
        88  15 -2.036797E+05 -1.104466E+05 -7.619214E+04 -8.079353E+04 -9.279442E-12  5.069981E-10
        88  16 -4.892513E+05 -1.542675E+05 -7.456463E+04 -1.803611E+05 -1.652859E-09  1.254600E-09
        88  17 -4.986959E+05 -1.884413E+05 -1.022312E+05 -1.962427E+05  1.131793E-09  2.501205E-09
        88  18 -5.235570E+05 -2.685519E+05 -1.658018E+05 -2.075898E+05 -1.660384E-09 -3.095032E-10
        88  19  9.865463E+04  5.135801E+04  3.727249E+04 -2.548066E+04 -2.259190E+04  1.471329E+04
        88  20  1.122709E+05  6.957091E+04  3.164170E+04  8.029809E+03 -2.520089E+04  1.029843E+04
        88  21  1.163109E+05  4.769420E+04  1.341208E+04  4.607285E+04 -2.439678E+04 -3.202695E+03
        88  22 -1.953432E+05 -5.145770E+04 -1.864379E+04 -1.029377E+05 -2.010583E+04  1.564770E+04
        88  23 -1.932618E+05 -5.944422E+04 -3.529067E+04 -9.413193E+04 -3.741156E+04  5.714221E+03
        88  24 -2.036768E+05 -1.104457E+05 -7.618686E+04 -8.079298E+04 -5.130278E+04 -1.330717E+04
        88  25 -4.892509E+05 -1.542671E+05 -7.456353E+04 -1.803614E+05 -1.762101E+04  1.658168E+04
        88  26 -4.986932E+05 -1.884407E+05 -1.022266E+05 -1.962427E+05 -4.961560E+04  1.133349E+03
        88  27 -5.235502E+05 -2.685497E+05 -1.657893E+05 -2.075883E+05 -7.819296E+04 -2.340153E+04
        89   1  8.235202E+05  1.248492E+05  1.110766E+05  1.796125E+04  3.742704E+04 -9.050100E+03
        89   2  7.895243E+05  1.362434E+05  8.966410E+04  2.958072E+04  1.673023E+04 -3.148549E+04
        89   3  7.552723E+05  1.357738E+05  7.876512E+04  4.556909E+04 -3.975119E+03 -4.029740E+04
        89   4  1.409729E+05 -4.281780E+04 -4.540326E+04  4.662492E+04 -3.207058E+04 -9.114127E+03
        89   5  1.439195E+05 -1.528541E+04 -2.291209E+04  4.442019E+04 -2.036560E+04 -3.152577E+04
        89   6  1.409839E+05 -5.247103E+03 -1.239719E+04  4.658411E+04 -8.670755E+03 -4.030650E+04
        89   7 -5.411312E+05 -2.105115E+05 -2.018952E+05  7.525675E+04 -1.014925E+05 -9.184603E+03
        89   8 -5.012738E+05 -1.668352E+05 -1.354978E+05  5.924368E+04 -5.742406E+04 -3.156784E+04
        89   9 -4.729255E+05 -1.462856E+05 -1.035664E+05  4.759797E+04 -1.336194E+04 -4.031562E+04
        89  10  8.235186E+05  1.248487E+05  1.110738E+05  1.796152E+04 -8.991891E-08 -1.132524E-10
        89  11  7.895237E+05  1.362422E+05  8.966171E+04  2.958114E+04  7.533287E-09  2.609869E-10
        89  12  7.552718E+05  1.357720E+05  7.876204E+04  4.556896E+04  1.118557E-07  3.900605E-09
        89  13  1.409718E+05 -4.281817E+04 -4.540535E+04  4.662469E+04 -1.042121E-09 -1.196167E-09
        89  14  1.439188E+05 -1.528659E+04 -2.291474E+04  4.441967E+04 -1.770808E-09 -8.592432E-09
        89  15  1.409834E+05 -5.248867E+03 -1.240039E+04  4.658383E+04  1.485104E-09 -1.153309E-08
        89  16 -5.411423E+05 -2.105144E+05 -2.019147E+05  7.525600E+04  9.003676E-08  7.746500E-10
        89  17 -5.012776E+05 -1.668371E+05 -1.355058E+05  5.924222E+04 -1.028665E-08 -3.553425E-10
        89  18 -4.729261E+05 -1.462874E+05 -1.035698E+05  4.759754E+04 -1.101224E-07  3.116232E-09
        89  19  8.235202E+05  1.248492E+05  1.110766E+05  1.796125E+04 -3.742704E+04  9.050100E+03
        89  20  7.895243E+05  1.362434E+05  8.966410E+04  2.958072E+04 -1.673023E+04  3.148549E+04
        89  21  7.552723E+05  1.357738E+05  7.876512E+04  4.556909E+04  3.975119E+03  4.029740E+04
        89  22  1.409729E+05 -4.281780E+04 -4.540326E+04  4.662492E+04  3.207058E+04  9.114127E+03
        89  23  1.439195E+05 -1.528541E+04 -2.291209E+04  4.442019E+04  2.036560E+04  3.152577E+04
        89  24  1.409839E+05 -5.247103E+03 -1.239719E+04  4.658411E+04  8.670755E+03  4.030650E+04
        89  25 -5.411312E+05 -2.105115E+05 -2.018952E+05  7.525675E+04  1.014925E+05  9.184603E+03
        89  26 -5.012738E+05 -1.668352E+05 -1.354978E+05  5.924368E+04  5.742406E+04  3.156784E+04
        89  27 -4.729255E+05 -1.462856E+05 -1.035664E+05  4.759797E+04  1.336194E+04  4.031562E+04
        90   1  7.344595E+05  1.315563E+05  7.560969E+04  4.507425E+04 -3.358715E+03 -4.082553E+04
        90   2  7.004698E+05  1.253891E+05  7.028117E+04  4.354327E+04 -5.189680E+03 -4.147339E+04
        90   3  6.664795E+05  1.182553E+05  6.590450E+04  4.739383E+04 -7.023004E+03 -4.029750E+04
        90   4  1.421281E+05 -3.814177E+03 -9.249614E+03  4.681078E+04 -7.057943E+03 -4.083368E+04
        90   5  1.425112E+05 -1.198801E+03 -4.994232E+03  4.411758E+04 -4.553144E+03 -4.147645E+04
        90   6  1.421404E+05 -3.027733E+02 -2.796728E+03  4.680626E+04 -2.050727E+03 -4.029460E+04
        90   7 -4.498491E+05 -1.392005E+05 -9.411417E+04  4.854548E+04 -1.075379E+04 -4.084186E+04
        90   8 -4.151306E+05 -1.278001E+05 -8.027252E+04  4.469125E+04 -3.917153E+03 -4.147951E+04
        90   9 -3.819178E+05 -1.188724E+05 -7.149965E+04  4.621912E+04  2.917554E+03 -4.029170E+04
        90  10  7.344590E+05  1.315545E+05  7.560654E+04  4.507414E+04 -4.444507E-08  3.559588E-09
        90  11  7.004694E+05  1.253872E+05  7.027789E+04  4.354309E+04 -4.990438E-09  4.040287E-09
        90  12  6.664790E+05  1.182536E+05  6.590136E+04  4.739360E+04  3.448108E-08  1.055246E-09
        90  13  1.421276E+05 -3.815981E+03 -9.252841E+03  4.681055E+04  1.091692E-09 -1.236506E-08
        90  14  1.425107E+05 -1.200654E+03 -4.997504E+03  4.411743E+04  3.774409E-10 -6.394104E-09
        90  15  1.421399E+05 -3.045181E+02 -2.799787E+03  4.680619E+04  2.914977E-09 -3.677115E-09
        90  16 -4.498497E+05 -1.392024E+05 -9.411752E+04  4.854513E+04  4.277184E-08  6.933136E-09
        90  17 -4.151310E+05 -1.278019E+05 -8.027578E+04  4.469112E+04  3.495949E-09  5.222195E-09
        90  18 -3.819182E+05 -1.188741E+05 -7.150272E+04  4.621921E+04 -3.162527E-08  6.209968E-10
        90  19  7.344595E+05  1.315563E+05  7.560969E+04  4.507425E+04  3.358715E+03  4.082553E+04
        90  20  7.004698E+05  1.253891E+05  7.028117E+04  4.354327E+04  5.189680E+03  4.147339E+04
        90  21  6.664795E+05  1.182553E+05  6.590450E+04  4.739383E+04  7.023004E+03  4.029750E+04
        90  22  1.421281E+05 -3.814177E+03 -9.249614E+03  4.681078E+04  7.057943E+03  4.083368E+04
        90  23  1.425112E+05 -1.198801E+03 -4.994232E+03  4.411758E+04  4.553144E+03  4.147645E+04
        90  24  1.421404E+05 -3.027733E+02 -2.796728E+03  4.680626E+04  2.050727E+03  4.029460E+04
        90  25 -4.498491E+05 -1.392005E+05 -9.411417E+04  4.854548E+04  1.075379E+04  4.084186E+04
        90  26 -4.151306E+05 -1.278001E+05 -8.027252E+04  4.469125E+04  3.917153E+03  4.147951E+04
        90  27 -3.819178E+05 -1.188724E+05 -7.149965E+04  4.621912E+04 -2.917554E+03  4.029170E+04
        91   1  6.455220E+05  1.135024E+05  6.333355E+04  4.729948E+04 -6.744514E+03 -3.899749E+04
        91   2  6.115745E+05  1.059245E+05  5.927410E+04  4.458481E+04 -6.740352E+03 -3.672947E+04
        91   3  5.776103E+05  9.830194E+04  5.519926E+04  4.738249E+04 -6.737124E+03 -3.421768E+04
        91   4  1.422856E+05 -1.859665E+02 -2.106769E+03  4.683555E+04 -1.639909E+03 -3.899397E+04
        91   5  1.423503E+05  3.080709E+01 -1.178472E+03  4.407904E+04 -1.056604E+03 -3.672445E+04
        91   6  1.422965E+05  1.022993E+02 -6.678198E+02  4.683513E+04 -4.742327E+02 -3.421107E+04
        91   7 -3.606917E+05 -1.138849E+05 -6.754845E+04  4.637192E+04  3.460761E+03 -3.899046E+04
        91   8 -3.266484E+05 -1.058720E+05 -6.163201E+04  4.357360E+04  4.623060E+03 -3.671944E+04
        91   9 -2.928232E+05 -9.810514E+04 -5.653561E+04  4.628810E+04  5.784484E+03 -3.420446E+04
        91  10  6.455215E+05  1.135007E+05  6.333060E+04  4.729927E+04  2.526646E-09  6.946227E-10
        91  11  6.115741E+05  1.059231E+05  5.927148E+04  4.458461E+04  4.032869E-09  1.760143E-09
        91  12  5.776099E+05  9.830067E+04  5.519697E+04  4.738230E+04  6.489518E-09  1.582082E-09
        91  13  1.422852E+05 -1.876001E+02 -2.109631E+03  4.683549E+04 -8.692583E-11 -2.758703E-09
        91  14  1.423499E+05  2.935844E+01 -1.181009E+03  4.407901E+04  3.589396E-10  1.830009E-09
        91  15  1.422961E+05  1.010423E+02 -6.700198E+02  4.683512E+04 -2.471295E-09  3.935560E-09
        91  16 -3.606921E+05 -1.138865E+05 -6.755133E+04  4.637203E+04 -6.383449E-10  6.498120E-10
        91  17 -3.266488E+05 -1.058735E+05 -6.163458E+04  4.357373E+04 -7.024603E-09  2.260482E-09
        91  18 -2.928235E+05 -9.810640E+04 -5.653787E+04  4.628826E+04 -6.650285E-09  6.918791E-10
        91  19  6.455220E+05  1.135024E+05  6.333355E+04  4.729948E+04  6.744514E+03  3.899749E+04
        91  20  6.115745E+05  1.059245E+05  5.927410E+04  4.458481E+04  6.740352E+03  3.672947E+04
        91  21  5.776103E+05  9.830194E+04  5.519926E+04  4.738249E+04  6.737124E+03  3.421768E+04
        91  22  1.422856E+05 -1.859665E+02 -2.106769E+03  4.683555E+04  1.639909E+03  3.899397E+04
        91  23  1.423503E+05  3.080709E+01 -1.178472E+03  4.407904E+04  1.056604E+03  3.672445E+04
        91  24  1.422965E+05  1.022993E+02 -6.678198E+02  4.683513E+04  4.742327E+02  3.421107E+04
        91  25 -3.606917E+05 -1.138849E+05 -6.754845E+04  4.637192E+04 -3.460761E+03  3.899046E+04
        91  26 -3.266484E+05 -1.058720E+05 -6.163201E+04  4.357360E+04 -4.623060E+03  3.671944E+04
        91  27 -2.928232E+05 -9.810514E+04 -5.653561E+04  4.628810E+04 -5.784484E+03  3.420446E+04
        92   1  5.566558E+05  9.354630E+04  5.251150E+04  4.734956E+04 -6.652187E+03 -3.267371E+04
        92   2  5.227260E+05  8.589536E+04  4.836368E+04  4.455165E+04 -6.593283E+03 -3.001655E+04
        92   3  4.887825E+05  7.826315E+04  4.417857E+04  4.728043E+04 -6.534962E+03 -2.732718E+04
        92   4  1.423197E+05  1.099126E+02 -5.031200E+02  4.683834E+04 -3.723579E+02 -3.266664E+04
        92   5  1.423385E+05  1.185200E+02 -2.798778E+02  4.407489E+04 -2.371792E+02 -3.000870E+04
        92   6  1.423286E+05  1.324960E+02 -1.471933E+02  4.683832E+04 -1.025826E+02 -2.731855E+04
        92   7 -2.718403E+05 -9.333352E+04 -5.351832E+04  4.632742E+04  5.903487E+03 -3.265958E+04
        92   8 -2.379006E+05 -8.566425E+04 -4.892390E+04  4.359838E+04  6.115222E+03 -3.000086E+04
        92   9 -2.040022E+05 -7.800308E+04 -4.447331E+04  4.639641E+04  6.326385E+03 -2.730993E+04
        92  10  5.566555E+05  9.354514E+04  5.250941E+04  4.734938E+04  6.842849E-08  2.079343E-09
        92  11  5.227257E+05  8.589438E+04  4.836191E+04  4.455149E+04 -7.149263E-10  6.673581E-09
        92  12  4.887822E+05  7.826234E+04  4.417708E+04  4.728029E+04 -6.975129E-08  5.017404E-09
        92  13  1.423194E+05  1.087666E+02 -5.051257E+02  4.683833E+04 -5.923946E-12  2.321207E-09
        92  14  1.423383E+05  1.175529E+02 -2.815703E+02  4.407489E+04 -1.679123E-09  7.289143E-09
        92  15  1.423284E+05  1.316946E+02 -1.485959E+02  4.683831E+04  9.904902E-10  3.344678E-09
        92  16 -2.718406E+05 -9.333467E+04 -5.352039E+04  4.632758E+04 -6.992736E-08  2.024140E-09
        92  17 -2.379008E+05 -8.566522E+04 -4.892566E+04  4.359853E+04 -5.180674E-09  4.388727E-09
        92  18 -2.040024E+05 -7.800389E+04 -4.447479E+04  4.639655E+04  6.736174E-08  4.147256E-09
        92  19  5.566558E+05  9.354630E+04  5.251150E+04  4.734956E+04  6.652187E+03  3.267371E+04
        92  20  5.227260E+05  8.589536E+04  4.836368E+04  4.455165E+04  6.593283E+03  3.001655E+04
        92  21  4.887825E+05  7.826315E+04  4.417857E+04  4.728043E+04  6.534962E+03  2.732718E+04
        92  22  1.423197E+05  1.099126E+02 -5.031200E+02  4.683834E+04  3.723579E+02  3.266664E+04
        92  23  1.423385E+05  1.185200E+02 -2.798778E+02  4.407489E+04  2.371792E+02  3.000870E+04
        92  24  1.423286E+05  1.324960E+02 -1.471933E+02  4.683832E+04  1.025826E+02  2.731855E+04
        92  25 -2.718403E+05 -9.333352E+04 -5.351832E+04  4.632742E+04 -5.903487E+03  3.265958E+04
        92  26 -2.379006E+05 -8.566425E+04 -4.892390E+04  4.359838E+04 -6.115222E+03  3.000086E+04
        92  27 -2.040022E+05 -7.800308E+04 -4.447331E+04  4.639641E+04 -6.326385E+03  2.730993E+04
        93   1  4.678352E+05  7.351742E+04  4.142751E+04  4.725749E+04 -6.516255E+03 -2.575117E+04
        93   2  4.339190E+05  6.587313E+04  3.721184E+04  4.445538E+04 -6.513453E+03 -2.304335E+04
        93   3  3.999911E+05  5.825023E+04  3.299414E+04  4.718281E+04 -6.511068E+03 -2.033237E+04
        93   4  1.423346E+05  1.344904E+02 -1.010106E+02  4.683895E+04 -8.230345E+01 -2.574219E+04
        93   5  1.423448E+05  1.294662E+02 -2.862311E+01  4.407410E+04 -7.213432E+01 -2.303384E+04
        93   6  1.423414E+05  1.447155E+02  3.666344E+01  4.683894E+04 -6.238238E+01 -2.032234E+04
        93   7 -1.830574E+05 -7.325277E+04 -4.162980E+04  4.642059E+04  6.348442E+03 -2.573322E+04
        93   8 -1.491422E+05 -6.561766E+04 -3.726928E+04  4.369297E+04  6.366309E+03 -2.302434E+04
        93   9 -1.152402E+05 -5.796350E+04 -3.292094E+04  4.649519E+04  6.383759E+03 -2.031232E+04
        93  10  4.678350E+05  7.351670E+04  4.142618E+04  4.725735E+04  6.153617E-09  1.231046E-09
        93  11  4.339188E+05  6.587254E+04  3.721076E+04  4.445526E+04 -3.932980E-09 -1.488322E-09
        93  12  3.999910E+05  5.824977E+04  3.299328E+04  4.718270E+04 -1.029669E-08 -7.819051E-10
        93  13  1.423344E+05  1.337787E+02 -1.022560E+02  4.683895E+04  1.018175E-10  6.378691E-09
        93  14  1.423447E+05  1.288964E+02 -2.962021E+01  4.407410E+04 -1.776816E-09  5.191119E-10
        93  15  1.423413E+05  1.442720E+02  3.588728E+01  4.683894E+04 -3.738240E-09 -9.104197E-10
        93  16 -1.830576E+05 -7.325349E+04 -4.163112E+04  4.642073E+04 -1.098801E-08  3.810243E-09
        93  17 -1.491424E+05 -6.561824E+04 -3.727035E+04  4.369309E+04 -2.804685E-09 -5.555901E-10
        93  18 -1.152404E+05 -5.796396E+04 -3.292179E+04  4.649530E+04  6.878283E-09 -8.847810E-10
        93  19  4.678352E+05  7.351742E+04  4.142751E+04  4.725749E+04  6.516255E+03  2.575117E+04
        93  20  4.339190E+05  6.587313E+04  3.721184E+04  4.445538E+04  6.513453E+03  2.304335E+04
        93  21  3.999911E+05  5.825023E+04  3.299414E+04  4.718281E+04  6.511068E+03  2.033237E+04
        93  22  1.423346E+05  1.344904E+02 -1.010106E+02  4.683895E+04  8.230345E+01  2.574219E+04
        93  23  1.423448E+05  1.294662E+02 -2.862311E+01  4.407410E+04  7.213432E+01  2.303384E+04
        93  24  1.423414E+05  1.447155E+02  3.666344E+01  4.683894E+04  6.238238E+01  2.032234E+04
        93  25 -1.830574E+05 -7.325277E+04 -4.162980E+04  4.642059E+04 -6.348442E+03  2.573322E+04
        93  26 -1.491422E+05 -6.561766E+04 -3.726928E+04  4.369297E+04 -6.366309E+03  2.302434E+04
        93  27 -1.152402E+05 -5.796350E+04 -3.292094E+04  4.649519E+04 -6.383759E+03  2.031232E+04
        94   1  3.790537E+05  5.350831E+04  3.023881E+04  4.716077E+04 -6.522206E+03 -1.875334E+04
        94   2  3.451425E+05  4.587438E+04  2.604679E+04  4.434678E+04 -6.592415E+03 -1.604418E+04
        94   3  3.112311E+05  3.828212E+04  2.190428E+04  4.705973E+04 -6.662897E+03 -1.334138E+04
        94   4  1.423466E+05  1.474887E+02  7.179393E+01  4.683836E+04 -7.426688E+01 -1.874306E+04
        94   5  1.423484E+05  1.500055E+02  1.632293E+02  4.407480E+04 -1.597574E+02 -1.603356E+04
        94   6  1.423513E+05  1.968659E+02  3.146664E+02  4.683828E+04 -2.455244E+02 -1.333044E+04
        94   7 -9.430295E+04 -5.321560E+04 -3.009528E+04  4.651605E+04  6.371335E+03 -1.873278E+04
        94   8 -6.040354E+04 -4.557603E+04 -2.572035E+04  4.380290E+04  6.270902E+03 -1.602295E+04
        94   9 -2.649912E+04 -3.788954E+04 -2.127491E+04  4.661689E+04  6.170188E+03 -1.331950E+04
        94  10  3.790536E+05  5.350792E+04  3.023807E+04  4.716068E+04 -5.133879E-09  3.224757E-09
        94  11  3.451424E+05  4.587409E+04  2.604623E+04  4.434669E+04 -4.794077E-09  2.244353E-09
        94  12  3.112310E+05  3.828192E+04  2.190386E+04  4.705966E+04 -5.293098E-09  2.786040E-09
        94  13  1.423465E+05  1.471114E+02  7.113371E+01  4.683836E+04 -1.082747E-09  2.042828E-09
        94  14  1.423483E+05  1.497294E+02  1.627462E+02  4.407480E+04 -7.647014E-10  2.883923E-09
        94  15  1.423513E+05  1.966751E+02  3.143323E+02  4.683828E+04  1.802003E-09  3.203242E-09
        94  16 -9.430308E+04 -5.321599E+04 -3.009602E+04  4.651615E+04  3.640132E-09  1.721629E-09
        94  17 -6.040365E+04 -4.557632E+04 -2.572090E+04  4.380298E+04  1.199742E-09 -3.936460E-09
        94  18 -2.649921E+04 -3.788974E+04 -2.127532E+04  4.661696E+04  6.206015E-09  7.969741E-11
        94  19  3.790537E+05  5.350831E+04  3.023881E+04  4.716077E+04  6.522206E+03  1.875334E+04
        94  20  3.451425E+05  4.587438E+04  2.604679E+04  4.434678E+04  6.592415E+03  1.604418E+04
        94  21  3.112311E+05  3.828212E+04  2.190428E+04  4.705973E+04  6.662897E+03  1.334138E+04
        94  22  1.423466E+05  1.474887E+02  7.179393E+01  4.683836E+04  7.426688E+01  1.874306E+04
        94  23  1.423484E+05  1.500055E+02  1.632293E+02  4.407480E+04  1.597574E+02  1.603356E+04
        94  24  1.423513E+05  1.968659E+02  3.146664E+02  4.683828E+04  2.455244E+02  1.333044E+04
        94  25 -9.430295E+04 -5.321560E+04 -3.009528E+04  4.651605E+04 -6.371335E+03  1.873278E+04
        94  26 -6.040354E+04 -4.557603E+04 -2.572035E+04  4.380290E+04 -6.270902E+03  1.602295E+04
        94  27 -2.649912E+04 -3.788954E+04 -2.127491E+04  4.661689E+04 -6.170188E+03  1.331950E+04
        95   1  2.903152E+05  3.355469E+04  1.921310E+04  4.704952E+04 -6.723427E+03 -1.176886E+04
        95   2  2.563720E+05  2.603790E+04  1.521883E+04  4.406373E+04 -6.991781E+03 -9.096289E+03
        95   3  2.225089E+05  1.878791E+04  1.145872E+04  4.659958E+04 -7.260194E+03 -6.474063E+03
        95   4  1.423743E+05  2.157259E+02  4.235732E+02  4.683716E+04 -3.100812E+02 -1.175775E+04
        95   5  1.423261E+05  3.438032E+02  7.654747E+02  4.407584E+04 -6.982441E+02 -9.085204E+03
        95   6  1.423769E+05  7.593784E+02  1.424458E+03  4.683621E+04 -1.086477E+03 -6.463000E+03
        95   7 -5.543939E+03 -3.312411E+04 -1.836588E+04  4.662484E+04  6.101812E+03 -1.174666E+04
        95   8  2.829361E+04 -2.535080E+04 -1.368778E+04  4.408795E+04  5.594194E+03 -9.074116E+03
        95   9  6.225169E+04 -1.726939E+04 -8.609675E+03  4.707281E+04  5.086484E+03 -6.451931E+03
        95  10  2.903151E+05  3.355453E+04  1.921275E+04  4.704945E+04 -3.302512E-08  5.462903E-09
        95  11  2.563719E+05  2.603780E+04  1.521858E+04  4.406368E+04  2.938855E-09  4.003418E-09
        95  12  2.225088E+05  1.878785E+04  1.145854E+04  4.659954E+04  4.367688E-08  8.064405E-09
        95  13  1.423743E+05  2.155774E+02  4.233132E+02  4.683715E+04  2.146190E-09  2.145049E-09
        95  14  1.423261E+05  3.437144E+02  7.653186E+02  4.407584E+04 -2.497398E-10 -3.011904E-09
        95  15  1.423769E+05  7.593332E+02  1.424377E+03  4.683621E+04  2.591488E-09 -9.463408E-09
        95  16 -5.544016E+03 -3.312427E+04 -1.836621E+04  4.662489E+04  3.583914E-08  3.810695E-09
        95  17  2.829355E+04 -2.535090E+04 -1.368799E+04  4.408799E+04 -6.646970E-09  5.310821E-09
        95  18  6.225166E+04 -1.726944E+04 -8.609802E+03  4.707283E+04 -4.515048E-08  2.117879E-09
        95  19  2.903152E+05  3.355469E+04  1.921310E+04  4.704952E+04  6.723427E+03  1.176886E+04
        95  20  2.563720E+05  2.603790E+04  1.521883E+04  4.406373E+04  6.991781E+03  9.096289E+03
        95  21  2.225089E+05  1.878791E+04  1.145872E+04  4.659958E+04  7.260194E+03  6.474063E+03
        95  22  1.423743E+05  2.157259E+02  4.235732E+02  4.683716E+04  3.100812E+02  1.175775E+04
        95  23  1.423261E+05  3.438032E+02  7.654747E+02  4.407584E+04  6.982441E+02  9.085204E+03
        95  24  1.423769E+05  7.593784E+02  1.424458E+03  4.683621E+04  1.086477E+03  6.463000E+03
        95  25 -5.543939E+03 -3.312411E+04 -1.836588E+04  4.662484E+04 -6.101812E+03  1.174666E+04
        95  26  2.829361E+04 -2.535080E+04 -1.368778E+04  4.408795E+04 -5.594194E+03  9.074116E+03
        95  27  6.225169E+04 -1.726939E+04 -8.609675E+03  4.707281E+04 -5.086484E+03  6.451931E+03
        96   1  2.017269E+05  1.424194E+04  9.061436E+03  4.667622E+04 -7.483462E+03 -4.952293E+03
        96   2  1.674639E+05  8.060445E+03  5.939258E+03  4.174726E+04 -8.395375E+03 -2.555711E+03
        96   3  1.339386E+05  4.447955E+03  4.045452E+03  4.230918E+04 -9.306658E+03 -5.348426E+02
        96   4  1.425537E+05  9.804139E+02  1.910793E+03  4.682992E+04 -1.337519E+03 -4.941208E+03
        96   5  1.421078E+05  2.519107E+03  3.533200E+03  4.407938E+04 -3.142411E+03 -2.546229E+03
        96   6  1.425538E+05  6.781972E+03  7.004014E+03  4.681963E+04 -4.946728E+03 -5.269793E+02
        96   7  8.338412E+04 -1.228123E+04 -5.239704E+03  4.698360E+04  4.807869E+03 -4.930120E+03
        96   8  1.167525E+05 -3.022216E+03  1.127261E+03  4.641140E+04  2.110351E+03 -2.536708E+03
        96   9  1.511692E+05  9.116068E+03  9.962651E+03  5.133015E+04 -5.867356E+02 -5.190527E+02
        96  10  2.017268E+05  1.424190E+04  9.061285E+03  4.667619E+04 -4.429717E-08  8.982907E-09
        96  11  1.674639E+05  8.060419E+03  5.939114E+03  4.174724E+04 -1.481276E-08  1.873097E-09
        96  12  1.339385E+05  4.447931E+03  4.045288E+03  4.230917E+04  2.589053E-08  1.090012E-09
        96  13  1.425536E+05  9.803872E+02  1.910744E+03  4.682991E+04  2.262888E-09 -6.794536E-09
        96  14  1.421078E+05  2.519097E+03  3.533169E+03  4.407937E+04 -3.452695E-10 -9.466337E-09
        96  15  1.425538E+05  6.781965E+03  7.003968E+03  4.681963E+04 -1.371145E-09  1.643311E-09
        96  16  8.338409E+04 -1.228126E+04 -5.239793E+03  4.698362E+04  4.394610E-08  7.517834E-09
        96  17  1.167525E+05 -3.022225E+03  1.127241E+03  4.641140E+04  8.223188E-09  5.157448E-09
        96  18  1.511692E+05  9.116067E+03  9.962650E+03  5.133015E+04 -2.519808E-08  2.333472E-10
        96  19  2.017269E+05  1.424194E+04  9.061436E+03  4.667622E+04  7.483462E+03  4.952293E+03
        96  20  1.674639E+05  8.060445E+03  5.939258E+03  4.174726E+04  8.395375E+03  2.555711E+03
        96  21  1.339386E+05  4.447955E+03  4.045452E+03  4.230918E+04  9.306658E+03  5.348426E+02
        96  22  1.425537E+05  9.804139E+02  1.910793E+03  4.682992E+04  1.337519E+03  4.941208E+03
        96  23  1.421078E+05  2.519107E+03  3.533200E+03  4.407938E+04  3.142411E+03  2.546229E+03
        96  24  1.425538E+05  6.781972E+03  7.004014E+03  4.681963E+04  4.946728E+03  5.269793E+02
        96  25  8.338412E+04 -1.228123E+04 -5.239704E+03  4.698360E+04 -4.807869E+03  4.930120E+03
        96  26  1.167525E+05 -3.022216E+03  1.127261E+03  4.641140E+04 -2.110351E+03  2.536708E+03
        96  27  1.511692E+05  9.116068E+03  9.962651E+03  5.133015E+04  5.867356E+02  5.190527E+02
        97   1  5.497486E+03  3.859869E+05  7.142099E+03 -4.699518E+04 -8.203658E+02 -5.997360E+02
        97   2 -9.587816E+03  3.446747E+05 -2.915576E+03 -4.002615E+04 -3.680537E+03 -3.304234E+03
        97   3 -2.041581E+04  3.047614E+05 -1.015437E+04 -4.205541E+04 -6.605107E+03 -6.008566E+03
        97   4  7.280747E+03  3.939041E+05  8.195055E+03 -4.232075E+04 -8.247911E+02  4.293465E+03
        97   5  1.708416E+03  3.932147E+05  5.069431E+03 -3.782463E+04 -3.684983E+03  1.700088E+03
        97   6  3.741808E+02  3.939039E+05  4.685681E+03 -4.232662E+04 -6.609552E+03 -8.932782E+02
        97   7  9.064100E+03  4.018215E+05  9.248112E+03 -3.764627E+04 -8.291427E+02  9.186725E+03
        97   8  1.300456E+04  4.417571E+05  1.305447E+04 -3.562293E+04 -3.689393E+03  6.704787E+03
        97   9  2.116378E+04  4.830542E+05  1.952559E+04 -4.259787E+04 -6.614001E+03  4.222719E+03
        97  10  5.497485E+03  3.859869E+05  7.142097E+03 -4.699518E+04  4.337253E-10 -3.642106E-08
        97  11 -9.587834E+03  3.446747E+05 -2.915622E+03 -4.002616E+04  4.307454E-10  3.265468E-09
        97  12 -2.041587E+04  3.047613E+05 -1.015452E+04 -4.205544E+04 -1.847362E-09  4.420132E-08
        97  13  7.280741E+03  3.939041E+05  8.195019E+03 -4.232075E+04  2.754780E-09  8.607780E-10
        97  14  1.708401E+03  3.932147E+05  5.069400E+03 -3.782462E+04  4.067686E-09  7.087479E-11
        97  15  3.741337E+02  3.939039E+05  4.685597E+03 -4.232663E+04  5.590373E-09  7.756409E-10
        97  16  9.064077E+03  4.018214E+05  9.247953E+03 -3.764626E+04 -6.960655E-10  3.601109E-08
        97  17  1.300453E+04  4.417570E+05  1.305436E+04 -3.562291E+04 -1.359641E-09 -3.209400E-09
        97  18  2.116372E+04  4.830542E+05  1.952547E+04 -4.259785E+04 -3.056500E-09 -4.545177E-08
        97  19  5.497486E+03  3.859869E+05  7.142099E+03 -4.699518E+04  8.203658E+02  5.997360E+02
        97  20 -9.587816E+03  3.446747E+05 -2.915576E+03 -4.002615E+04  3.680537E+03  3.304234E+03
        97  21 -2.041581E+04  3.047614E+05 -1.015437E+04 -4.205541E+04  6.605107E+03  6.008566E+03
        97  22  7.280747E+03  3.939041E+05  8.195055E+03 -4.232075E+04  8.247911E+02 -4.293465E+03
        97  23  1.708416E+03  3.932147E+05  5.069431E+03 -3.782463E+04  3.684983E+03 -1.700088E+03
        97  24  3.741808E+02  3.939039E+05  4.685681E+03 -4.232662E+04  6.609552E+03  8.932782E+02
        97  25  9.064100E+03  4.018215E+05  9.248112E+03 -3.764627E+04  8.291427E+02 -9.186725E+03
        97  26  1.300456E+04  4.417571E+05  1.305447E+04 -3.562293E+04  3.689393E+03 -6.704787E+03
        97  27  2.116378E+04  4.830542E+05  1.952559E+04 -4.259787E+04  6.614001E+03 -4.222719E+03
        98   1 -2.658367E+04  2.782856E+05 -1.433582E+04 -4.279005E+04 -8.366909E+03 -6.869048E+03
        98   2 -3.599717E+04  2.372841E+05 -1.935988E+04 -3.747424E+04 -1.102466E+04 -9.330942E+03
        98   3 -4.372118E+04  1.970123E+05 -2.236341E+04 -4.112680E+04 -1.301835E+04 -1.179191E+04
        98   4  3.995852E+02  3.938024E+05  5.112510E+03 -4.231948E+04 -8.371302E+03 -1.697781E+03
        98   5  5.204210E+02  3.933363E+05  7.227610E+03 -3.783447E+04 -1.102781E+04 -5.308440E+03
        98   6  2.529858E+03  3.937973E+05  1.216015E+04 -4.231763E+04 -1.302032E+04 -8.918328E+03
        98   7  2.738215E+04  5.093324E+05  2.456052E+04 -4.184883E+04 -8.375687E+03  3.474416E+03
        98   8  3.703673E+04  5.494125E+05  3.381436E+04 -3.819479E+04 -1.103095E+04 -1.284960E+03
        98   9  4.877880E+04  5.906201E+05  4.668234E+04 -4.350885E+04 -1.302230E+04 -6.043864E+03
        98  10 -2.658375E+04  2.782855E+05 -1.433604E+04 -4.279010E+04 -2.256654E-09 -1.484490E-08
        98  11 -3.599732E+04  2.372840E+05 -1.936027E+04 -3.747432E+04 -1.082651E-09 -4.282682E-09
        98  12 -4.372140E+04  1.970121E+05 -2.236399E+04 -4.112692E+04 -3.882699E-09  7.309215E-09
        98  13  3.995091E+02  3.938024E+05  5.112373E+03 -4.231950E+04  4.807792E-09  9.320623E-10
        98  14  5.202828E+02  3.933363E+05  7.227329E+03 -3.783452E+04 -3.738586E-10 -2.233669E-10
        98  15  2.529654E+03  3.937971E+05  1.215968E+04 -4.231773E+04 -3.883294E-09  7.628115E-10
        98  16  2.738207E+04  5.093323E+05  2.456037E+04 -4.184880E+04 -4.752796E-09  1.436159E-08
        98  17  3.703660E+04  5.494124E+05  3.381413E+04 -3.819480E+04 -1.296283E-09  4.577688E-09
        98  18  4.877861E+04  5.906200E+05  4.668195E+04 -4.350891E+04 -2.167606E-09 -8.737669E-09
        98  19 -2.658367E+04  2.782856E+05 -1.433582E+04 -4.279005E+04  8.366909E+03  6.869048E+03
        98  20 -3.599717E+04  2.372841E+05 -1.935988E+04 -3.747424E+04  1.102466E+04  9.330942E+03
        98  21 -4.372118E+04  1.970123E+05 -2.236341E+04 -4.112680E+04  1.301835E+04  1.179191E+04
        98  22  3.995852E+02  3.938024E+05  5.112510E+03 -4.231948E+04  8.371302E+03  1.697781E+03
        98  23  5.204210E+02  3.933363E+05  7.227610E+03 -3.783447E+04  1.102781E+04  5.308440E+03
        98  24  2.529858E+03  3.937973E+05  1.216015E+04 -4.231763E+04  1.302032E+04  8.918328E+03
        98  25  2.738215E+04  5.093324E+05  2.456052E+04 -4.184883E+04  8.375687E+03 -3.474416E+03
        98  26  3.703673E+04  5.494125E+05  3.381436E+04 -3.819479E+04  1.103095E+04  1.284960E+03
        98  27  4.877880E+04  5.906201E+05  4.668234E+04 -4.350885E+04  1.302230E+04  6.043864E+03
        99   1 -5.064872E+04  1.721607E+05 -2.390831E+04 -4.477795E+04 -1.439012E+04 -1.460281E+04
        99   2 -5.078185E+04  1.278590E+05 -2.307236E+04 -2.272279E+04 -1.282416E+04 -1.652822E+04
        99   3 -2.312568E+04  9.075176E+04 -1.403569E+04 -9.155591E+03 -3.945438E+03 -1.844874E+04
        99   4  1.966628E+03  3.956747E+05  1.574891E+04 -4.221537E+04 -1.439261E+04 -1.099153E+04
        99   5  1.211788E+04  3.909756E+05  2.825251E+04 -3.795315E+04 -1.281656E+04 -2.555962E+04
        99   6  5.224463E+04  3.956581E+05  5.773005E+04 -4.217771E+04 -3.929054E+03 -4.012306E+04
        99   7  5.457926E+04  6.192375E+05  5.540432E+04 -3.965184E+04 -1.439507E+04 -7.378981E+03
        99   8  7.501437E+04  6.541592E+05  7.957450E+04 -5.319010E+04 -1.280852E+04 -3.459475E+04
        99   9  1.276126E+05  7.006533E+05  1.294917E+05 -7.521612E+04 -3.910369E+03 -6.180795E+04
        99  10 -5.064900E+04  1.721604E+05 -2.390910E+04 -4.477812E+04 -4.033971E-09  5.645012E-09
        99  11 -5.078210E+04  1.278587E+05 -2.307318E+04 -2.272296E+04  2.380924E-09  1.986723E-09
        99  12 -2.312579E+04  9.075139E+04 -1.403636E+04 -9.155650E+03  2.067860E-12 -9.345206E-10
        99  13  1.966373E+03  3.956745E+05  1.574829E+04 -4.221550E+04  1.696074E-10  6.179483E-10
        99  14  1.211753E+04  3.909748E+05  2.825097E+04 -3.795341E+04 -1.912031E-09 -3.704204E-10
        99  15  5.224418E+04  3.956564E+05  5.772700E+04 -4.217784E+04 -9.870038E-10  7.313346E-10
        99  16  5.457902E+04  6.192373E+05  5.540383E+04 -3.965192E+04  7.992569E-10 -6.189510E-09
        99  17  7.501387E+04  6.541579E+05  7.957195E+04 -5.319045E+04 -2.796861E-09 -1.819930E-09
        99  18  1.276116E+05  7.006492E+05  1.294845E+05 -7.521631E+04 -1.209198E-09 -1.525219E-10
        99  19 -5.064872E+04  1.721607E+05 -2.390831E+04 -4.477795E+04  1.439012E+04  1.460281E+04
        99  20 -5.078185E+04  1.278590E+05 -2.307236E+04 -2.272279E+04  1.282416E+04  1.652822E+04
        99  21 -2.312568E+04  9.075176E+04 -1.403569E+04 -9.155591E+03  3.945438E+03  1.844874E+04
        99  22  1.966628E+03  3.956747E+05  1.574891E+04 -4.221537E+04  1.439261E+04  1.099153E+04
        99  23  1.211788E+04  3.909756E+05  2.825251E+04 -3.795315E+04  1.281656E+04  2.555962E+04
        99  24  5.224463E+04  3.956581E+05  5.773005E+04 -4.217771E+04  3.929054E+03  4.012306E+04
        99  25  5.457926E+04  6.192375E+05  5.540432E+04 -3.965184E+04  1.439507E+04  7.378981E+03
        99  26  7.501437E+04  6.541592E+05  7.957450E+04 -5.319010E+04  1.280852E+04  3.459475E+04
        99  27  1.276126E+05  7.006533E+05  1.294917E+05 -7.521612E+04  3.910369E+03  6.180795E+04
       100   1  8.455138E+05  2.986464E+05  1.454697E+05  3.167639E+05  5.745368E+04  1.165431E+04
       100   2  7.971552E+05  2.808391E+05  1.036761E+05  3.033674E+05  3.717728E+04 -1.985945E+04
       100   3  7.478548E+05  2.695400E+05  8.304709E+04  2.967870E+05  1.164299E+04 -3.737334E+04
       100   4  2.159179E+05  7.007930E+04 -1.223041E+04  1.512988E+05 -4.744008E+03 -1.173926E+04
       100   5  2.201291E+05  7.443916E+04 -5.877360E+03  1.461922E+05  6.164561E+03 -3.152946E+04
       100   6  2.172245E+05  7.913550E+04 -3.045817E+03  1.479018E+05  1.180900E+04 -3.731476E+04
       100   7 -4.132527E+05 -1.584534E+05 -1.699368E+05 -1.400697E+04 -6.686978E+04 -3.510755E+04
       100   8 -3.565339E+05 -1.319271E+05 -1.154364E+05 -1.084431E+04 -2.481654E+04 -4.318802E+04
       100   9 -3.131030E+05 -1.112396E+05 -8.914432E+04 -8.637529E+02  1.197485E+04 -3.725623E+04
       100  10  8.455102E+05  2.986454E+05  1.454633E+05  3.167633E+05  2.462856E-09  5.994238E-11
       100  11  7.971537E+05  2.808383E+05  1.036728E+05  3.033680E+05 -2.887319E-10 -3.335829E-09
       100  12  7.478543E+05  2.695384E+05  8.304421E+04  2.967873E+05  3.317152E-11 -3.807129E-09
       100  13  2.159178E+05  7.007915E+04 -1.223071E+04  1.512987E+05 -6.111353E-10  2.295506E-10
       100  14  2.201288E+05  7.443808E+04 -5.879299E+03  1.461923E+05 -4.232496E-09 -3.859502E-09
       100  15  2.172240E+05  7.913396E+04 -3.048696E+03  1.479022E+05 -3.935435E-09  2.008884E-09
       100  16 -4.132579E+05 -1.584559E+05 -1.699475E+05 -1.400886E+04 -4.990452E-09 -2.538999E-09
       100  17 -3.565351E+05 -1.319292E+05 -1.154411E+05 -1.084518E+04 -7.023640E-10 -1.527581E-09
       100  18 -3.131035E+05 -1.112411E+05 -8.914720E+04 -8.633936E+02  6.967610E-09  2.938480E-09
       100  19  8.455138E+05  2.986464E+05  1.454697E+05  3.167639E+05 -5.745368E+04 -1.165431E+04
       100  20  7.971552E+05  2.808391E+05  1.036761E+05  3.033674E+05 -3.717728E+04  1.985945E+04
       100  21  7.478548E+05  2.695400E+05  8.304709E+04  2.967870E+05 -1.164299E+04  3.737334E+04
       100  22  2.159179E+05  7.007930E+04 -1.223041E+04  1.512988E+05  4.744008E+03  1.173926E+04
       100  23  2.201291E+05  7.443916E+04 -5.877360E+03  1.461922E+05 -6.164561E+03  3.152946E+04
       100  24  2.172245E+05  7.913550E+04 -3.045817E+03  1.479018E+05 -1.180900E+04  3.731476E+04
       100  25 -4.132527E+05 -1.584534E+05 -1.699368E+05 -1.400697E+04  6.686978E+04  3.510755E+04
       100  26 -3.565339E+05 -1.319271E+05 -1.154364E+05 -1.084431E+04  2.481654E+04  4.318802E+04
       100  27 -3.131030E+05 -1.112396E+05 -8.914432E+04 -8.637529E+02 -1.197485E+04  3.725623E+04
       101   1  7.184583E+05  2.587113E+05  7.657433E+04  2.885844E+05  1.175325E+04 -3.668342E+04
       101   2  6.747446E+05  2.392574E+05  6.632793E+04  2.725380E+05  8.327451E+03 -3.693715E+04
       101   3  6.257946E+05  2.258801E+05  5.844831E+04  2.631351E+05  4.280062E+03 -3.554053E+04
       101   4  2.173963E+05  7.960102E+04 -2.254034E+03  1.481106E+05  1.193817E+04 -3.661750E+04
       101   5  2.204389E+05  7.730539E+04 -1.167277E+03  1.446490E+05  1.218788E+04 -3.548728E+04
       101   6  2.175165E+05  8.035906E+04 -6.238849E+02  1.478308E+05  1.181557E+04 -3.270606E+04
       101   7 -2.834026E+05 -9.948590E+04 -8.108871E+04  7.741226E+03  1.212294E+04 -3.655163E+04
       101   8 -2.336462E+05 -8.462558E+04 -6.866554E+04  1.684735E+04  1.604535E+04 -3.403852E+04
       101   9 -1.905803E+05 -6.514358E+04 -5.969718E+04  3.259795E+04  1.934586E+04 -2.987355E+04
       101  10  7.184577E+05  2.587099E+05  7.657154E+04  2.885847E+05  1.197692E-08 -8.100302E-10
       101  11  6.747441E+05  2.392559E+05  6.632523E+04  2.725382E+05 -8.836288E-09 -4.599328E-09
       101  12  6.257943E+05  2.258787E+05  5.844590E+04  2.631353E+05 -2.089419E-08 -6.486633E-09
       101  13  2.173958E+05  7.959954E+04 -2.256822E+03  1.481109E+05 -4.977042E-09 -2.950507E-09
       101  14  2.204384E+05  7.730400E+04 -1.169923E+03  1.446494E+05 -2.091015E-08 -4.842005E-09
       101  15  2.175160E+05  8.035787E+04 -6.261577E+02  1.478311E+05 -1.987086E-08 -3.583118E-09
       101  16 -2.834031E+05 -9.948738E+04 -8.109150E+04  7.741583E+03 -1.251866E-08 -2.984361E-09
       101  17 -2.336468E+05 -8.462689E+04 -6.866820E+04  1.684779E+04 -1.418483E-08 -4.169380E-09
       101  18 -1.905809E+05 -6.514464E+04 -5.969957E+04  3.259841E+04  4.010956E-10 -2.222529E-10
       101  19  7.184583E+05  2.587113E+05  7.657433E+04  2.885844E+05 -1.175325E+04  3.668342E+04
       101  20  6.747446E+05  2.392574E+05  6.632793E+04  2.725380E+05 -8.327451E+03  3.693715E+04
       101  21  6.257946E+05  2.258801E+05  5.844831E+04  2.631351E+05 -4.280062E+03  3.554053E+04
       101  22  2.173963E+05  7.960102E+04 -2.254034E+03  1.481106E+05 -1.193817E+04  3.661750E+04
       101  23  2.204389E+05  7.730539E+04 -1.167277E+03  1.446490E+05 -1.218788E+04  3.548728E+04
       101  24  2.175165E+05  8.035906E+04 -6.238849E+02  1.478308E+05 -1.181557E+04  3.270606E+04
       101  25 -2.834026E+05 -9.948590E+04 -8.108871E+04  7.741226E+03 -1.212294E+04  3.655163E+04
       101  26 -2.336462E+05 -8.462558E+04 -6.866554E+04  1.684735E+04 -1.604535E+04  3.403852E+04
       101  27 -1.905803E+05 -6.514358E+04 -5.969718E+04  3.259795E+04 -1.934586E+04  2.987355E+04
       102   1  5.970269E+05  2.155721E+05  5.400944E+04  2.550391E+05  3.597872E+03 -3.347866E+04
       102   2  5.538362E+05  1.962345E+05  4.724284E+04  2.387177E+05  1.977454E+03 -3.011458E+04
       102   3  5.048750E+05  1.827880E+05  4.072190E+04  2.290554E+05  2.833787E+02 -2.655689E+04
       102   4  2.175354E+05  8.040441E+04 -4.631693E+02  1.478567E+05  1.113375E+04 -3.064340E+04
       102   5  2.204766E+05  7.753712E+04 -2.414272E+02  1.445169E+05  9.944319E+03 -2.711606E+04
       102   6  2.175588E+05  8.047564E+04 -1.159743E+02  1.478357E+05  8.681179E+03 -2.339505E+04
       102   7 -1.617940E+05 -5.474543E+04 -5.493515E+04  4.073764E+04  1.866468E+04 -2.781000E+04
       102   8 -1.127615E+05 -4.114781E+04 -4.772608E+04  5.036399E+04  1.790669E+04 -2.411923E+04
       102   9 -6.967087E+04 -2.182889E+04 -4.095505E+04  6.665064E+04  1.707500E+04 -2.023470E+04
       102  10  5.970266E+05  2.155709E+05  5.400731E+04  2.550392E+05 -8.705749E-09  2.079132E-09
       102  11  5.538359E+05  1.962335E+05  4.724113E+04  2.387177E+05 -1.025378E-08  1.038917E-09
       102  12  5.048748E+05  1.827873E+05  4.072057E+04  2.290554E+05 -8.391884E-09 -3.929765E-10
       102  13  2.175350E+05  8.040337E+04 -4.651671E+02  1.478570E+05 -1.719880E-08 -3.538524E-09
       102  14  2.204763E+05  7.753631E+04 -2.429950E+02  1.445171E+05 -1.834613E-08 -2.337091E-09
       102  15  2.175586E+05  8.047503E+04 -1.171446E+02  1.478359E+05 -9.176520E-09 -3.691470E-10
       102  16 -1.617946E+05 -5.474635E+04 -5.493726E+04  4.073806E+04 -5.451999E-09 -2.827358E-09
       102  17 -1.127620E+05 -4.114853E+04 -4.772778E+04  5.036434E+04 -2.816380E-09 -6.746652E-09
       102  18 -6.967130E+04 -2.182941E+04 -4.095637E+04  6.665092E+04  9.046471E-09 -3.651272E-09
       102  19  5.970269E+05  2.155721E+05  5.400944E+04  2.550391E+05 -3.597872E+03  3.347866E+04
       102  20  5.538362E+05  1.962345E+05  4.724284E+04  2.387177E+05 -1.977454E+03  3.011458E+04
       102  21  5.048750E+05  1.827880E+05  4.072190E+04  2.290554E+05 -2.833787E+02  2.655689E+04
       102  22  2.175354E+05  8.040441E+04 -4.631693E+02  1.478567E+05 -1.113375E+04  3.064340E+04
       102  23  2.204766E+05  7.753712E+04 -2.414272E+02  1.445169E+05 -9.944319E+03  2.711606E+04
       102  24  2.175588E+05  8.047564E+04 -1.159743E+02  1.478357E+05 -8.681179E+03  2.339505E+04
       102  25 -1.617940E+05 -5.474543E+04 -5.493515E+04  4.073764E+04 -1.866468E+04  2.781000E+04
       102  26 -1.127615E+05 -4.114781E+04 -4.772608E+04  5.036399E+04 -1.790669E+04  2.411923E+04
       102  27 -6.967087E+04 -2.182889E+04 -4.095505E+04  6.665064E+04 -1.707500E+04  2.023470E+04
       103   1  4.762071E+05  1.725521E+05  3.647984E+04  2.209691E+05 -5.293716E+02 -2.434840E+04
       103   2  4.330972E+05  1.532630E+05  3.007663E+04  2.046263E+05 -1.998064E+03 -2.058323E+04
       103   3  3.841538E+05  1.398277E+05  2.370912E+04  1.949460E+05 -3.475118E+03 -1.679715E+04
       103   4  2.175635E+05  8.048202E+04 -7.443304E+01  1.478380E+05  7.867176E+03 -2.118652E+04
       103   5  2.204902E+05  7.756605E+04 -3.954507E+00  1.445064E+05  6.444808E+03 -1.740324E+04
       103   6  2.175719E+05  8.049439E+04  6.507752E+01  1.478363E+05  5.014079E+03 -1.359907E+04
       103   7 -4.100686E+04 -1.158047E+04 -3.662871E+04  7.473580E+04  1.626004E+04 -1.802603E+04
       103   8  7.934277E+03  1.874809E+03 -3.008406E+04  8.440639E+04  1.488458E+04 -1.422442E+04
       103   9  5.102264E+04  2.116507E+04 -2.357819E+04  1.007392E+05  1.350077E+04 -1.040193E+04
       103  10  4.762070E+05  1.725515E+05  3.647873E+04  2.209691E+05 -6.464071E-08 -2.451372E-08
       103  11  4.330971E+05  1.532625E+05  3.007583E+04  2.046263E+05 -5.218097E-08 -1.263884E-08
       103  12  3.841537E+05  1.398274E+05  2.370857E+04  1.949459E+05 -1.965293E-08 -1.005673E-09
       103  13  2.175633E+05  8.048152E+04 -7.539299E+01  1.478381E+05 -1.159764E-08 -5.765178E-09
       103  14  2.204901E+05  7.756572E+04 -4.601807E+00  1.445065E+05 -1.562106E-08 -1.468166E-08
       103  15  2.175718E+05  8.049418E+04  6.468269E+01  1.478363E+05 -6.821423E-09 -1.793648E-08
       103  16 -4.100723E+04 -1.158089E+04 -3.662982E+04  7.473604E+04  5.834441E-08  1.738513E-08
       103  17  7.933985E+03  1.874532E+03 -3.008485E+04  8.440656E+04  2.209373E-08  7.939988E-09
       103  18  5.102241E+04  2.116491E+04 -2.357873E+04  1.007393E+05  1.103063E-09 -6.528169E-10
       103  19  4.762071E+05  1.725521E+05  3.647984E+04  2.209691E+05  5.293716E+02  2.434840E+04
       103  20  4.330972E+05  1.532630E+05  3.007663E+04  2.046263E+05  1.998064E+03  2.058323E+04
       103  21  3.841538E+05  1.398277E+05  2.370912E+04  1.949460E+05  3.475118E+03  1.679715E+04
       103  22  2.175635E+05  8.048202E+04 -7.443304E+01  1.478380E+05 -7.867176E+03  2.118652E+04
       103  23  2.204902E+05  7.756605E+04 -3.954507E+00  1.445064E+05 -6.444808E+03  1.740324E+04
       103  24  2.175719E+05  8.049439E+04  6.507752E+01  1.478363E+05 -5.014079E+03  1.359907E+04
       103  25 -4.100686E+04 -1.158047E+04 -3.662871E+04  7.473580E+04 -1.626004E+04  1.802603E+04
       103  26  7.934277E+03  1.874809E+03 -3.008406E+04  8.440639E+04 -1.488458E+04  1.422442E+04
       103  27  5.102264E+04  2.116507E+04 -2.357819E+04  1.007392E+05 -1.350077E+04  1.040193E+04
       104   1  3.555081E+05  1.296003E+05  1.950059E+04  1.868648E+05 -4.324925E+03 -1.458152E+04
       104   2  3.124131E+05  1.103175E+05  1.319083E+04  1.705280E+05 -5.847766E+03 -1.080609E+04
       104   3  2.634871E+05  9.688765E+04  6.947892E+03  1.608542E+05 -7.367206E+03 -7.040250E+03
       104   4  2.175783E+05  8.049605E+04  1.052671E+02  1.478382E+05  4.163189E+03 -1.138356E+04
       104   5  2.204938E+05  7.756965E+04  2.198404E+02  1.445067E+05  2.618828E+03 -7.615937E+03
       104   6  2.175813E+05  8.050060E+04  4.183559E+02  1.478375E+05  1.077869E+03 -3.857909E+03
       104   7  7.966756E+04  3.139324E+04 -1.929035E+04  1.088193E+05  1.264943E+04 -8.186314E+03
       104   8  1.285833E+05  4.482251E+04 -1.275106E+04  1.184888E+05  1.108416E+04 -4.426255E+03
       104   9  1.716779E+05  6.411383E+04 -6.110892E+03  1.348217E+05  9.522291E+03 -6.758157E+02
       104  10  3.555080E+05  1.296001E+05  1.950016E+04  1.868647E+05  6.798618E-08  2.976988E-08
       104  11  3.124131E+05  1.103174E+05  1.319055E+04  1.705280E+05  2.018300E-08  5.495364E-09
       104  12  2.634871E+05  9.688758E+04  6.947697E+03  1.608542E+05 -4.746372E-08 -2.198149E-08
       104  13  2.175782E+05  8.049591E+04  1.049910E+02  1.478382E+05  3.566338E-09 -1.572150E-08
       104  14  2.204938E+05  7.756958E+04  2.197185E+02  1.445067E+05  2.058139E-10 -8.380263E-09
       104  15  2.175813E+05  8.050058E+04  4.183257E+02  1.478375E+05 -1.694724E-08 -9.587745E-09
       104  16  7.966737E+04  3.139313E+04 -1.929078E+04  1.088194E+05 -7.471264E-08 -2.564993E-08
       104  17  1.285831E+05  4.482246E+04 -1.275133E+04  1.184888E+05 -2.011731E-08 -5.257968E-09
       104  18  1.716778E+05  6.411381E+04 -6.111064E+03  1.348217E+05  2.147134E-08  7.941282E-09
       104  19  3.555081E+05  1.296003E+05  1.950059E+04  1.868648E+05  4.324925E+03  1.458152E+04
       104  20  3.124131E+05  1.103175E+05  1.319083E+04  1.705280E+05  5.847766E+03  1.080609E+04
       104  21  2.634871E+05  9.688765E+04  6.947892E+03  1.608542E+05  7.367206E+03  7.040250E+03
       104  22  2.175783E+05  8.049605E+04  1.052671E+02  1.478382E+05 -4.163189E+03  1.138356E+04
       104  23  2.204938E+05  7.756965E+04  2.198404E+02  1.445067E+05 -2.618828E+03  7.615937E+03
       104  24  2.175813E+05  8.050060E+04  4.183559E+02  1.478375E+05 -1.077869E+03  3.857909E+03
       104  25  7.966756E+04  3.139324E+04 -1.929035E+04  1.088193E+05 -1.264943E+04  8.186314E+03
       104  26  1.285833E+05  4.482251E+04 -1.275106E+04  1.184888E+05 -1.108416E+04  4.426255E+03
       104  27  1.716779E+05  6.411383E+04 -6.110892E+03  1.348217E+05 -9.522291E+03  6.758157E+02
       105   1  2.348509E+05  8.667004E+04  2.830714E+03  1.527938E+05 -8.279896E+03 -4.857914E+03
       105   2  1.917682E+05  6.737141E+04 -3.224683E+03  1.364107E+05 -9.982816E+03 -1.224002E+03
       105   3  1.429215E+05  5.401198E+04 -9.036922E+03  1.266703E+05 -1.164755E+04  2.308934E+03
       105   4  2.176014E+05  8.050104E+04  5.630677E+02  1.478435E+05  1.647038E+02 -1.675703E+03
       105   5  2.204751E+05  7.760193E+04  1.034067E+03  1.444875E+05 -1.763342E+03  1.873277E+03
       105   6  2.176264E+05  8.068611E+04  1.926196E+03  1.477732E+05 -3.653235E+03  5.321293E+03
       105   7  2.003527E+05  7.433223E+04 -1.704210E+03  1.428934E+05  8.608951E+03  1.506373E+03
       105   8  2.491829E+05  8.783260E+04  5.293098E+03  1.525648E+05  6.456533E+03  4.970707E+03
       105   9  2.923386E+05  1.073613E+05  1.288981E+04  1.688787E+05  4.342194E+03  8.334073E+03
       105  10  2.348508E+05  8.666999E+04  2.830541E+03  1.527937E+05  2.593736E-08  1.375087E-08
       105  11  1.917681E+05  6.737138E+04 -3.224874E+03  1.364107E+05  3.639711E-09  8.756824E-09
       105  12  1.429213E+05  5.401194E+04 -9.037187E+03  1.266703E+05 -1.841549E-08  7.975617E-10
       105  13  2.176014E+05  8.050104E+04  5.630624E+02  1.478435E+05 -2.210183E-08 -5.530381E-09
       105  14  2.204750E+05  7.760192E+04  1.034054E+03  1.444875E+05 -1.390541E-08 -2.092557E-09
       105  15  2.176264E+05  8.068607E+04  1.926118E+03  1.477732E+05 -4.831647E-09  5.988643E-09
       105  16  2.003526E+05  7.433221E+04 -1.704353E+03  1.428934E+05 -5.870760E-08 -2.530077E-08
       105  17  2.491829E+05  8.783256E+04  5.292973E+03  1.525647E+05 -2.059862E-08 -9.469456E-09
       105  18  2.923386E+05  1.073612E+05  1.288964E+04  1.688787E+05  1.306690E-08  4.373197E-09
       105  19  2.348509E+05  8.667004E+04  2.830714E+03  1.527938E+05  8.279896E+03  4.857914E+03
       105  20  1.917682E+05  6.737141E+04 -3.224683E+03  1.364107E+05  9.982816E+03  1.224002E+03
       105  21  1.429215E+05  5.401198E+04 -9.036922E+03  1.266703E+05  1.164755E+04 -2.308934E+03
       105  22  2.176014E+05  8.050104E+04  5.630677E+02  1.478435E+05 -1.647038E+02  1.675703E+03
       105  23  2.204751E+05  7.760193E+04  1.034067E+03  1.444875E+05  1.763342E+03 -1.873277E+03
       105  24  2.176264E+05  8.068611E+04  1.926196E+03  1.477732E+05  3.653235E+03 -5.321293E+03
       105  25  2.003527E+05  7.433223E+04 -1.704210E+03  1.428934E+05 -8.608951E+03 -1.506373E+03
       105  26  2.491829E+05  8.783260E+04  5.293098E+03  1.525648E+05 -6.456533E+03 -4.970707E+03
       105  27  2.923386E+05  1.073613E+05  1.288981E+04  1.688787E+05 -4.342194E+03 -8.334073E+03
       106   1  1.142751E+05  4.390596E+04 -1.280429E+04  1.187195E+05 -1.278922E+04  4.302971E+03
       106   2  7.178201E+04  2.443122E+04 -1.803722E+04  1.012921E+05 -1.449456E+04  7.272596E+03
       106   3  2.405921E+04  1.206432E+04 -2.252836E+04  9.013795E+04 -1.587616E+04  9.383700E+03
       106   4  2.177809E+05  8.075489E+04  2.583823E+03  1.477905E+05 -4.796055E+03  7.314754E+03
       106   5  2.204169E+05  7.850224E+04  4.800144E+03  1.440919E+05 -8.412578E+03  9.563834E+03
       106   6  2.181993E+05  8.373526E+04  9.272088E+03  1.466655E+05 -1.170542E+04  1.095450E+04
       106   7  3.212984E+05  1.176050E+05  1.797208E+04  1.768661E+05  3.198510E+03  1.032706E+04
       106   8  3.690748E+05  1.325755E+05  2.763707E+04  1.869013E+05 -2.329098E+03  1.185566E+04
       106   9  4.123772E+05  1.554097E+05  4.107106E+04  2.032092E+05 -7.533356E+03  1.252583E+04
       106  10  1.142750E+05  4.390590E+04 -1.280464E+04  1.187195E+05 -4.225937E-10  3.759768E-09
       106  11  7.178177E+04  2.443111E+04 -1.803772E+04  1.012922E+05 -3.795174E-09  9.590804E-10
       106  12  2.405891E+04  1.206416E+04 -2.252900E+04  9.013807E+04  2.600736E-09  4.019254E-09
       106  13  2.177809E+05  8.075483E+04  2.583679E+03  1.477905E+05 -1.090575E-09  3.472966E-09
       106  14  2.204168E+05  7.850212E+04  4.799839E+03  1.440920E+05  3.120736E-09  5.819901E-09
       106  15  2.181991E+05  8.373510E+04  9.271605E+03  1.466656E+05  1.298981E-08  3.473373E-09
       106  16  3.212983E+05  1.176049E+05  1.797186E+04  1.768661E+05 -1.463320E-10  2.413021E-09
       106  17  3.690747E+05  1.325753E+05  2.763679E+04  1.869013E+05  6.068593E-09 -7.997648E-10
       106  18  4.123771E+05  1.554095E+05  4.107066E+04  2.032092E+05  1.206662E-08  3.087549E-09
       106  19  1.142751E+05  4.390596E+04 -1.280429E+04  1.187195E+05  1.278922E+04 -4.302971E+03
       106  20  7.178201E+04  2.443122E+04 -1.803722E+04  1.012921E+05  1.449456E+04 -7.272596E+03
       106  21  2.405921E+04  1.206432E+04 -2.252836E+04  9.013795E+04  1.587616E+04 -9.383700E+03
       106  22  2.177809E+05  8.075489E+04  2.583823E+03  1.477905E+05  4.796055E+03 -7.314754E+03
       106  23  2.204169E+05  7.850224E+04  4.800144E+03  1.440919E+05  8.412578E+03 -9.563834E+03
       106  24  2.181993E+05  8.373526E+04  9.272088E+03  1.466655E+05  1.170542E+04 -1.095450E+04
       106  25  3.212984E+05  1.176050E+05  1.797208E+04  1.768661E+05 -3.198510E+03 -1.032706E+04
       106  26  3.690748E+05  1.325755E+05  2.763707E+04  1.869013E+05  2.329098E+03 -1.185566E+04
       106  27  4.123772E+05  1.554097E+05  4.107106E+04  2.032092E+05  7.533356E+03 -1.252583E+04
       107   1 -4.541135E+03  3.368836E+03 -2.508050E+04  8.298554E+04 -1.779040E+04  1.021759E+04
       107   2 -3.826260E+04 -1.800763E+04 -2.872841E+04  5.153918E+04 -1.337086E+04  9.863134E+03
       107   3 -7.175624E+04 -1.789796E+04 -3.071135E+04  2.166269E+04 -6.210659E+03  2.228850E+03
       107   4  2.196506E+05  8.483624E+04  1.252831E+04  1.466437E+05 -1.363126E+04  1.178382E+04
       107   5  2.205719E+05  9.111753E+04  2.414806E+04  1.388403E+05 -2.540868E+04  5.327731E+03
       107   6  2.249253E+05  1.220882E+05  5.026538E+04  1.326072E+05 -3.444647E+04 -8.406422E+03
       107   7  4.439003E+05  1.663106E+05  5.013712E+04  2.103248E+05 -9.470443E+03  1.335070E+04
       107   8  4.794764E+05  2.002551E+05  7.702170E+04  2.261772E+05 -3.745181E+04  7.896039E+02
       107   9  5.216897E+05  2.620933E+05  1.312356E+05  2.436026E+05 -6.269628E+04 -1.905025E+04
       107  10 -4.541503E+03  3.368639E+03 -2.508129E+04  8.298569E+04  8.311339E-09  6.057429E-09
       107  11 -3.826282E+04 -1.800778E+04 -2.872893E+04  5.153929E+04  7.551016E-09  1.510926E-09
       107  12 -7.175628E+04 -1.789798E+04 -3.071143E+04  2.166270E+04  3.981595E-09 -8.541995E-10
       107  13  2.196503E+05  8.483604E+04  1.252770E+04  1.466439E+05  1.251211E-08  4.156152E-09
       107  14  2.205712E+05  9.111732E+04  2.414679E+04  1.388404E+05  3.121156E-09  3.338724E-09
       107  15  2.249241E+05  1.220878E+05  5.026302E+04  1.326070E+05 -2.876060E-10  6.602520E-10
       107  16  4.439001E+05  1.663104E+05  5.013661E+04  2.103249E+05  1.972432E-09  4.638477E-09
       107  17  4.794749E+05  2.002547E+05  7.701906E+04  2.261772E+05 -1.748623E-09  7.319900E-09
       107  18  5.216854E+05  2.620919E+05  1.312275E+05  2.436017E+05 -4.190070E-09  1.419013E-09
       107  19 -4.541135E+03  3.368836E+03 -2.508050E+04  8.298554E+04  1.779040E+04 -1.021759E+04
       107  20 -3.826260E+04 -1.800763E+04 -2.872841E+04  5.153918E+04  1.337086E+04 -9.863134E+03
       107  21 -7.175624E+04 -1.789796E+04 -3.071135E+04  2.166269E+04  6.210659E+03 -2.228850E+03
       107  22  2.196506E+05  8.483624E+04  1.252831E+04  1.466437E+05  1.363126E+04 -1.178382E+04
       107  23  2.205719E+05  9.111753E+04  2.414806E+04  1.388403E+05  2.540868E+04 -5.327731E+03
       107  24  2.249253E+05  1.220882E+05  5.026538E+04  1.326072E+05  3.444647E+04  8.406422E+03
       107  25  4.439003E+05  1.663106E+05  5.013712E+04  2.103248E+05  9.470443E+03 -1.335070E+04
       107  26  4.794764E+05  2.002551E+05  7.702170E+04  2.261772E+05  3.745181E+04 -7.896039E+02
       107  27  5.216897E+05  2.620933E+05  1.312356E+05  2.436026E+05  6.269628E+04  1.905025E+04
       108   1 -2.224099E+05 -9.907018E+05 -2.463233E+05  8.832766E+04 -4.851018E+03 -9.492304E+04
       108   2 -8.508967E+04 -8.839941E+05 -1.504447E+05  3.494040E+04 -1.425081E+04 -5.555942E+04
       108   3 -6.887934E+04 -8.123987E+05 -1.104501E+05  3.484392E+04 -1.149436E+04 -1.617091E+04
       108   4 -1.033822E+05 -5.140103E+05 -1.290421E+05  4.933665E+04 -4.860162E+03 -8.535270E+04
       108   5  1.058851E+04 -4.970985E+05 -5.945469E+04  2.277290E+04 -1.425203E+04 -5.354444E+04
       108   6  4.802558E+03 -5.139689E+05 -4.047211E+04  4.950301E+04 -1.148761E+04 -2.171744E+04
       108   7  1.563435E+04 -3.710826E+04 -1.177658E+04  1.031568E+04 -4.870508E+03 -7.577500E+04
       108   8  1.062565E+05 -1.100646E+05  3.152510E+04  1.059781E+04 -1.425333E+04 -5.152820E+04
       108   9  7.847896E+04 -2.154564E+05  2.950008E+04  6.416923E+04 -1.148112E+04 -2.726662E+04
       108  10 -2.224124E+05 -9.907115E+05 -2.463403E+05  8.832729E+04 -5.273534E-10 -8.090484E-10
       108  11 -8.509072E+04 -8.839975E+05 -1.504509E+05  3.493976E+04 -7.847668E-10 -1.497549E-09
       108  12 -6.887956E+04 -8.123990E+05 -1.104509E+05  3.484377E+04  2.219839E-09  1.847838E-09
       108  13 -1.033842E+05 -5.140181E+05 -1.290559E+05  4.933632E+04  1.103027E-09 -3.602080E-09
       108  14  1.058752E+04 -4.971016E+05 -5.946046E+04  2.277228E+04 -1.630952E-09 -1.369168E-09
       108  15  4.802290E+03 -5.139694E+05 -4.047324E+04  4.950281E+04  2.140993E-10 -9.163870E-10
       108  16  1.563278E+04 -3.711443E+04 -1.178741E+04  1.031539E+04  1.514393E-10  4.511489E-09
       108  17  1.062556E+05 -1.100676E+05  3.151973E+04  1.059722E+04  5.166804E-09  3.964687E-09
       108  18  7.847862E+04 -2.154572E+05  2.949843E+04  6.416898E+04  2.272868E-09 -3.804571E-10
       108  19 -2.224099E+05 -9.907018E+05 -2.463233E+05  8.832766E+04  4.851018E+03  9.492304E+04
       108  20 -8.508967E+04 -8.839941E+05 -1.504447E+05  3.494040E+04  1.425081E+04  5.555942E+04
       108  21 -6.887934E+04 -8.123987E+05 -1.104501E+05  3.484392E+04  1.149436E+04  1.617091E+04
       108  22 -1.033822E+05 -5.140103E+05 -1.290421E+05  4.933665E+04  4.860162E+03  8.535270E+04
       108  23  1.058851E+04 -4.970985E+05 -5.945469E+04  2.277290E+04  1.425203E+04  5.354444E+04
       108  24  4.802558E+03 -5.139689E+05 -4.047211E+04  4.950301E+04  1.148761E+04  2.171744E+04
       108  25  1.563435E+04 -3.710826E+04 -1.177658E+04  1.031568E+04  4.870508E+03  7.577500E+04
       108  26  1.062565E+05 -1.100646E+05  3.152510E+04  1.059781E+04  1.425333E+04  5.152820E+04
       108  27  7.847896E+04 -2.154564E+05  2.950008E+04  6.416923E+04  1.148112E+04  2.726662E+04
       109   1 -5.853001E+04 -7.094859E+05 -8.307297E+04  5.401138E+04 -7.506222E+03 -1.336173E+04
       109   2 -2.579834E+04 -6.165982E+05 -5.405933E+04  2.275995E+04 -4.262711E+03  9.548317E+02
       109   3 -1.348611E+04 -5.305061E+05 -3.944294E+04  4.552389E+04 -7.172965E+02  1.527305E+04
       109   4 -8.712051E+03 -5.079590E+05 -3.570866E+04  4.961100E+04 -7.503736E+03 -1.530302E+04
       109   5  1.879943E+03 -5.045718E+05 -2.776595E+04  2.260397E+04 -4.260287E+03 -1.171628E+03
       109   6 -7.912601E+03 -5.079539E+05 -3.408885E+04  4.961233E+04 -7.147892E+02  1.295940E+04
       109   7  4.110308E+04 -3.063946E+05  1.165289E+04  4.520919E+04 -7.501223E+03 -1.724494E+04
       109   8  2.955733E+04 -3.925338E+05 -1.473409E+03  2.244796E+04 -4.257861E+03 -3.298470E+03
       109   9 -2.339065E+03 -4.854012E+05 -2.873478E+04  5.370091E+04 -7.123125E+02  1.064567E+04
       109  10 -5.853012E+04 -7.094861E+05 -8.307341E+04  5.401130E+04  2.175037E-09 -1.258514E-09
       109  11 -2.579836E+04 -6.165982E+05 -5.405937E+04  2.275995E+04  1.187891E-09 -2.919250E-09
       109  12 -1.348617E+04 -5.305063E+05 -3.944338E+04  4.552390E+04  2.655571E-09  3.278778E-10
       109  13 -8.712175E+03 -5.079593E+05 -3.570920E+04  4.961091E+04 -4.588760E-10 -2.125273E-09
       109  14  1.879923E+03 -5.045718E+05 -2.776599E+04  2.260396E+04 -2.540396E-09 -8.984804E-10
       109  15 -7.912647E+03 -5.079541E+05 -3.408917E+04  4.961233E+04  9.486524E-10  6.223138E-10
       109  16  4.110294E+04 -3.063949E+05  1.165223E+04  4.520908E+04  1.682368E-09  3.091336E-09
       109  17  2.955731E+04 -3.925338E+05 -1.473463E+03  2.244795E+04  1.180766E-09  3.215872E-09
       109  18 -2.339096E+03 -4.854013E+05 -2.873499E+04  5.370092E+04  4.158582E-10  9.475486E-10
       109  19 -5.853001E+04 -7.094859E+05 -8.307297E+04  5.401138E+04  7.506222E+03  1.336173E+04
       109  20 -2.579834E+04 -6.165982E+05 -5.405933E+04  2.275995E+04  4.262711E+03 -9.548317E+02
       109  21 -1.348611E+04 -5.305061E+05 -3.944294E+04  4.552389E+04  7.172965E+02 -1.527305E+04
       109  22 -8.712051E+03 -5.079590E+05 -3.570866E+04  4.961100E+04  7.503736E+03  1.530302E+04
       109  23  1.879943E+03 -5.045718E+05 -2.776595E+04  2.260397E+04  4.260287E+03  1.171628E+03
       109  24 -7.912601E+03 -5.079539E+05 -3.408885E+04  4.961233E+04  7.147892E+02 -1.295940E+04
       109  25  4.110308E+04 -3.063946E+05  1.165289E+04  4.520919E+04  7.501223E+03  1.724494E+04
       109  26  2.955733E+04 -3.925338E+05 -1.473409E+03  2.244796E+04  4.257861E+03  3.298470E+03
       109  27 -2.339065E+03 -4.854012E+05 -2.873478E+04  5.370091E+04  7.123125E+02 -1.064567E+04
       110   1  2.268450E+04 -4.388912E+05 -2.060804E+04  6.327093E+04  2.642002E+03  2.329495E+04
       110   2  5.023736E+04 -3.342023E+05 -1.656229E+04  1.172128E+04  5.936085E+03  4.841702E+04
       110   3 -3.162796E+04 -2.599479E+05 -5.619033E+04  1.388075E+04  2.269732E+03  7.353452E+04
       110   4  4.305027E+03 -5.133810E+05 -3.815017E+04  4.958330E+04  2.645951E+03  1.904981E+04
       110   5  9.776749E+03 -4.977921E+05 -5.505138E+04  2.266713E+04  5.936934E+03  4.850520E+04
       110   6 -9.494086E+04 -5.134108E+05 -1.186474E+05  4.946342E+04  2.268656E+03  7.795222E+04
       110   7 -1.407413E+04 -5.878651E+05 -5.569251E+04  3.589732E+04  2.650088E+03  1.480517E+04
       110   8 -3.068533E+04 -6.613569E+05 -9.354225E+04  3.361009E+04  5.937786E+03  4.859335E+04
       110   9 -1.582538E+05 -7.668125E+05 -1.811084E+05  8.503154E+04  2.268087E+03  8.236811E+04
       110  10  2.268435E+04 -4.388918E+05 -2.060907E+04  6.327088E+04  2.573925E-09 -1.569094E-09
       110  11  5.023669E+04 -3.342049E+05 -1.656677E+04  1.172105E+04  1.106690E-09 -2.265722E-09
       110  12 -3.162942E+04 -2.599537E+05 -5.620050E+04  1.388061E+04 -1.039595E-10  5.885182E-10
       110  13  4.304922E+03 -5.133814E+05 -3.815087E+04  4.958326E+04  2.364576E-09 -1.871272E-09
       110  14  9.776079E+03 -4.977946E+05 -5.505587E+04  2.266690E+04 -2.438003E-09 -6.838848E-10
       110  15 -9.494249E+04 -5.134173E+05 -1.186588E+05  4.946327E+04  9.542646E-10  1.478557E-10
       110  16 -1.407419E+04 -5.878654E+05 -5.569294E+04  3.589729E+04  1.057258E-10  5.073638E-09
       110  17 -3.068600E+04 -6.613595E+05 -9.354676E+04  3.360986E+04 -1.375539E-09  6.230327E-09
       110  18 -1.582556E+05 -7.668198E+05 -1.811212E+05  8.503139E+04 -6.670110E-10  2.655292E-09
       110  19  2.268450E+04 -4.388912E+05 -2.060804E+04  6.327093E+04 -2.642002E+03 -2.329495E+04
       110  20  5.023736E+04 -3.342023E+05 -1.656229E+04  1.172128E+04 -5.936085E+03 -4.841702E+04
       110  21 -3.162796E+04 -2.599479E+05 -5.619033E+04  1.388075E+04 -2.269732E+03 -7.353452E+04
       110  22  4.305027E+03 -5.133810E+05 -3.815017E+04  4.958330E+04 -2.645951E+03 -1.904981E+04
       110  23  9.776749E+03 -4.977921E+05 -5.505138E+04  2.266713E+04 -5.936934E+03 -4.850520E+04
       110  24 -9.494086E+04 -5.134108E+05 -1.186474E+05  4.946342E+04 -2.268656E+03 -7.795222E+04
       110  25 -1.407413E+04 -5.878651E+05 -5.569251E+04  3.589732E+04 -2.650088E+03 -1.480517E+04
       110  26 -3.068533E+04 -6.613569E+05 -9.354225E+04  3.361009E+04 -5.937786E+03 -4.859335E+04
       110  27 -1.582538E+05 -7.668125E+05 -1.811084E+05  8.503154E+04 -2.268087E+03 -8.236811E+04
       111   1  6.155107E+05  2.141503E+05  1.316032E+05  2.229875E+05  5.725549E+04  1.901059E+04
       111   2  5.942966E+05  1.271161E+05  7.754266E+04  2.218080E+05  3.710199E+04  6.182847E+03
       111   3  5.948349E+05  1.172250E+05  5.885873E+04  2.111493E+05  1.509094E+04 -1.716031E+03
       111   4  4.467585E+05  1.280703E+05  8.167953E+04  1.539190E+05  5.281156E+04  1.733242E+04
       111   5  4.318546E+05  5.927939E+04  3.458146E+04  1.701728E+05  3.576629E+04  5.678465E+03
       111   6  4.380948E+05  6.702649E+04  2.040503E+04  1.769456E+05  1.686271E+04 -1.047555E+03
       111   7  2.780371E+05  4.200065E+04  3.175383E+04  8.487063E+04  4.836900E+04  1.565516E+04
       111   8  2.694391E+05 -8.553602E+03 -8.381878E+03  1.185506E+05  3.443097E+04  5.174265E+03
       111   9  2.813777E+05  1.682779E+04 -1.805068E+04  1.427488E+05  1.863400E+04 -3.791982E+02
       111  10  6.155071E+05  2.141491E+05  1.315963E+05  2.229866E+05 -7.544183E-11 -5.870617E-10
       111  11  5.942951E+05  1.271157E+05  7.754001E+04  2.218078E+05  3.285268E-09 -1.076260E-09
       111  12  5.948347E+05  1.172250E+05  5.885830E+04  2.111493E+05  1.597760E-09  2.314762E-10
       111  13  4.467554E+05  1.280692E+05  8.167373E+04  1.539183E+05  1.248908E-09  1.308193E-09
       111  14  4.318533E+05  5.927901E+04  3.457899E+04  1.701726E+05  3.418627E-10  9.603107E-09
       111  15  4.380945E+05  6.702641E+04  2.040449E+04  1.769456E+05 -2.734591E-10  6.228963E-09
       111  16  2.780345E+05  4.199976E+04  3.174897E+04  8.487002E+04  2.438721E-09  4.562111E-09
       111  17  2.694378E+05 -8.553949E+03 -8.384155E+03  1.185505E+05  3.566347E-09  3.019240E-09
       111  18  2.813774E+05  1.682770E+04 -1.805133E+04  1.427488E+05 -1.884783E-09 -1.936794E-09
       111  19  6.155107E+05  2.141503E+05  1.316032E+05  2.229875E+05 -5.725549E+04 -1.901059E+04
       111  20  5.942966E+05  1.271161E+05  7.754266E+04  2.218080E+05 -3.710199E+04 -6.182847E+03
       111  21  5.948349E+05  1.172250E+05  5.885873E+04  2.111493E+05 -1.509094E+04  1.716031E+03
       111  22  4.467585E+05  1.280703E+05  8.167953E+04  1.539190E+05 -5.281156E+04 -1.733242E+04
       111  23  4.318546E+05  5.927939E+04  3.458146E+04  1.701728E+05 -3.576629E+04 -5.678465E+03
       111  24  4.380948E+05  6.702649E+04  2.040503E+04  1.769456E+05 -1.686271E+04  1.047555E+03
       111  25  2.780371E+05  4.200065E+04  3.175383E+04  8.487063E+04 -4.836900E+04 -1.565516E+04
       111  26  2.694391E+05 -8.553602E+03 -8.381878E+03  1.185506E+05 -3.443097E+04 -5.174265E+03
       111  27  2.813777E+05  1.682779E+04 -1.805068E+04  1.427488E+05 -1.863400E+04  3.791982E+02
       112   1  5.663432E+05  1.255198E+05  5.036645E+04  2.101229E+05  1.340760E+04 -1.057498E+03
       112   2  5.521817E+05  1.088183E+05  3.763276E+04  2.019527E+05  8.843306E+03 -2.167071E+03
       112   3  5.335030E+05  1.056781E+05  2.981764E+04  2.007413E+05  4.173512E+03 -2.997000E+03
       112   4  4.354616E+05  7.467047E+04  1.644289E+04  1.724340E+05  1.365549E+04 -9.641096E+02
       112   5  4.373625E+05  6.526273E+04  8.137021E+03  1.699531E+05  9.268131E+03 -2.006842E+03
       112   6  4.347115E+05  6.938193E+04  4.610376E+03  1.744309E+05  4.775151E+03 -2.769972E+03
       112   7  3.045966E+05  2.382263E+04 -1.748209E+04  1.347524E+05  1.390331E+04 -8.707442E+02
       112   8  3.225564E+05  2.170817E+04 -2.135974E+04  1.379589E+05  9.692868E+03 -1.846648E+03
       112   9  3.359299E+05  3.308641E+04 -2.059758E+04  1.481242E+05  5.376683E+03 -2.542982E+03
       112  10  5.663430E+05  1.255197E+05  5.036611E+04  2.101230E+05  8.087420E-09  1.429704E-09
       112  11  5.521816E+05  1.088183E+05  3.763260E+04  2.019527E+05  6.941407E-10  7.556150E-09
       112  12  5.335030E+05  1.056781E+05  2.981759E+04  2.007413E+05 -9.034092E-09  1.320302E-09
       112  13  4.354614E+05  7.467042E+04  1.644254E+04  1.724341E+05 -1.621926E-10  5.167867E-09
       112  14  4.373624E+05  6.526271E+04  8.136852E+03  1.699531E+05  2.152953E-09  1.417166E-08
       112  15  4.347115E+05  6.938192E+04  4.610319E+03  1.744309E+05 -2.425009E-10  5.358208E-09
       112  16  3.045964E+05  2.382257E+04 -1.748245E+04  1.347525E+05 -8.553445E-09 -7.089406E-09
       112  17  3.225563E+05  2.170814E+04 -2.135992E+04  1.379590E+05 -2.876219E-09  7.574002E-09
       112  18  3.359298E+05  3.308640E+04 -2.059765E+04  1.481242E+05  5.404448E-09  2.424407E-09
       112  19  5.663432E+05  1.255198E+05  5.036645E+04  2.101229E+05 -1.340760E+04  1.057498E+03
       112  20  5.521817E+05  1.088183E+05  3.763276E+04  2.019527E+05 -8.843306E+03  2.167071E+03
       112  21  5.335030E+05  1.056781E+05  2.981764E+04  2.007413E+05 -4.173512E+03  2.997000E+03
       112  22  4.354616E+05  7.467047E+04  1.644289E+04  1.724340E+05 -1.365549E+04  9.641096E+02
       112  23  4.373625E+05  6.526273E+04  8.137021E+03  1.699531E+05 -9.268131E+03  2.006842E+03
       112  24  4.347115E+05  6.938193E+04  4.610376E+03  1.744309E+05 -4.775151E+03  2.769972E+03
       112  25  3.045966E+05  2.382263E+04 -1.748209E+04  1.347524E+05 -1.390331E+04  8.707442E+02
       112  26  3.225564E+05  2.170817E+04 -2.135974E+04  1.379589E+05 -9.692868E+03  1.846648E+03
       112  27  3.359299E+05  3.308641E+04 -2.059758E+04  1.481242E+05 -5.376683E+03  2.542982E+03
       113   1  5.144492E+05  1.001446E+05  2.401799E+04  1.960926E+05  3.407848E+03 -2.684224E+03
       113   2  5.011754E+05  8.960986E+04  1.810913E+04  1.873585E+05  2.129945E+03 -2.226787E+03
       113   3  4.808838E+05  8.697148E+04  1.306568E+04  1.868725E+05  8.465086E+02 -1.754952E+03
       113   4  4.344322E+05  7.001348E+04  3.559464E+03  1.740071E+05  3.921041E+03 -2.490551E+03
       113   5  4.379107E+05  6.584471E+04  1.902532E+03  1.699668E+05  2.652335E+03 -2.029608E+03
       113   6  4.343698E+05  6.957063E+04  1.103933E+03  1.741746E+05  1.378068E+03 -1.554276E+03
       113   7  3.544211E+05  3.988272E+04 -1.689967E+04  1.519241E+05  4.434164E+03 -2.296905E+03
       113   8  3.746499E+05  4.207977E+04 -1.430442E+04  1.525767E+05  3.174667E+03 -1.832450E+03
       113   9  3.878579E+05  5.216991E+04 -1.085799E+04  1.614775E+05  1.909584E+03 -1.353616E+03
       113  10  5.144492E+05  1.001446E+05  2.401796E+04  1.960926E+05  2.053622E-09  4.447964E-09
       113  11  5.011754E+05  8.960986E+04  1.810911E+04  1.873585E+05  3.098282E-09  8.053132E-10
       113  12  4.808838E+05  8.697147E+04  1.306567E+04  1.868725E+05  3.985527E-09 -6.323925E-09
       113  13  4.344321E+05  7.001347E+04  3.559423E+03  1.740071E+05 -2.458833E-09  2.229257E-09
       113  14  4.379107E+05  6.584470E+04  1.902511E+03  1.699668E+05  1.725587E-09  3.760794E-09
       113  15  4.343698E+05  6.957062E+04  1.103925E+03  1.741746E+05  6.885262E-09 -3.836920E-09
       113  16  3.544210E+05  3.988270E+04 -1.689971E+04  1.519241E+05 -8.057380E-09 -7.851143E-09
       113  17  3.746498E+05  4.207976E+04 -1.430445E+04  1.525767E+05 -2.155338E-09  2.201712E-09
       113  18  3.878579E+05  5.216990E+04 -1.085800E+04  1.614775E+05  5.072010E-09  5.268778E-09
       113  19  5.144492E+05  1.001446E+05  2.401799E+04  1.960926E+05 -3.407848E+03  2.684224E+03
       113  20  5.011754E+05  8.960986E+04  1.810913E+04  1.873585E+05 -2.129945E+03  2.226787E+03
       113  21  4.808838E+05  8.697148E+04  1.306568E+04  1.868725E+05 -8.465086E+02  1.754952E+03
       113  22  4.344322E+05  7.001348E+04  3.559464E+03  1.740071E+05 -3.921041E+03  2.490551E+03
       113  23  4.379107E+05  6.584471E+04  1.902532E+03  1.699668E+05 -2.652335E+03  2.029608E+03
       113  24  4.343698E+05  6.957063E+04  1.103933E+03  1.741746E+05 -1.378068E+03  1.554276E+03
       113  25  3.544211E+05  3.988272E+04 -1.689967E+04  1.519241E+05 -4.434164E+03  2.296905E+03
       113  26  3.746499E+05  4.207977E+04 -1.430442E+04  1.525767E+05 -3.174667E+03  1.832450E+03
       113  27  3.878579E+05  5.216991E+04 -1.085799E+04  1.614775E+05 -1.909584E+03  1.353616E+03
       114   1  4.627894E+05  8.028838E+04  8.098758E+03  1.819519E+05  5.046707E+02 -1.324811E+03
       114   2  4.496644E+05  7.029876E+04  3.579282E+03  1.731885E+05 -1.028389E+02 -5.990999E+02
       114   3  4.292731E+05  6.768970E+04 -7.093030E+02  1.727423E+05 -7.105554E+02  1.271590E+02
       114   4  4.343379E+05  6.961497E+04  8.728416E+02  1.741302E+05  1.030791E+03 -1.126176E+03
       114   5  4.379690E+05  6.590933E+04  5.839488E+02  1.699775E+05  4.236313E+02 -4.003280E+02
       114   6  4.343336E+05  6.958418E+04  5.257016E+02  1.741419E+05 -1.837456E+02  3.260670E+02
       114   7  4.058872E+05  5.894166E+04 -6.353111E+03  1.663089E+05  1.556882E+03 -9.275514E+02
       114   8  4.262739E+05  6.151990E+04 -2.411395E+03  1.667666E+05  9.500906E+02 -2.015602E+02
       114   9  4.393943E+05  7.147868E+04  1.760711E+03  1.755416E+05  3.430706E+02  5.249774E+02
       114  10  4.627894E+05  8.028838E+04  8.098754E+03  1.819519E+05 -5.947886E-09 -5.048199E-09
       114  11  4.496644E+05  7.029876E+04  3.579282E+03  1.731885E+05 -1.254182E-09 -2.610046E-10
       114  12  4.292731E+05  6.768970E+04 -7.093039E+02  1.727423E+05  5.360058E-09  6.385579E-09
       114  13  4.343379E+05  6.961497E+04  8.728372E+02  1.741302E+05  4.907862E-09 -6.749239E-10
       114  14  4.379690E+05  6.590933E+04  5.839481E+02  1.699775E+05 -3.566914E-09  6.551467E-10
       114  15  4.343336E+05  6.958418E+04  5.257014E+02  1.741419E+05 -3.394542E-09 -2.721879E-09
       114  16  4.058872E+05  5.894166E+04 -6.353117E+03  1.663089E+05  1.561208E-08  2.375728E-09
       114  17  4.262739E+05  6.151990E+04 -2.411397E+03  1.667666E+05 -8.960534E-10  7.748932E-10
       114  18  4.393943E+05  7.147868E+04  1.760710E+03  1.755416E+05 -1.034480E-08  2.994931E-10
       114  19  4.627894E+05  8.028838E+04  8.098758E+03  1.819519E+05 -5.046707E+02  1.324811E+03
       114  20  4.496644E+05  7.029876E+04  3.579282E+03  1.731885E+05  1.028389E+02  5.990999E+02
       114  21  4.292731E+05  6.768970E+04 -7.093030E+02  1.727423E+05  7.105554E+02 -1.271590E+02
       114  22  4.343379E+05  6.961497E+04  8.728416E+02  1.741302E+05 -1.030791E+03  1.126176E+03
       114  23  4.379690E+05  6.590933E+04  5.839488E+02  1.699775E+05 -4.236313E+02  4.003280E+02
       114  24  4.343336E+05  6.958418E+04  5.257016E+02  1.741419E+05  1.837456E+02 -3.260670E+02
       114  25  4.058872E+05  5.894166E+04 -6.353111E+03  1.663089E+05 -1.556882E+03  9.275514E+02
       114  26  4.262739E+05  6.151990E+04 -2.411395E+03  1.667666E+05 -9.500906E+02  2.015602E+02
       114  27  4.393943E+05  7.147868E+04  1.760711E+03  1.755416E+05 -3.430706E+02 -5.249774E+02
       115   1  4.112785E+05  6.092475E+04 -5.402842E+03  1.678256E+05 -9.849624E+02  5.800764E+02
       115   2  3.981321E+05  5.095001E+04 -9.405025E+03  1.590361E+05 -1.699319E+03  1.266822E+03
       115   3  3.777379E+05  4.839395E+04 -1.308911E+04  1.585726E+05 -2.413625E+03  1.953718E+03
       115   4  4.343364E+05  6.958455E+04  5.638774E+02  1.741468E+05 -4.579743E+02  7.790474E+02
       115   5  4.379641E+05  6.590171E+04  7.971552E+02  1.699739E+05 -1.172286E+03  1.465788E+03
       115   6  4.343436E+05  6.963744E+04  1.348461E+03  1.741267E+05 -1.886557E+03  2.152674E+03
       115   7  4.573949E+05  7.824439E+04  6.530553E+03  1.804683E+05  6.903527E+01  9.780263E+02
       115   8  4.777976E+05  8.085348E+04  1.099919E+04  1.809123E+05 -6.452163E+02  1.664767E+03
       115   9  4.909522E+05  9.088105E+04  1.578572E+04  1.896820E+05 -1.359439E+03  2.351650E+03
       115  10  4.112785E+05  6.092475E+04 -5.402844E+03  1.678256E+05  2.086540E-09  5.117049E-10
       115  11  3.981321E+05  5.095001E+04 -9.405033E+03  1.590361E+05  8.029409E-10  6.563070E-10
       115  12  3.777379E+05  4.839394E+04 -1.308913E+04  1.585726E+05 -5.283011E-10  2.185334E-09
       115  13  4.343364E+05  6.958455E+04  5.638759E+02  1.741468E+05 -1.094305E-09  8.581538E-10
       115  14  4.379641E+05  6.590171E+04  7.971486E+02  1.699739E+05  3.856230E-09 -3.100568E-09
       115  15  4.343436E+05  6.963743E+04  1.348446E+03  1.741267E+05  4.820996E-09 -8.755306E-09
       115  16  4.573949E+05  7.824439E+04  6.530551E+03  1.804683E+05 -2.525050E-09 -1.106080E-09
       115  17  4.777976E+05  8.085348E+04  1.099918E+04  1.809123E+05  1.090781E-09 -2.681327E-09
       115  18  4.909522E+05  9.088104E+04  1.578571E+04  1.896820E+05  5.956260E-09 -5.510782E-09
       115  19  4.112785E+05  6.092475E+04 -5.402842E+03  1.678256E+05  9.849624E+02 -5.800764E+02
       115  20  3.981321E+05  5.095001E+04 -9.405025E+03  1.590361E+05  1.699319E+03 -1.266822E+03
       115  21  3.777379E+05  4.839395E+04 -1.308911E+04  1.585726E+05  2.413625E+03 -1.953718E+03
       115  22  4.343364E+05  6.958455E+04  5.638774E+02  1.741468E+05  4.579743E+02 -7.790474E+02
       115  23  4.379641E+05  6.590171E+04  7.971552E+02  1.699739E+05  1.172286E+03 -1.465788E+03
       115  24  4.343436E+05  6.963744E+04  1.348461E+03  1.741267E+05  1.886557E+03 -2.152674E+03
       115  25  4.573949E+05  7.824439E+04  6.530553E+03  1.804683E+05 -6.903527E+01 -9.780263E+02
       115  26  4.777976E+05  8.085348E+04  1.099919E+04  1.809123E+05  6.452163E+02 -1.664767E+03
       115  27  4.909522E+05  9.088105E+04  1.578572E+04  1.896820E+05  1.359439E+03 -2.351650E+03
       116   1  3.596452E+05  4.161280E+04 -1.743371E+04  1.538003E+05 -2.860412E+03  2.346122E+03
       116   2  3.463381E+05  3.141351E+04 -2.034726E+04  1.447996E+05 -4.729011E+03  2.600265E+03
       116   3  3.261983E+05  2.948816E+04 -2.186609E+04  1.440152E+05 -6.591334E+03  2.838288E+03
       116   4  4.343982E+05  6.956511E+04  1.752754E+03  1.742013E+05 -2.326739E+03  2.547549E+03
       116   5  4.378650E+05  6.579265E+04  3.100670E+03  1.699549E+05 -4.205740E+03  2.797717E+03
       116   6  4.345010E+05  7.029615E+04  5.851501E+03  1.739248E+05 -6.078508E+03  3.031749E+03
       116   7  5.091569E+05  9.751789E+04  2.093883E+04  1.946045E+05 -1.792995E+03  2.749003E+03
       116   8  5.294001E+05  1.001724E+05  2.654797E+04  1.951136E+05 -3.682384E+03  2.995200E+03
       116   9  5.428151E+05  1.111049E+05  3.356814E+04  2.038391E+05 -5.565584E+03  3.225247E+03
       116  10  3.596451E+05  4.161279E+04 -1.743373E+04  1.538003E+05 -4.301895E-09 -2.122053E-09
       116  11  3.463381E+05  3.141350E+04 -2.034732E+04  1.447996E+05 -1.779505E-09  4.103315E-10
       116  12  3.261983E+05  2.948814E+04 -2.186619E+04  1.440152E+05  8.629118E-10  7.942893E-10
       116  13  4.343982E+05  6.956511E+04  1.752731E+03  1.742013E+05  3.751382E-09  1.489898E-09
       116  14  4.378649E+05  6.579263E+04  3.100623E+03  1.699549E+05 -1.229236E-09  3.000960E-09
       116  15  4.345010E+05  7.029613E+04  5.851414E+03  1.739248E+05 -8.466181E-09 -4.398291E-09
       116  16  5.091569E+05  9.751788E+04  2.093881E+04  1.946045E+05  7.264090E-09  4.544707E-09
       116  17  5.294001E+05  1.001724E+05  2.654793E+04  1.951136E+05 -1.584113E-09  7.973912E-09
       116  18  5.428151E+05  1.111049E+05  3.356806E+04  2.038391E+05 -1.110657E-08 -5.326444E-09
       116  19  3.596452E+05  4.161280E+04 -1.743371E+04  1.538003E+05  2.860412E+03 -2.346122E+03
       116  20  3.463381E+05  3.141351E+04 -2.034726E+04  1.447996E+05  4.729011E+03 -2.600265E+03
       116  21  3.261983E+05  2.948816E+04 -2.186609E+04  1.440152E+05  6.591334E+03 -2.838288E+03
       116  22  4.343982E+05  6.956511E+04  1.752754E+03  1.742013E+05  2.326739E+03 -2.547549E+03
       116  23  4.378650E+05  6.579265E+04  3.100670E+03  1.699549E+05  4.205740E+03 -2.797717E+03
       116  24  4.345010E+05  7.029615E+04  5.851501E+03  1.739248E+05  6.078508E+03 -3.031749E+03
       116  25  5.091569E+05  9.751789E+04  2.093883E+04  1.946045E+05  1.792995E+03 -2.749003E+03
       116  26  5.294001E+05  1.001724E+05  2.654797E+04  1.951136E+05  3.682384E+03 -2.995200E+03
       116  27  5.428151E+05  1.111049E+05  3.356814E+04  2.038391E+05  5.565584E+03 -3.225247E+03
       117   1  3.073797E+05  2.267430E+04 -2.489598E+04  1.409502E+05 -7.973152E+03  2.927790E+03
       117   2  2.938284E+05  1.037092E+04 -2.338958E+04  1.298790E+05 -1.497772E+04  1.218635E+03
       117   3  2.774950E+05  1.558640E+04 -1.415989E+04  1.248844E+05 -2.186083E+04 -8.113960E+02
       117   4  4.349666E+05  6.925169E+04  7.590658E+03  1.746211E+05 -7.358411E+03  3.159683E+03
       117   5  4.369565E+05  6.483645E+04  1.341490E+04  1.699360E+05 -1.456660E+04  1.373588E+03
       117   6  4.362035E+05  7.797853E+04  2.712231E+04  1.713271E+05 -2.165356E+04 -7.334759E+02
       117   7  5.625689E+05  1.158297E+05  4.007586E+04  2.082980E+05 -6.743534E+03  3.391623E+03
       117   8  5.801046E+05  1.193035E+05  5.021768E+04  2.100013E+05 -1.415538E+04  1.528582E+03
       117   9  5.949372E+05  1.403732E+05  6.840254E+04  2.177809E+05 -2.144623E+04 -6.555310E+02
       117  10  3.073796E+05  2.267427E+04 -2.489612E+04  1.409502E+05 -5.254956E-09 -1.814896E-09
       117  11  2.938281E+05  1.037085E+04 -2.339000E+04  1.298790E+05 -2.625712E-09  8.509871E-09
       117  12  2.774945E+05  1.558628E+04 -1.416079E+04  1.248844E+05 -1.022542E-09 -1.714987E-09
       117  13  4.349665E+05  6.925166E+04  7.590538E+03  1.746211E+05 -8.172047E-09 -8.244041E-09
       117  14  4.369563E+05  6.483639E+04  1.341449E+04  1.699360E+05  1.254375E-09  3.801589E-09
       117  15  4.362030E+05  7.797841E+04  2.712142E+04  1.713271E+05 -3.603541E-09  2.259960E-09
       117  16  5.625688E+05  1.158297E+05  4.007575E+04  2.082980E+05 -2.063832E-09 -2.193444E-09
       117  17  5.801044E+05  1.193034E+05  5.021730E+04  2.100013E+05  2.929429E-09  4.525640E-09
       117  18  5.949367E+05  1.403731E+05  6.840168E+04  2.177809E+05 -6.496306E-10  2.776908E-09
       117  19  3.073797E+05  2.267430E+04 -2.489598E+04  1.409502E+05  7.973152E+03 -2.927790E+03
       117  20  2.938284E+05  1.037092E+04 -2.338958E+04  1.298790E+05  1.497772E+04 -1.218635E+03
       117  21  2.774950E+05  1.558640E+04 -1.415989E+04  1.248844E+05  2.186083E+04  8.113960E+02
       117  22  4.349666E+05  6.925169E+04  7.590658E+03  1.746211E+05  7.358411E+03 -3.159683E+03
       117  23  4.369565E+05  6.483645E+04  1.341490E+04  1.699360E+05  1.456660E+04 -1.373588E+03
       117  24  4.362035E+05  7.797853E+04  2.712231E+04  1.713271E+05  2.165356E+04  7.334759E+02
       117  25  5.625689E+05  1.158297E+05  4.007586E+04  2.082980E+05  6.743534E+03 -3.391623E+03
       117  26  5.801046E+05  1.193035E+05  5.021768E+04  2.100013E+05  1.415538E+04 -1.528582E+03
       117  27  5.949372E+05  1.403732E+05  6.840254E+04  2.177809E+05  2.144623E+04  6.555310E+02
       118   1  2.509703E+05  8.456112E+03 -1.214534E+04  1.413181E+05 -2.866373E+04 -1.970495E+03
       118   2  2.397825E+05 -2.693564E+04  6.672152E+03  1.070765E+05 -5.616270E+04 -1.200865E+04
       118   3  2.675241E+05  5.851959E+04  7.698269E+04  5.181142E+04 -8.152599E+04 -2.770987E+04
       118   4  4.405458E+05  6.537074E+04  3.366020E+04  1.787707E+05 -2.670457E+04 -1.231129E+03
       118   5  4.278776E+05  5.496401E+04  5.705085E+04  1.702944E+05 -5.777850E+04 -1.261921E+04
       118   6  4.548302E+05  1.660869E+05  1.347543E+05  1.407989E+05 -8.671700E+04 -2.967223E+04
       118   7  6.301568E+05  1.222851E+05  7.946337E+04  2.162324E+05 -2.474475E+04 -4.916271E+02
       118   8  6.160065E+05  1.368691E+05  1.074262E+05  2.335306E+05 -5.939481E+04 -1.323004E+04
       118   9  6.421714E+05  2.736714E+05  1.925219E+05  2.298140E+05 -9.190964E+04 -3.163598E+04
       118  10  2.509694E+05  8.455887E+03 -1.214689E+04  1.413180E+05 -2.637606E-09 -2.096290E-09
       118  11  2.397791E+05 -2.693665E+04  6.665956E+03  1.070760E+05  3.104833E-09  2.618399E-09
       118  12  2.675167E+05  5.851699E+04  7.696876E+04  5.180960E+04  8.916621E-10  2.337978E-11
       118  13  4.405450E+05  6.537055E+04  3.365885E+04  1.787707E+05 -2.752639E-09 -1.823171E-09
       118  14  4.278740E+05  5.496294E+04  5.704428E+04  1.702939E+05 -4.736104E-09 -9.005455E-09
       118  15  4.548219E+05  1.660839E+05  1.347385E+05  1.407968E+05  2.121557E-10  6.278052E-10
       118  16  6.301562E+05  1.222850E+05  7.946222E+04  2.162324E+05 -3.071257E-09  3.233545E-09
       118  17  6.160026E+05  1.368679E+05  1.074192E+05  2.335299E+05 -2.734817E-09 -5.717021E-09
       118  18  6.421621E+05  2.736680E+05  1.925042E+05  2.298116E+05 -2.144222E-09  1.296734E-09
       118  19  2.509703E+05  8.456112E+03 -1.214534E+04  1.413181E+05  2.866373E+04  1.970495E+03
       118  20  2.397825E+05 -2.693564E+04  6.672152E+03  1.070765E+05  5.616270E+04  1.200865E+04
       118  21  2.675241E+05  5.851959E+04  7.698269E+04  5.181142E+04  8.152599E+04  2.770987E+04
       118  22  4.405458E+05  6.537074E+04  3.366020E+04  1.787707E+05  2.670457E+04  1.231129E+03
       118  23  4.278776E+05  5.496401E+04  5.705085E+04  1.702944E+05  5.777850E+04  1.261921E+04
       118  24  4.548302E+05  1.660869E+05  1.347543E+05  1.407989E+05  8.671700E+04  2.967223E+04
       118  25  6.301568E+05  1.222851E+05  7.946337E+04  2.162324E+05  2.474475E+04  4.916271E+02
       118  26  6.160065E+05  1.368691E+05  1.074262E+05  2.335306E+05  5.939481E+04  1.323004E+04
       118  27  6.421714E+05  2.736714E+05  1.925219E+05  2.298140E+05  9.190964E+04  3.163598E+04
       119   1 -2.559921E+02 -4.818238E+05 -2.276794E+03 -1.767505E+02 -5.829922E+01  1.587693E+02
       119   2 -6.512788E+02 -4.835546E+05 -3.186684E+03  3.147805E+02 -1.138072E+02  1.390505E+03
       119   3 -1.591285E+03 -4.855867E+05 -5.036106E+03 -3.292378E+02 -1.969633E+02  2.622210E+03
       119   4 -5.975272E+00 -4.808067E+05 -2.045883E+03 -2.521567E+02 -5.833936E+01  1.835204E+02
       119   5  6.501773E+01 -4.806547E+05 -2.506635E+03  3.152891E+02 -1.138751E+02  1.432503E+03
       119   6 -4.116951E+02 -4.808070E+05 -3.918890E+03 -2.528132E+02 -1.970587E+02  2.681459E+03
       119   7  2.440415E+02 -4.797895E+05 -1.814972E+03 -3.275631E+02 -5.837950E+01  2.082715E+02
       119   8  7.813136E+02 -4.777547E+05 -1.826586E+03  3.157976E+02 -1.139431E+02  1.474501E+03
       119   9  7.678930E+02 -4.760273E+05 -2.801676E+03 -1.763880E+02 -1.971541E+02  2.740708E+03
       119  10 -2.559921E+02 -4.818238E+05 -2.276794E+03 -1.767505E+02  1.809129E-09 -1.449678E-09
       119  11 -6.512793E+02 -4.835546E+05 -3.186688E+03  3.147807E+02 -2.656983E-09  1.130483E-09
       119  12 -1.591287E+03 -4.855867E+05 -5.036119E+03 -3.292374E+02  9.988289E-10  2.064718E-09
       119  13 -5.975285E+00 -4.808067E+05 -2.045883E+03 -2.521567E+02  1.553816E-09 -1.278049E-09
       119  14  6.501717E+01 -4.806547E+05 -2.506639E+03  3.152892E+02 -1.448150E-09 -1.760906E-09
       119  15 -4.116971E+02 -4.808070E+05 -3.918904E+03 -2.528128E+02  2.149712E-09 -1.948420E-09
       119  16  2.440415E+02 -4.797895E+05 -1.814972E+03 -3.275631E+02  2.271997E-09  4.262847E-09
       119  17  7.813130E+02 -4.777547E+05 -1.826590E+03  3.157977E+02  3.034307E-10 -1.820992E-09
       119  18  7.678910E+02 -4.760273E+05 -2.801691E+03 -1.763876E+02  4.336686E-11  1.757045E-10
       119  19 -2.559921E+02 -4.818238E+05 -2.276794E+03 -1.767505E+02  5.829922E+01 -1.587693E+02
       119  20 -6.512788E+02 -4.835546E+05 -3.186684E+03  3.147805E+02  1.138072E+02 -1.390505E+03
       119  21 -1.591285E+03 -4.855867E+05 -5.036106E+03 -3.292378E+02  1.969633E+02 -2.622210E+03
       119  22 -5.975272E+00 -4.808067E+05 -2.045883E+03 -2.521567E+02  5.833936E+01 -1.835204E+02
       119  23  6.501773E+01 -4.806547E+05 -2.506635E+03  3.152891E+02  1.138751E+02 -1.432503E+03
       119  24 -4.116951E+02 -4.808070E+05 -3.918890E+03 -2.528132E+02  1.970587E+02 -2.681459E+03
       119  25  2.440415E+02 -4.797895E+05 -1.814972E+03 -3.275631E+02  5.837950E+01 -2.082715E+02
       119  26  7.813136E+02 -4.777547E+05 -1.826586E+03  3.157976E+02  1.139431E+02 -1.474501E+03
       119  27  7.678930E+02 -4.760273E+05 -2.801676E+03 -1.763880E+02  1.971541E+02 -2.740708E+03
       120   1 -1.414686E+03 -4.879873E+05 -6.500746E+03  5.323932E+02 -2.546983E+02  3.401340E+03
       120   2 -1.595220E+03 -4.888769E+05 -1.013299E+04 -7.467783E+01 -3.424879E+02  7.529918E+03
       120   3 -7.506445E+03 -4.917419E+05 -1.788829E+04 -1.818052E+03 -4.086445E+02  1.165850E+04
       120   4  2.715613E+02 -4.811776E+05 -4.898001E+03 -2.500246E+02 -2.547951E+02  3.458701E+03
       120   5  5.487284E+02 -4.801921E+05 -8.095127E+03  3.139636E+02 -3.425536E+02  7.573831E+03
       120   6 -4.902414E+03 -4.811796E+05 -1.540591E+04 -2.583523E+02 -4.086635E+02  1.168898E+04
       120   7  1.957807E+03 -4.743678E+05 -3.295259E+03 -1.032451E+03 -2.548921E+02  3.516064E+03
       120   8  2.692672E+03 -4.715072E+05 -6.057265E+03  7.026106E+02 -3.426191E+02  7.617745E+03
       120   9 -2.298383E+03 -4.706172E+05 -1.292353E+04  1.301374E+03 -4.086824E+02  1.171946E+04
       120  10 -1.414689E+03 -4.879873E+05 -6.500768E+03  5.323938E+02 -1.595677E-09  1.880147E-09
       120  11 -1.595236E+03 -4.888769E+05 -1.013310E+04 -7.467575E+01 -6.909790E-10  9.316489E-09
       120  12 -7.506482E+03 -4.917420E+05 -1.788854E+04 -1.818048E+03 -2.903209E-11  5.758234E-09
       120  13  2.715580E+02 -4.811776E+05 -4.898023E+03 -2.500239E+02 -8.110567E-10 -5.628295E-09
       120  14  5.487129E+02 -4.801921E+05 -8.095235E+03  3.139657E+02 -6.963281E-10  2.653442E-10
       120  15 -4.902451E+03 -4.811797E+05 -1.540616E+04 -2.583485E+02  7.785085E-10 -2.218988E-09
       120  16  1.957804E+03 -4.743679E+05 -3.295282E+03 -1.032450E+03  1.167255E-09 -6.919363E-10
       120  17  2.692657E+03 -4.715072E+05 -6.057374E+03  7.026127E+02  1.462867E-09 -6.630845E-09
       120  18 -2.298420E+03 -4.706174E+05 -1.292379E+04  1.301378E+03  2.422185E-09 -5.523068E-09
       120  19 -1.414686E+03 -4.879873E+05 -6.500746E+03  5.323932E+02  2.546983E+02 -3.401340E+03
       120  20 -1.595220E+03 -4.888769E+05 -1.013299E+04 -7.467783E+01  3.424879E+02 -7.529918E+03
       120  21 -7.506445E+03 -4.917419E+05 -1.788829E+04 -1.818052E+03  4.086445E+02 -1.165850E+04
       120  22  2.715613E+02 -4.811776E+05 -4.898001E+03 -2.500246E+02  2.547951E+02 -3.458701E+03
       120  23  5.487284E+02 -4.801921E+05 -8.095127E+03  3.139636E+02  3.425536E+02 -7.573831E+03
       120  24 -4.902414E+03 -4.811796E+05 -1.540591E+04 -2.583523E+02  4.086635E+02 -1.168898E+04
       120  25  1.957807E+03 -4.743678E+05 -3.295259E+03 -1.032451E+03  2.548921E+02 -3.516064E+03
       120  26  2.692672E+03 -4.715072E+05 -6.057265E+03  7.026106E+02  3.426191E+02 -7.617745E+03
       120  27 -2.298383E+03 -4.706172E+05 -1.292353E+04  1.301374E+03  4.086824E+02 -1.171946E+04
       121   1 -7.019912E+01 -4.973568E+05 -2.193141E+04  7.826746E+03 -5.142435E+02  1.440514E+04
       121   2  2.209167E+03 -4.901036E+05 -3.429658E+04 -6.032435E+03 -5.858361E+02  3.124460E+04
       121   3 -6.002755E+04 -5.011812E+05 -7.376059E+04 -2.107239E+04 -2.571513E+02  4.808446E+04
       121   4  3.062497E+03 -4.848020E+05 -1.898410E+04 -2.347626E+02 -5.146748E+02  1.455790E+04
       121   5  5.751772E+03 -4.756652E+05 -3.090764E+04  3.087834E+02 -5.853600E+02  3.114759E+04
       121   6 -5.603161E+04 -4.848157E+05 -6.975614E+04 -3.289377E+02 -2.549900E+02  4.773774E+04
       121   7  6.195426E+03 -4.722470E+05 -1.603677E+04 -8.296436E+03 -5.151102E+02  1.471067E+04
       121   8  9.294514E+03 -4.612265E+05 -2.751869E+04  6.650150E+03 -5.848859E+02  3.105058E+04
       121   9 -5.203408E+04 -4.684490E+05 -6.575147E+04  2.041506E+04 -2.528519E+02  4.739102E+04
       121  10 -7.025516E+01 -4.973570E+05 -2.193180E+04  7.826752E+03  1.125545E-09  4.344671E-09
       121  11  2.208904E+03 -4.901047E+05 -3.429842E+04 -6.032420E+03  1.530415E-09  4.909909E-09
       121  12 -6.002817E+04 -5.011837E+05 -7.376494E+04 -2.107238E+04  2.894911E-10  1.134347E-09
       121  13  3.062440E+03 -4.848022E+05 -1.898450E+04 -2.347566E+02  1.349115E-09 -3.420670E-09
       121  14  5.751511E+03 -4.756662E+05 -3.090947E+04  3.087980E+02 -4.319310E-09 -8.165710E-10
       121  15 -5.603223E+04 -4.848181E+05 -6.976042E+04 -3.289278E+02 -8.320502E-10 -1.122813E-09
       121  16  6.195367E+03 -4.722472E+05 -1.603717E+04 -8.296430E+03  1.387514E-09 -1.547683E-09
       121  17  9.294254E+03 -4.612275E+05 -2.752051E+04  6.650164E+03  1.864713E-09 -1.259879E-09
       121  18 -5.203468E+04 -4.684514E+05 -6.575570E+04  2.041507E+04  5.168911E-10  4.189234E-10
       121  19 -7.019912E+01 -4.973568E+05 -2.193141E+04  7.826746E+03  5.142435E+02 -1.440514E+04
       121  20  2.209167E+03 -4.901036E+05 -3.429658E+04 -6.032435E+03  5.858361E+02 -3.124460E+04
       121  21 -6.002755E+04 -5.011812E+05 -7.376059E+04 -2.107239E+04  2.571513E+02 -4.808446E+04
       121  22  3.062497E+03 -4.848020E+05 -1.898410E+04 -2.347626E+02  5.146748E+02 -1.455790E+04
       121  23  5.751772E+03 -4.756652E+05 -3.090764E+04  3.087834E+02  5.853600E+02 -3.114759E+04
       121  24 -5.603161E+04 -4.848157E+05 -6.975614E+04 -3.289377E+02  2.549900E+02 -4.773774E+04
       121  25  6.195426E+03 -4.722470E+05 -1.603677E+04 -8.296436E+03  5.151102E+02 -1.471067E+04
       121  26  9.294514E+03 -4.612265E+05 -2.751869E+04  6.650150E+03  5.848859E+02 -3.105058E+04
       121  27 -5.203408E+04 -4.684490E+05 -6.575147E+04  2.041506E+04  2.528519E+02 -4.739102E+04
       122   1 -5.596544E+06 -1.823896E+06 -9.008415E+05 -2.069328E+06 -3.490933E+05 -8.302348E+04
       122   2 -5.413794E+06 -1.565097E+06 -6.307725E+05 -2.001706E+06 -2.271152E+05  7.843675E+04
       122   3 -5.263069E+06 -1.446387E+06 -5.102293E+05 -1.945149E+06 -7.703708E+04  1.661996E+05
       122   4 -2.853236E+06 -6.989471E+05 -1.735753E+05 -1.225549E+06 -1.284784E+05  5.663538E+02
       122   5 -2.839271E+06 -5.738762E+05 -8.047767E+04 -1.245205E+06 -1.246004E+05  1.171732E+05
       122   6 -2.833547E+06 -5.650604E+05 -4.240508E+04 -1.275989E+06 -9.274818E+04  1.601855E+05
       122   7 -1.024696E+05  4.268856E+05  5.532262E+05 -3.782161E+05  9.320892E+04  8.464122E+04
       122   8 -2.578968E+05  4.180675E+05  4.694824E+05 -4.857238E+05 -2.162371E+04  1.561011E+05
       122   9 -3.978024E+05  3.167931E+05  4.251756E+05 -6.043773E+05 -1.085259E+05  1.541470E+05
       122  10 -5.596678E+06 -1.823937E+06 -9.010859E+05 -2.069352E+06  2.380804E-10  2.605993E-10
       122  11 -5.413851E+06 -1.565118E+06 -6.308815E+05 -2.001691E+06  2.236360E-09 -1.138911E-09
       122  12 -5.263083E+06 -1.446418E+06 -5.102923E+05 -1.945138E+06  9.512382E-10 -6.783889E-11
       122  13 -2.853253E+06 -6.989516E+05 -1.736065E+05 -1.225549E+06  2.899116E-09 -3.877079E-10
       122  14 -2.839292E+06 -5.738951E+05 -8.053262E+04 -1.245194E+06 -1.081620E-09 -4.284067E-09
       122  15 -2.833563E+06 -5.650902E+05 -4.246936E+04 -1.275977E+06  2.307614E-10 -2.167771E-09
       122  16 -1.024809E+05  4.268756E+05  5.531964E+05 -3.782225E+05 -2.728469E-09 -5.255722E-10
       122  17 -2.579038E+05  4.180413E+05  4.694358E+05 -4.857211E+05 -1.654531E-09 -2.900213E-09
       122  18 -3.978214E+05  3.167645E+05  4.251089E+05 -6.043638E+05  1.487200E-09 -4.084181E-10
       122  19 -5.596544E+06 -1.823896E+06 -9.008415E+05 -2.069328E+06  3.490933E+05  8.302348E+04
       122  20 -5.413794E+06 -1.565097E+06 -6.307725E+05 -2.001706E+06  2.271152E+05 -7.843675E+04
       122  21 -5.263069E+06 -1.446387E+06 -5.102293E+05 -1.945149E+06  7.703708E+04 -1.661996E+05
       122  22 -2.853236E+06 -6.989471E+05 -1.735753E+05 -1.225549E+06  1.284784E+05 -5.663538E+02
       122  23 -2.839271E+06 -5.738762E+05 -8.047767E+04 -1.245205E+06  1.246004E+05 -1.171732E+05
       122  24 -2.833547E+06 -5.650604E+05 -4.240508E+04 -1.275989E+06  9.274818E+04 -1.601855E+05
       122  25 -1.024696E+05  4.268856E+05  5.532262E+05 -3.782161E+05 -9.320892E+04 -8.464122E+04
       122  26 -2.578968E+05  4.180675E+05  4.694824E+05 -4.857238E+05  2.162371E+04 -1.561011E+05
       122  27 -3.978024E+05  3.167931E+05  4.251756E+05 -6.043773E+05  1.085259E+05 -1.541470E+05
       123   1 -5.118978E+06 -1.409360E+06 -4.717139E+05 -1.916421E+06 -8.046219E+04  1.573635E+05
       123   2 -4.940849E+06 -1.312553E+06 -4.098028E+05 -1.843459E+06 -5.991056E+04  1.581403E+05
       123   3 -4.733337E+06 -1.255319E+06 -3.629931E+05 -1.807498E+06 -3.709025E+04  1.528656E+05
       123   4 -2.827576E+06 -5.679705E+05 -3.208661E+04 -1.273966E+06 -8.546187E+04  1.554059E+05
       123   5 -2.842592E+06 -5.458388E+05 -1.698114E+04 -1.256646E+06 -7.459012E+04  1.525418E+05
       123   6 -2.826323E+06 -5.613302E+05 -9.231453E+03 -1.276332E+06 -6.146018E+04  1.436352E+05
       123   7 -5.306588E+05  2.739161E+05  4.073182E+05 -6.292846E+05 -9.048150E+04  1.534409E+05
       123   8 -7.397022E+05  2.212896E+05  3.756661E+05 -6.679720E+05 -8.932313E+04  1.469232E+05
       123   9 -9.154866E+05  1.329933E+05  3.443894E+05 -7.436393E+05 -8.591053E+04  1.343747E+05
       123  10 -5.118991E+06 -1.409389E+06 -4.717725E+05 -1.916410E+06  2.726643E-08  1.367898E-08
       123  11 -4.940860E+06 -1.312580E+06 -4.098564E+05 -1.843451E+06  7.179352E-09  2.874179E-09
       123  12 -4.733344E+06 -1.255344E+06 -3.630396E+05 -1.807494E+06 -2.086084E-08 -9.942154E-09
       123  13 -2.827590E+06 -5.679983E+05 -3.214562E+04 -1.273956E+06  4.261362E-10  3.364009E-10
       123  14 -2.842605E+06 -5.458653E+05 -1.703524E+04 -1.256637E+06  3.913785E-09  2.124081E-09
       123  15 -2.826332E+06 -5.613533E+05 -9.277247E+03 -1.276325E+06  1.307320E-09  8.327562E-10
       123  16 -5.306739E+05  2.738887E+05  4.072586E+05 -6.292734E+05 -2.733148E-08 -6.797098E-09
       123  17 -7.397165E+05  2.212644E+05  3.756106E+05 -6.679615E+05  2.739701E-09  1.123675E-09
       123  18 -9.154994E+05  1.329720E+05  3.443417E+05 -7.436300E+05  2.531417E-08  1.195986E-08
       123  19 -5.118978E+06 -1.409360E+06 -4.717139E+05 -1.916421E+06  8.046219E+04 -1.573635E+05
       123  20 -4.940849E+06 -1.312553E+06 -4.098028E+05 -1.843459E+06  5.991056E+04 -1.581403E+05
       123  21 -4.733337E+06 -1.255319E+06 -3.629931E+05 -1.807498E+06  3.709025E+04 -1.528656E+05
       123  22 -2.827576E+06 -5.679705E+05 -3.208661E+04 -1.273966E+06  8.546187E+04 -1.554059E+05
       123  23 -2.842592E+06 -5.458388E+05 -1.698114E+04 -1.256646E+06  7.459012E+04 -1.525418E+05
       123  24 -2.826323E+06 -5.613302E+05 -9.231453E+03 -1.276332E+06  6.146018E+04 -1.436352E+05
       123  25 -5.306588E+05  2.739161E+05  4.073182E+05 -6.292846E+05  9.048150E+04 -1.534409E+05
       123  26 -7.397022E+05  2.212896E+05  3.756661E+05 -6.679720E+05  8.932313E+04 -1.469232E+05
       123  27 -9.154866E+05  1.329933E+05  3.443894E+05 -7.436393E+05  8.591053E+04 -1.343747E+05
       124   1 -4.603310E+06 -1.208496E+06 -3.355452E+05 -1.771927E+06 -3.318486E+04  1.441459E+05
       124   2 -4.423197E+06 -1.118841E+06 -2.956195E+05 -1.697316E+06 -2.470557E+04  1.302338E+05
       124   3 -4.208995E+06 -1.063685E+06 -2.577891E+05 -1.661623E+06 -1.603533E+04  1.157555E+05
       124   4 -2.825713E+06 -5.615142E+05 -6.956220E+03 -1.276374E+06 -5.680866E+04  1.352091E+05
       124   5 -2.842659E+06 -5.440033E+05 -3.860521E+03 -1.256992E+06 -4.923225E+04  1.209755E+05
       124   6 -2.825387E+06 -5.608123E+05 -2.144547E+03 -1.276538E+06 -4.146618E+04  1.061762E+05
       124   7 -1.044761E+06  8.577393E+04  3.215213E+05 -7.794826E+05 -8.050553E+04  1.262449E+05
       124   8 -1.259473E+06  3.107346E+04  2.878099E+05 -8.156118E+05 -7.382625E+04  1.116920E+05
       124   9 -1.439756E+06 -5.775891E+04  2.534311E+05 -8.906463E+05 -6.695800E+04  9.657410E+04
       124  10 -4.603316E+06 -1.208519E+06 -3.355862E+05 -1.771923E+06 -2.483815E-08 -1.231948E-08
       124  11 -4.423202E+06 -1.118859E+06 -2.956524E+05 -1.697314E+06 -6.927264E-09 -3.415830E-09
       124  12 -4.208999E+06 -1.063700E+06 -2.578147E+05 -1.661622E+06  2.079124E-08  8.097853E-09
       124  13 -2.825722E+06 -5.615347E+05 -6.996574E+03 -1.276368E+06 -1.091429E-09 -2.465273E-09
       124  14 -2.842666E+06 -5.440196E+05 -3.892526E+03 -1.256987E+06 -4.537901E-09 -3.271559E-09
       124  15 -2.825392E+06 -5.608248E+05 -2.168924E+03 -1.276534E+06 -2.328890E-09 -1.408829E-09
       124  16 -1.044772E+06  8.575511E+04  3.214792E+05 -7.794744E+05  2.193060E-08  1.014906E-08
       124  17 -1.259482E+06  3.105863E+04  2.877762E+05 -8.156051E+05 -3.695818E-09 -2.929490E-09
       124  18 -1.439764E+06 -5.777010E+04  2.534052E+05 -8.906411E+05 -2.325303E-08 -1.137228E-08
       124  19 -4.603310E+06 -1.208496E+06 -3.355452E+05 -1.771927E+06  3.318486E+04 -1.441459E+05
       124  20 -4.423197E+06 -1.118841E+06 -2.956195E+05 -1.697316E+06  2.470557E+04 -1.302338E+05
       124  21 -4.208995E+06 -1.063685E+06 -2.577891E+05 -1.661623E+06  1.603533E+04 -1.157555E+05
       124  22 -2.825713E+06 -5.615142E+05 -6.956220E+03 -1.276374E+06  5.680866E+04 -1.352091E+05
       124  23 -2.842659E+06 -5.440033E+05 -3.860521E+03 -1.256992E+06  4.923225E+04 -1.209755E+05
       124  24 -2.825387E+06 -5.608123E+05 -2.144547E+03 -1.276538E+06  4.146618E+04 -1.061762E+05
       124  25 -1.044761E+06  8.577393E+04  3.215213E+05 -7.794826E+05  8.050553E+04 -1.262449E+05
       124  26 -1.259473E+06  3.107346E+04  2.878099E+05 -8.156118E+05  7.382625E+04 -1.116920E+05
       124  27 -1.439756E+06 -5.775891E+04  2.534311E+05 -8.906463E+05  6.695800E+04 -9.657410E+04
       125   1 -4.078038E+06 -1.015869E+06 -2.320665E+05 -1.625325E+06 -1.222412E+04  1.066545E+05
       125   2 -3.895570E+06 -9.257930E+05 -1.950695E+05 -1.549888E+06 -5.574351E+03  9.103763E+04
       125   3 -3.678423E+06 -8.702797E+05 -1.585354E+05 -1.513946E+06  1.095521E+03  7.532489E+04
       125   4 -2.825208E+06 -5.608200E+05 -1.661718E+03 -1.276649E+06 -3.768098E+04  9.707494E+04
       125   5 -2.842443E+06 -5.433699E+05 -1.062454E+03 -1.256932E+06 -3.118469E+04  8.141331E+04
       125   6 -2.825014E+06 -5.604540E+05 -8.083935E+02 -1.276724E+06 -2.466852E+04  6.565573E+04
       125   7 -1.570731E+06 -1.056269E+05  2.286847E+05 -9.273160E+05 -6.319283E+04  8.747480E+04
       125   8 -1.788144E+06 -1.608420E+05  1.929062E+05 -9.635103E+05 -5.684170E+04  7.177148E+04
       125   9 -1.970827E+06 -2.505566E+05  1.568963E+05 -1.039194E+06 -5.047084E+04  5.597222E+04
       125  10 -4.078041E+06 -1.015881E+06 -2.320882E+05 -1.625324E+06 -6.119462E-11  6.350394E-10
       125  11 -3.895572E+06 -9.258019E+05 -1.950851E+05 -1.549887E+06  2.659511E-10 -2.258166E-10
       125  12 -3.678424E+06 -8.702858E+05 -1.585461E+05 -1.513946E+06  1.143975E-09 -1.360343E-09
       125  13 -2.825212E+06 -5.608305E+05 -1.682062E+03 -1.276646E+06 -2.100550E-10 -2.423283E-11
       125  14 -2.842446E+06 -5.433772E+05 -1.076714E+03 -1.256930E+06 -9.258898E-10  3.102364E-10
       125  15 -2.825016E+06 -5.604588E+05 -8.176230E+02 -1.276723E+06  3.364472E-10  7.956124E-11
       125  16 -1.570737E+06 -1.056362E+05  2.286628E+05 -9.273116E+05  7.282964E-10 -9.379534E-10
       125  17 -1.788149E+06 -1.608484E+05  1.928905E+05 -9.635070E+05 -6.933187E-10  8.013103E-10
       125  18 -1.970831E+06 -2.505606E+05  1.568857E+05 -1.039191E+06 -1.299855E-09  5.845186E-10
       125  19 -4.078038E+06 -1.015869E+06 -2.320665E+05 -1.625325E+06  1.222412E+04 -1.066545E+05
       125  20 -3.895570E+06 -9.257930E+05 -1.950695E+05 -1.549888E+06  5.574351E+03 -9.103763E+04
       125  21 -3.678423E+06 -8.702797E+05 -1.585354E+05 -1.513946E+06 -1.095521E+03 -7.532489E+04
       125  22 -2.825208E+06 -5.608200E+05 -1.661718E+03 -1.276649E+06  3.768098E+04 -9.707494E+04
       125  23 -2.842443E+06 -5.433699E+05 -1.062454E+03 -1.256932E+06  3.118469E+04 -8.141331E+04
       125  24 -2.825014E+06 -5.604540E+05 -8.083935E+02 -1.276724E+06  2.466852E+04 -6.565573E+04
       125  25 -1.570731E+06 -1.056269E+05  2.286847E+05 -9.273160E+05  6.319283E+04 -8.747480E+04
       125  26 -1.788144E+06 -1.608420E+05  1.929062E+05 -9.635103E+05  5.684170E+04 -7.177148E+04
       125  27 -1.970827E+06 -2.505566E+05  1.568963E+05 -1.039194E+06  5.047084E+04 -5.597222E+04
       126   1 -3.546175E+06 -8.220839E+05 -1.330851E+05 -1.477340E+06  4.784757E+03  6.606540E+04
       126   2 -3.362138E+06 -7.316040E+05 -9.673980E+04 -1.401451E+06  1.134722E+04  5.022437E+04
       126   3 -3.143300E+06 -6.759082E+05 -6.078667E+04 -1.365398E+06  1.790705E+04  3.436889E+04
       126   4 -2.824938E+06 -5.604495E+05 -8.151665E+02 -1.276802E+06 -2.103510E+04  5.638103E+04
       126   5 -2.842267E+06 -5.429511E+05 -1.044584E+03 -1.256902E+06 -1.449763E+04  4.053700E+04
       126   6 -2.824835E+06 -5.602344E+05 -1.649657E+03 -1.276851E+06 -7.962997E+03  2.467853E+04
       126   7 -2.103151E+06 -2.987658E+05  1.314385E+05 -1.076046E+06 -4.688714E+04  4.668458E+04
       126   8 -2.322112E+06 -3.542734E+05  9.464276E+04 -1.112239E+06 -4.036557E+04  3.084096E+04
       126   9 -2.506265E+06 -4.445517E+05  5.748550E+04 -1.188262E+06 -3.384704E+04  1.498292E+04
       126  10 -3.546176E+06 -8.220886E+05 -1.330933E+05 -1.477340E+06  3.263659E-10 -1.228860E-09
       126  11 -3.362139E+06 -7.316068E+05 -9.674479E+04 -1.401451E+06 -9.263610E-09 -2.270307E-09
       126  12 -3.143300E+06 -6.759095E+05 -6.078950E+04 -1.365399E+06 -9.894409E-09 -1.054075E-09
       126  13 -2.824939E+06 -5.604530E+05 -8.219608E+02 -1.276801E+06 -3.132549E-09 -1.498620E-09
       126  14 -2.842267E+06 -5.429530E+05 -1.048062E+03 -1.256901E+06 -7.041925E-09 -1.329520E-09
       126  15 -2.824835E+06 -5.602350E+05 -1.650919E+03 -1.276851E+06 -3.846327E-09  1.292662E-10
       126  16 -2.103154E+06 -2.987687E+05  1.314303E+05 -1.076044E+06 -5.028955E-09 -9.960784E-10
       126  17 -2.322114E+06 -3.542748E+05  9.463791E+04 -1.112238E+06 -5.603811E-09 -1.507529E-09
       126  18 -2.506266E+06 -4.445523E+05  5.748293E+04 -1.188262E+06  2.870738E-09  1.237657E-09
       126  19 -3.546175E+06 -8.220839E+05 -1.330851E+05 -1.477340E+06 -4.784757E+03 -6.606540E+04
       126  20 -3.362138E+06 -7.316040E+05 -9.673980E+04 -1.401451E+06 -1.134722E+04 -5.022437E+04
       126  21 -3.143300E+06 -6.759082E+05 -6.078667E+04 -1.365398E+06 -1.790705E+04 -3.436889E+04
       126  22 -2.824938E+06 -5.604495E+05 -8.151665E+02 -1.276802E+06  2.103510E+04 -5.638103E+04
       126  23 -2.842267E+06 -5.429511E+05 -1.044584E+03 -1.256902E+06  1.449763E+04 -4.053700E+04
       126  24 -2.824835E+06 -5.602344E+05 -1.649657E+03 -1.276851E+06  7.962997E+03 -2.467853E+04
       126  25 -2.103151E+06 -2.987658E+05  1.314385E+05 -1.076046E+06  4.688714E+04 -4.668458E+04
       126  26 -2.322112E+06 -3.542734E+05  9.464276E+04 -1.112239E+06  4.036557E+04 -3.084096E+04
       126  27 -2.506265E+06 -4.445517E+05  5.748550E+04 -1.188262E+06  3.384704E+04 -1.498292E+04
       127   1 -3.010347E+06 -6.275441E+05 -3.569741E+04 -1.328650E+06  2.178241E+04  2.513900E+04
       127   2 -2.825643E+06 -5.369794E+05 -6.011374E+02 -1.252583E+06  2.931275E+04  9.740371E+03
       127   3 -2.606299E+06 -4.814154E+05  3.330926E+04 -1.216463E+06  3.675911E+04 -5.432487E+03
       127   4 -2.824865E+06 -5.602224E+05 -2.148924E+03 -1.276901E+06 -4.141213E+03  1.543042E+04
       127   5 -2.842137E+06 -5.427504E+05 -3.817576E+03 -1.256894E+06  3.747912E+03  1.658913E+02
       127   6 -2.824889E+06 -5.603574E+05 -6.961534E+03 -1.276852E+06  1.155251E+04 -1.487299E+04
       127   7 -2.639343E+06 -4.928961E+05  3.140177E+04 -1.225136E+06 -3.007338E+04  5.718629E+03
       127   8 -2.858629E+06 -5.485209E+05 -7.031233E+03 -1.261204E+06 -2.181632E+04 -9.408387E+03
       127   9 -3.043427E+06 -6.392946E+05 -4.723139E+04 -1.337222E+06 -1.364458E+04 -2.430996E+04
       127  10 -3.010348E+06 -6.275449E+05 -3.569950E+04 -1.328650E+06 -2.826768E-10  2.042582E-09
       127  11 -2.825644E+06 -5.369798E+05 -6.029401E+02 -1.252583E+06 -7.339674E-10  3.869624E-10
       127  12 -2.606300E+06 -4.814158E+05  3.330665E+04 -1.216462E+06 -2.939896E-09 -1.783219E-09
       127  13 -2.824865E+06 -5.602226E+05 -2.149403E+03 -1.276901E+06 -3.257956E-10  1.028214E-09
       127  14 -2.842137E+06 -5.427504E+05 -3.817602E+03 -1.256894E+06 -5.506008E-10 -6.689487E-10
       127  15 -2.824889E+06 -5.603577E+05 -6.962200E+03 -1.276852E+06  7.407057E-10  3.210784E-10
       127  16 -2.639344E+06 -4.928964E+05  3.140000E+04 -1.225136E+06 -1.710941E-11 -1.990422E-10
       127  17 -2.858630E+06 -5.485211E+05 -7.032300E+03 -1.261205E+06 -2.909164E-11 -9.487201E-10
       127  18 -3.043427E+06 -6.392952E+05 -4.723286E+04 -1.337222E+06  2.804244E-09  1.331036E-09
       127  19 -3.010347E+06 -6.275441E+05 -3.569741E+04 -1.328650E+06 -2.178241E+04 -2.513900E+04
       127  20 -2.825643E+06 -5.369794E+05 -6.011374E+02 -1.252583E+06 -2.931275E+04 -9.740371E+03
       127  21 -2.606299E+06 -4.814154E+05  3.330926E+04 -1.216463E+06 -3.675911E+04  5.432487E+03
       127  22 -2.824865E+06 -5.602224E+05 -2.148924E+03 -1.276901E+06  4.141213E+03 -1.543042E+04
       127  23 -2.842137E+06 -5.427504E+05 -3.817576E+03 -1.256894E+06 -3.747912E+03 -1.658913E+02
       127  24 -2.824889E+06 -5.603574E+05 -6.961534E+03 -1.276852E+06 -1.155251E+04  1.487299E+04
       127  25 -2.639343E+06 -4.928961E+05  3.140177E+04 -1.225136E+06  3.007338E+04 -5.718629E+03
       127  26 -2.858629E+06 -5.485209E+05 -7.031233E+03 -1.261204E+06  2.181632E+04  9.408387E+03
       127  27 -3.043427E+06 -6.392946E+05 -4.723139E+04 -1.337222E+06  1.364458E+04  2.430996E+04
       128   1 -2.473143E+06 -4.333043E+05  5.671414E+04 -1.180296E+06  4.191947E+04 -1.408290E+04
       128   2 -2.289651E+06 -3.424112E+05  8.734001E+04 -1.102424E+06  5.133834E+04 -2.705052E+04
       128   3 -2.073289E+06 -2.897159E+05  1.140338E+05 -1.063429E+06  5.970595E+04 -3.719371E+04
       128   4 -2.825336E+06 -5.602067E+05 -9.267357E+03 -1.277015E+06  1.631487E+04 -2.367443E+04
       128   5 -2.841780E+06 -5.437434E+05 -1.697205E+04 -1.256429E+06  3.027529E+04 -3.494692E+04
       128   6 -2.826302E+06 -5.663901E+05 -3.222497E+04 -1.274741E+06  4.318258E+04 -4.339411E+04
       128   7 -3.177394E+06 -6.870965E+05 -7.525002E+04 -1.373682E+06 -9.273903E+03 -3.326013E+04
       128   8 -3.393588E+06 -7.450468E+05 -1.212945E+05 -1.410306E+06  9.232327E+03 -4.283573E+04
       128   9 -3.578729E+06 -8.430134E+05 -1.785095E+05 -1.485814E+06  2.668059E+04 -4.958634E+04
       128  10 -2.473145E+06 -4.333049E+05  5.671045E+04 -1.180295E+06 -5.357282E-10 -6.907391E-10
       128  11 -2.289654E+06 -3.424127E+05  8.733368E+04 -1.102423E+06 -7.630533E-10 -5.344573E-10
       128  12 -2.073294E+06 -2.897183E+05  1.140245E+05 -1.063427E+06 -1.203025E-10 -2.287248E-10
       128  13 -2.825337E+06 -5.602074E+05 -9.268908E+03 -1.277015E+06 -5.898277E-10 -8.557020E-10
       128  14 -2.841781E+06 -5.437450E+05 -1.697606E+04 -1.256429E+06 -1.254987E-09 -1.357784E-09
       128  15 -2.826304E+06 -5.663926E+05 -3.223200E+04 -1.274739E+06 -8.768409E-11 -5.280969E-10
       128  16 -3.177394E+06 -6.870977E+05 -7.525226E+04 -1.373682E+06  9.296894E-10  2.784790E-10
       128  17 -3.393588E+06 -7.450488E+05 -1.212981E+05 -1.410306E+06 -3.055262E-10 -1.257178E-09
       128  18 -3.578730E+06 -8.430163E+05 -1.785155E+05 -1.485813E+06 -2.585670E-10 -8.255428E-10
       128  19 -2.473143E+06 -4.333043E+05  5.671414E+04 -1.180296E+06 -4.191947E+04  1.408290E+04
       128  20 -2.289651E+06 -3.424112E+05  8.734001E+04 -1.102424E+06 -5.133834E+04  2.705052E+04
       128  21 -2.073289E+06 -2.897159E+05  1.140338E+05 -1.063429E+06 -5.970595E+04  3.719371E+04
       128  22 -2.825336E+06 -5.602067E+05 -9.267357E+03 -1.277015E+06 -1.631487E+04  2.367443E+04
       128  23 -2.841780E+06 -5.437434E+05 -1.697205E+04 -1.256429E+06 -3.027529E+04  3.494692E+04
       128  24 -2.826302E+06 -5.663901E+05 -3.222497E+04 -1.274741E+06 -4.318258E+04  4.339411E+04
       128  25 -3.177394E+06 -6.870965E+05 -7.525002E+04 -1.373682E+06  9.273903E+03  3.326013E+04
       128  26 -3.393588E+06 -7.450468E+05 -1.212945E+05 -1.410306E+06 -9.232327E+03  4.283573E+04
       128  27 -3.578729E+06 -8.430134E+05 -1.785095E+05 -1.485814E+06 -2.668059E+04  4.958634E+04
       129   1 -1.936004E+06 -2.467295E+05  1.308815E+05 -1.038830E+06  7.270254E+04 -4.169925E+04
       129   2 -1.782128E+06 -1.435985E+05  1.515984E+05 -9.124175E+05  5.741984E+04 -4.287952E+04
       129   3 -1.622791E+06 -1.504498E+05  1.612645E+05 -8.016169E+05  2.908962E+04 -9.358786E+03
       129   4 -2.831771E+06 -5.638473E+05 -4.261442E+04 -1.277389E+06  5.108630E+04 -4.981244E+04
       129   5 -2.838605E+06 -5.708968E+05 -8.076345E+04 -1.244267E+06  9.177432E+04 -3.000268E+04
       129   6 -2.851208E+06 -6.991710E+05 -1.744960E+05 -1.226780E+06  1.194039E+05  2.454120E+04
       129   7 -3.726708E+06 -8.809071E+05 -2.161450E+05 -1.515632E+06  2.950347E+04 -5.791394E+04
       129   8 -3.893913E+06 -9.980292E+05 -3.131820E+05 -1.575563E+06  1.260650E+05 -1.715525E+04
       129   9 -4.078061E+06 -1.247581E+06 -5.103436E+05 -1.651095E+06  2.095187E+05  5.833410E+04
       129  10 -1.936010E+06 -2.467328E+05  1.308683E+05 -1.038828E+06  8.022293E-10  2.038709E-10
       129  11 -1.782132E+06 -1.436014E+05  1.515888E+05 -9.124156E+05 -7.791733E-10  6.885345E-10
       129  12 -1.622792E+06 -1.504501E+05  1.612628E+05 -8.016167E+05  1.678881E-10  4.259257E-10
       129  13 -2.831775E+06 -5.638506E+05 -4.262398E+04 -1.277386E+06 -4.799379E-10 -4.212538E-10
       129  14 -2.838615E+06 -5.709001E+05 -8.078101E+04 -1.244264E+06  6.745585E-10  1.989659E-10
       129  15 -2.851224E+06 -6.991755E+05 -1.745241E+05 -1.226783E+06 -6.975793E-10  1.946169E-10
       129  16 -3.726710E+06 -8.809110E+05 -2.161530E+05 -1.515631E+06 -3.881998E-10 -3.562413E-10
       129  17 -3.893930E+06 -9.980338E+05 -3.132126E+05 -1.575561E+06 -8.787148E-10 -3.703517E-10
       129  18 -4.078110E+06 -1.247596E+06 -5.104332E+05 -1.651105E+06 -6.969578E-10 -1.775812E-10
       129  19 -1.936004E+06 -2.467295E+05  1.308815E+05 -1.038830E+06 -7.270254E+04  4.169925E+04
       129  20 -1.782128E+06 -1.435985E+05  1.515984E+05 -9.124175E+05 -5.741984E+04  4.287952E+04
       129  21 -1.622791E+06 -1.504498E+05  1.612645E+05 -8.016169E+05 -2.908962E+04  9.358786E+03
       129  22 -2.831771E+06 -5.638473E+05 -4.261442E+04 -1.277389E+06 -5.108630E+04  4.981244E+04
       129  23 -2.838605E+06 -5.708968E+05 -8.076345E+04 -1.244267E+06 -9.177432E+04  3.000268E+04
       129  24 -2.851208E+06 -6.991710E+05 -1.744960E+05 -1.226780E+06 -1.194039E+05 -2.454120E+04
       129  25 -3.726708E+06 -8.809071E+05 -2.161450E+05 -1.515632E+06 -2.950347E+04  5.791394E+04
       129  26 -3.893913E+06 -9.980292E+05 -3.131820E+05 -1.575563E+06 -1.260650E+05  1.715525E+04
       129  27 -4.078061E+06 -1.247581E+06 -5.103436E+05 -1.651095E+06 -2.095187E+05 -5.833410E+04
       130   1  1.066349E+05  2.091423E+04  3.893578E+04  1.646641E+04  5.592364E+04  2.255701E+03
       130   2  1.132865E+05 -5.210792E+04 -3.702183E+03  3.652911E+03  3.803541E+04  6.763486E+03
       130   3  1.425009E+05 -4.434360E+04 -1.449018E+04 -1.982213E+04  2.014846E+04  6.430125E+03
       130   4  3.064822E+05  7.064963E+04  8.797479E+04 -9.661787E+03  6.026728E+04  2.255413E+03
       130   5  2.949481E+05 -7.258757E+03  3.895976E+04 -4.314617E+03  3.935124E+04  6.763392E+03
       130   6  3.064939E+05 -3.869344E+03  2.388942E+04 -9.628404E+03  1.843707E+04  6.429807E+03
       130   7  5.063674E+05  1.203847E+05  1.370113E+05 -3.579841E+04  6.461232E+04  2.254761E+03
       130   8  4.766402E+05  3.758830E+04  8.161949E+04 -1.228449E+04  4.066744E+04  6.763264E+03
       130   9  4.705120E+05  3.660340E+04  6.226726E+04  5.680276E+02  1.672523E+04  6.429432E+03
       130  10  1.066316E+05  2.091338E+04  3.892989E+04  1.646631E+04  1.575390E-09 -5.846110E-10
       130  11  1.132849E+05 -5.210836E+04 -3.704987E+03  3.652703E+03  9.494370E-10 -1.367134E-10
       130  12  1.425005E+05 -4.434376E+04 -1.449102E+04 -1.982223E+04  4.534004E-10 -5.067707E-10
       130  13  3.064783E+05  7.064865E+04  8.796796E+04 -9.661896E+03  1.187795E-09  2.918379E-10
       130  14  2.949464E+05 -7.259222E+03  3.895677E+04 -4.314831E+03 -5.424846E-10 -1.473113E-10
       130  15  3.064936E+05 -3.869480E+03  2.388871E+04 -9.628500E+03  2.039153E-09 -4.389616E-10
       130  16  5.063629E+05  1.203835E+05  1.370035E+05 -3.579853E+04  2.580497E-10  3.183400E-10
       130  17  4.766384E+05  3.758780E+04  8.161630E+04 -1.228471E+04 -1.453353E-09  8.838742E-11
       130  18  4.705117E+05  3.660328E+04  6.226666E+04  5.679410E+02 -8.726320E-10  7.297719E-10
       130  19  1.066349E+05  2.091423E+04  3.893578E+04  1.646641E+04 -5.592364E+04 -2.255701E+03
       130  20  1.132865E+05 -5.210792E+04 -3.702183E+03  3.652911E+03 -3.803541E+04 -6.763486E+03
       130  21  1.425009E+05 -4.434360E+04 -1.449018E+04 -1.982213E+04 -2.014846E+04 -6.430125E+03
       130  22  3.064822E+05  7.064963E+04  8.797479E+04 -9.661787E+03 -6.026728E+04 -2.255413E+03
       130  23  2.949481E+05 -7.258757E+03  3.895976E+04 -4.314617E+03 -3.935124E+04 -6.763392E+03
       130  24  3.064939E+05 -3.869344E+03  2.388942E+04 -9.628404E+03 -1.843707E+04 -6.429807E+03
       130  25  5.063674E+05  1.203847E+05  1.370113E+05 -3.579841E+04 -6.461232E+04 -2.254761E+03
       130  26  4.766402E+05  3.758830E+04  8.161949E+04 -1.228449E+04 -4.066744E+04 -6.763264E+03
       130  27  4.705120E+05  3.660340E+04  6.226726E+04  5.680276E+02 -1.672523E+04 -6.429432E+03
       131   1  1.572037E+05 -2.956175E+04 -1.465254E+04 -7.695460E+03  1.505122E+04  5.330947E+03
       131   2  1.737021E+05 -3.203729E+04 -1.970981E+04 -3.820157E+03  1.010612E+04  4.829622E+03
       131   3  1.926594E+05 -2.732498E+04 -1.974720E+04 -1.063973E+04  5.160814E+03  4.051279E+03
       131   4  3.019172E+05  6.173387E+03  1.935219E+04 -9.646434E+03  1.482791E+04  5.330755E+03
       131   5  3.006744E+05 -6.948873E+02  1.006369E+04 -4.298307E+03  9.708818E+03  4.829463E+03
       131   6  3.019198E+05 -3.459945E+02  5.914988E+03 -9.644878E+03  4.589653E+03  4.051156E+03
       131   7  4.466499E+05  4.190705E+04  5.335549E+04 -1.159787E+04  1.460455E+04  5.330565E+03
       131   8  4.276615E+05  3.064637E+04  3.983610E+04 -4.776556E+03  9.311432E+03  4.829305E+03
       131   9  4.111912E+05  2.663214E+04  3.157636E+04 -8.649847E+03  4.018391E+03  4.051032E+03
       131  10  1.572035E+05 -2.956184E+04 -1.465302E+04 -7.695524E+03 -3.575971E-10  1.535334E-11
       131  11  1.737020E+05 -3.203734E+04 -1.971004E+04 -3.820197E+03  2.492204E-09  7.869930E-10
       131  12  1.926594E+05 -2.732500E+04 -1.974728E+04 -1.063975E+04  3.070894E-09 -3.514124E-10
       131  13  3.019169E+05  6.173298E+03  1.935172E+04 -9.646497E+03  2.255747E-09  7.348659E-10
       131  14  3.006743E+05 -6.949377E+02  1.006347E+04 -4.298345E+03 -4.329527E-10  7.809144E-10
       131  15  3.019198E+05 -3.460177E+02  5.914918E+03 -9.644893E+03  8.367344E-10 -8.836850E-10
       131  16  4.466497E+05  4.190696E+04  5.335503E+04 -1.159793E+04 -1.748474E-10  7.592782E-10
       131  17  4.276614E+05  3.064632E+04  3.983589E+04 -4.776592E+03 -1.380127E-09  4.983816E-10
       131  18  4.111911E+05  2.663212E+04  3.157630E+04 -8.649860E+03 -1.696307E-09 -1.040577E-09
       131  19  1.572037E+05 -2.956175E+04 -1.465254E+04 -7.695460E+03 -1.505122E+04 -5.330947E+03
       131  20  1.737021E+05 -3.203729E+04 -1.970981E+04 -3.820157E+03 -1.010612E+04 -4.829622E+03
       131  21  1.926594E+05 -2.732498E+04 -1.974720E+04 -1.063973E+04 -5.160814E+03 -4.051279E+03
       131  22  3.019172E+05  6.173387E+03  1.935219E+04 -9.646434E+03 -1.482791E+04 -5.330755E+03
       131  23  3.006744E+05 -6.948873E+02  1.006369E+04 -4.298307E+03 -9.708818E+03 -4.829463E+03
       131  24  3.019198E+05 -3.459945E+02  5.914988E+03 -9.644878E+03 -4.589653E+03 -4.051156E+03
       131  25  4.466499E+05  4.190705E+04  5.335549E+04 -1.159787E+04 -1.460455E+04 -5.330565E+03
       131  26  4.276615E+05  3.064637E+04  3.983610E+04 -4.776556E+03 -9.311432E+03 -4.829305E+03
       131  27  4.111912E+05  2.663214E+04  3.157636E+04 -8.649847E+03 -4.018391E+03 -4.051032E+03
       132   1  2.112931E+05 -2.172312E+04 -1.649638E+04 -9.553709E+03  4.148743E+03  3.547275E+03
       132   2  2.287621E+05 -1.797320E+04 -1.445142E+04 -4.325157E+03  2.885874E+03  2.762331E+03
       132   3  2.465607E+05 -1.358807E+04 -1.142434E+04 -9.742722E+03  1.622889E+03  1.962415E+03
       132   4  3.014413E+05  5.193805E+02  4.593379E+03 -9.634550E+03  3.663908E+03  3.547183E+03
       132   5  3.012761E+05 -7.439186E+01  2.549687E+03 -4.311505E+03  2.391521E+03  2.762267E+03
       132   6  3.014422E+05 -3.127062E+01  1.494676E+03 -9.634499E+03  1.119053E+03  1.962380E+03
       132   7  3.915969E+05  2.276130E+04  2.568259E+04 -9.715402E+03  3.179002E+03  3.547091E+03
       132   8  3.737950E+05  1.782404E+04  1.955043E+04 -4.297851E+03  1.897110E+03  2.762203E+03
       132   9  3.563265E+05  1.352531E+04  1.441349E+04 -9.526266E+03  6.151727E+02  1.962346E+03
       132  10  2.112931E+05 -2.172313E+04 -1.649644E+04 -9.553721E+03 -9.677499E-10 -3.088083E-10
       132  11  2.287621E+05 -1.797321E+04 -1.445145E+04 -4.325164E+03  1.094845E-09  6.467262E-10
       132  12  2.465607E+05 -1.358808E+04 -1.142435E+04 -9.742724E+03 -4.493505E-10 -4.801581E-10
       132  13  3.014413E+05  5.193633E+02  4.593330E+03 -9.634560E+03  9.853102E-10 -5.610274E-10
       132  14  3.012761E+05 -7.440159E+01  2.549662E+03 -4.311510E+03 -2.181030E-09  8.363046E-10
       132  15  3.014422E+05 -3.127509E+01  1.494666E+03 -9.634500E+03  1.907585E-10 -2.924668E-10
       132  16  3.915969E+05  2.276128E+04  2.568254E+04 -9.715412E+03 -7.844781E-10 -8.132176E-10
       132  17  3.737950E+05  1.782404E+04  1.955041E+04 -4.297856E+03 -4.110084E-10  7.966594E-10
       132  18  3.563265E+05  1.352531E+04  1.441348E+04 -9.526267E+03 -1.065402E-09  2.989720E-11
       132  19  2.112931E+05 -2.172312E+04 -1.649638E+04 -9.553709E+03 -4.148743E+03 -3.547275E+03
       132  20  2.287621E+05 -1.797320E+04 -1.445142E+04 -4.325157E+03 -2.885874E+03 -2.762331E+03
       132  21  2.465607E+05 -1.358807E+04 -1.142434E+04 -9.742722E+03 -1.622889E+03 -1.962415E+03
       132  22  3.014413E+05  5.193805E+02  4.593379E+03 -9.634550E+03 -3.663908E+03 -3.547183E+03
       132  23  3.012761E+05 -7.439186E+01  2.549687E+03 -4.311505E+03 -2.391521E+03 -2.762267E+03
       132  24  3.014422E+05 -3.127062E+01  1.494676E+03 -9.634499E+03 -1.119053E+03 -1.962380E+03
       132  25  3.915969E+05  2.276130E+04  2.568259E+04 -9.715402E+03 -3.179002E+03 -3.547091E+03
       132  26  3.737950E+05  1.782404E+04  1.955043E+04 -4.297851E+03 -1.897110E+03 -2.762203E+03
       132  27  3.563265E+05  1.352531E+04  1.441349E+04 -9.526266E+03 -6.151727E+02 -1.962346E+03
       133   1  2.655406E+05 -8.797654E+03 -7.193008E+03 -9.643137E+03  1.379387E+03  1.494409E+03
       133   2  2.831024E+05 -4.514623E+03 -3.578743E+03 -4.330685E+03  1.033003E+03  6.952654E+02
       133   3  3.007254E+05 -1.750455E+02  2.754028E+02 -9.640735E+03  6.865787E+02 -1.044782E+02
       133   4  3.013825E+05  3.859892E+01  1.157569E+03 -9.629281E+03  8.807824E+02  1.494387E+03
       133   5  3.013523E+05 -1.011975E+01  6.998047E+02 -4.318040E+03  5.339957E+02  6.952500E+02
       133   6  3.013827E+05 -2.272877E+00  4.821332E+02 -9.629282E+03  1.871780E+02 -1.044858E+02
       133   7  3.372256E+05  8.874761E+03  9.508061E+03 -9.615425E+03  3.821496E+02  1.494365E+03
       133   8  3.196025E+05  4.494360E+03  4.978331E+03 -4.305394E+03  3.497381E+01  6.952345E+02
       133   9  3.020401E+05  1.704999E+02  6.888645E+02 -9.617828E+03 -3.122233E+02 -1.044933E+02
       133  10  2.655406E+05 -8.797657E+03 -7.193015E+03 -9.643139E+03 -1.172803E-09 -4.735024E-10
       133  11  2.831024E+05 -4.514624E+03 -3.578746E+03 -4.330685E+03  1.252250E-09  8.019229E-10
       133  12  3.007254E+05 -1.750457E+02  2.754019E+02 -9.640735E+03  6.830701E-10 -2.367828E-10
       133  13  3.013825E+05  3.859631E+01  1.157564E+03 -9.629283E+03 -1.072864E-09 -6.002959E-10
       133  14  3.013523E+05 -1.012034E+01  6.998033E+02 -4.318040E+03  1.007059E-09  9.236451E-11
       133  15  3.013827E+05 -2.272898E+00  4.821331E+02 -9.629282E+03 -1.362780E-09  3.044082E-10
       133  16  3.372256E+05  8.874759E+03  9.508056E+03 -9.615426E+03  1.422197E-10 -7.198809E-10
       133  17  3.196025E+05  4.494359E+03  4.978330E+03 -4.305394E+03 -1.108837E-09 -4.976863E-10
       133  18  3.020401E+05  1.704998E+02  6.888643E+02 -9.617828E+03 -5.180810E-10  8.488143E-10
       133  19  2.655406E+05 -8.797654E+03 -7.193008E+03 -9.643137E+03 -1.379387E+03 -1.494409E+03
       133  20  2.831024E+05 -4.514623E+03 -3.578743E+03 -4.330685E+03 -1.033003E+03 -6.952654E+02
       133  21  3.007254E+05 -1.750455E+02  2.754028E+02 -9.640735E+03 -6.865787E+02  1.044782E+02
       133  22  3.013825E+05  3.859892E+01  1.157569E+03 -9.629281E+03 -8.807824E+02 -1.494387E+03
       133  23  3.013523E+05 -1.011975E+01  6.998047E+02 -4.318040E+03 -5.339957E+02 -6.952500E+02
       133  24  3.013827E+05 -2.272877E+00  4.821332E+02 -9.629282E+03 -1.871780E+02  1.044858E+02
       133  25  3.372256E+05  8.874761E+03  9.508061E+03 -9.615425E+03 -3.821496E+02 -1.494365E+03
       133  26  3.196025E+05  4.494360E+03  4.978331E+03 -4.305394E+03 -3.497381E+01 -6.952345E+02
       133  27  3.020401E+05  1.704999E+02  6.888645E+02 -9.617828E+03  3.122233E+02  1.044933E+02
       134   1  3.197421E+05  4.543638E+03  4.790102E+03 -9.630651E+03  6.039808E+02 -5.701664E+02
       134   2  3.373248E+05  8.870958E+03  8.859844E+03 -4.313944E+03  3.916729E+02 -1.370117E+03
       134   3  3.549446E+05  1.322544E+04  1.307498E+04 -9.624446E+03  1.794104E+02 -2.169661E+03
       134   4  3.013773E+05  3.497459E-01  4.321219E+02 -9.630340E+03  1.044876E+02 -5.701764E+02
       134   5  3.013588E+05 -6.018141E+00  4.281627E+02 -4.316717E+03 -1.075641E+02 -1.370142E+03
       134   6  3.013770E+05  1.475164E+01  5.694415E+02 -9.630341E+03 -3.195644E+02 -2.169700E+03
       134   7  2.830128E+05 -4.542962E+03 -3.925881E+03 -9.630029E+03 -3.949910E+02 -5.701863E+02
       134   8  2.653940E+05 -8.883086E+03 -8.003606E+03 -4.319490E+03 -6.067724E+02 -1.370167E+03
       134   9  2.478120E+05 -1.319614E+04 -1.193629E+04 -9.636235E+03 -8.184964E+02 -2.169739E+03
       134  10  3.197421E+05  4.543637E+03  4.790101E+03 -9.630651E+03 -5.147647E-10 -3.416101E-10
       134  11  3.373248E+05  8.870956E+03  8.859840E+03 -4.313944E+03  2.068250E-09  5.260754E-10
       134  12  3.549446E+05  1.322543E+04  1.307497E+04 -9.624446E+03 -4.479814E-10 -1.077943E-09
       134  13  3.013773E+05  3.493938E-01  4.321213E+02 -9.630340E+03  3.449053E-09  2.631291E-10
       134  14  3.013588E+05 -6.020160E+00  4.281592E+02 -4.316717E+03  7.461087E-10 -1.928249E-11
       134  15  3.013770E+05  1.474655E+01  5.694324E+02 -9.630341E+03 -8.957177E-11 -4.405376E-10
       134  16  2.830128E+05 -4.542963E+03 -3.925882E+03 -9.630029E+03  1.032915E-11  6.628156E-10
       134  17  2.653940E+05 -8.883088E+03 -8.003610E+03 -4.319491E+03 -2.846742E-09 -6.392186E-10
       134  18  2.478120E+05 -1.319614E+04 -1.193630E+04 -9.636236E+03 -1.253843E-09  1.960741E-10
       134  19  3.197421E+05  4.543638E+03  4.790102E+03 -9.630651E+03 -6.039808E+02  5.701664E+02
       134  20  3.373248E+05  8.870958E+03  8.859844E+03 -4.313944E+03 -3.916729E+02  1.370117E+03
       134  21  3.549446E+05  1.322544E+04  1.307498E+04 -9.624446E+03 -1.794104E+02  2.169661E+03
       134  22  3.013773E+05  3.497459E-01  4.321219E+02 -9.630340E+03 -1.044876E+02  5.701764E+02
       134  23  3.013588E+05 -6.018141E+00  4.281627E+02 -4.316717E+03  1.075641E+02  1.370142E+03
       134  24  3.013770E+05  1.475164E+01  5.694415E+02 -9.630341E+03  3.195644E+02  2.169700E+03
       134  25  2.830128E+05 -4.542962E+03 -3.925881E+03 -9.630029E+03  3.949910E+02  5.701863E+02
       134  26  2.653940E+05 -8.883086E+03 -8.003606E+03 -4.319490E+03  6.067724E+02  1.370167E+03
       134  27  2.478120E+05 -1.319614E+04 -1.193629E+04 -9.636235E+03  8.184964E+02  2.169739E+03
       135   1  3.740283E+05  1.792047E+04  1.777416E+04 -9.590418E+03  7.141659E+01 -2.638236E+03
       135   2  3.916116E+05  2.224914E+04  2.228889E+04 -4.295654E+03 -4.991797E+02 -3.438846E+03
       135   3  4.093468E+05  2.685074E+04  2.724508E+04 -9.663273E+03 -1.069657E+03 -4.223347E+03
       135   4  3.014016E+05 -1.496724E+01  6.961641E+02 -9.638160E+03 -4.333644E+02 -2.638292E+03
       135   5  3.013260E+05 -3.404176E+01  1.123334E+03 -4.306936E+03 -9.938330E+02 -3.438939E+03
       135   6  3.014007E+05  2.181807E+02  1.985062E+03 -9.638191E+03 -1.554167E+03 -4.223474E+03
       135   7  2.287798E+05 -1.795078E+04 -1.638219E+04 -9.685897E+03 -9.380868E+02 -2.638348E+03
       135   8  2.110480E+05 -2.231780E+04 -2.004278E+04 -4.318217E+03 -1.488415E+03 -3.439031E+03
       135   9  1.934654E+05 -2.641521E+04 -2.327575E+04 -9.613113E+03 -2.038594E+03 -4.223600E+03
       135  10  3.740283E+05  1.792046E+04  1.777414E+04 -9.590418E+03 -5.073688E-10 -9.083848E-10
       135  11  3.916115E+05  2.224912E+04  2.228887E+04 -4.295655E+03 -1.109309E-09  5.835244E-10
       135  12  4.093468E+05  2.685072E+04  2.724504E+04 -9.663277E+03 -4.818651E-10  4.639813E-10
       135  13  3.014016E+05 -1.497477E+01  6.961506E+02 -9.638161E+03  2.150023E-09 -1.775791E-10
       135  14  3.013260E+05 -3.405472E+01  1.123310E+03 -4.306939E+03  3.939753E-10  2.220157E-10
       135  15  3.014007E+05  2.181609E+02  1.985023E+03 -9.638196E+03  2.381645E-09  3.882053E-10
       135  16  2.287798E+05 -1.795078E+04 -1.638220E+04 -9.685899E+03  4.838750E-10  4.230028E-10
       135  17  2.110480E+05 -2.231781E+04 -2.004281E+04 -4.318221E+03  3.084616E-09 -2.347842E-10
       135  18  1.934654E+05 -2.641523E+04 -2.327579E+04 -9.613120E+03  2.343238E-09  3.836097E-10
       135  19  3.740283E+05  1.792047E+04  1.777416E+04 -9.590418E+03 -7.141659E+01  2.638236E+03
       135  20  3.916116E+05  2.224914E+04  2.228889E+04 -4.295654E+03  4.991797E+02  3.438846E+03
       135  21  4.093468E+05  2.685074E+04  2.724508E+04 -9.663273E+03  1.069657E+03  4.223347E+03
       135  22  3.014016E+05 -1.496724E+01  6.961641E+02 -9.638160E+03  4.333644E+02  2.638292E+03
       135  23  3.013260E+05 -3.404176E+01  1.123334E+03 -4.306936E+03  9.938330E+02  3.438939E+03
       135  24  3.014007E+05  2.181807E+02  1.985062E+03 -9.638191E+03  1.554167E+03  4.223474E+03
       135  25  2.287798E+05 -1.795078E+04 -1.638219E+04 -9.685897E+03  9.380868E+02  2.638348E+03
       135  26  2.110480E+05 -2.231780E+04 -2.004278E+04 -4.318217E+03  1.488415E+03  3.439031E+03
       135  27  1.934654E+05 -2.641521E+04 -2.327575E+04 -9.613113E+03  2.038594E+03  4.223600E+03
       136   1  4.287046E+05  3.122517E+04  3.238646E+04 -9.211073E+03 -1.375001E+03 -4.731163E+03
       136   2  4.459191E+05  3.544848E+04  3.827668E+04 -4.476367E+03 -3.758741E+03 -5.508142E+03
       136   3  4.642469E+05  4.279177E+04  4.650284E+04 -1.045753E+04 -6.142492E+03 -5.983973E+03
       136   4  3.016063E+05 -1.521232E+02  2.546912E+03 -9.649823E+03 -1.953512E+03 -4.731338E+03
       136   5  3.010652E+05 -3.021108E+02  4.315887E+03 -4.292238E+03 -4.148779E+03 -5.508334E+03
       136   6  3.016044E+05  2.635559E+03  8.290324E+03 -9.650655E+03 -6.343986E+03 -5.984154E+03
       136   7  1.745229E+05 -3.153057E+04 -2.729374E+04 -1.008848E+04 -2.531905E+03 -4.731513E+03
       136   8  1.562306E+05 -3.605419E+04 -2.964634E+04 -4.108154E+03 -4.538726E+03 -5.508527E+03
       136   9  1.389863E+05 -3.752253E+04 -2.992401E+04 -8.843990E+03 -6.545428E+03 -5.984336E+03
       136  10  4.287046E+05  3.122515E+04  3.238641E+04 -9.211078E+03 -5.159908E-10  1.814400E-11
       136  11  4.459190E+05  3.544844E+04  3.827659E+04 -4.476384E+03 -9.108874E-10  1.092139E-11
       136  12  4.642468E+05  4.279172E+04  4.650270E+04 -1.045756E+04 -2.509997E-09 -6.476239E-10
       136  13  3.016063E+05 -1.521482E+02  2.546862E+03 -9.649831E+03  3.231320E-09  7.201804E-11
       136  14  3.010651E+05 -3.021480E+02  4.315797E+03 -4.292257E+03  2.617471E-09 -3.525021E-10
       136  15  3.016044E+05  2.635510E+03  8.290181E+03 -9.650685E+03  2.616740E-09 -1.252672E-10
       136  16  1.745229E+05 -3.153059E+04 -2.729379E+04 -1.008849E+04  1.706479E-09  1.394472E-10
       136  17  1.562306E+05 -3.605423E+04 -2.964643E+04 -4.108174E+03  1.541403E-09 -1.151897E-10
       136  18  1.389863E+05 -3.752258E+04 -2.992415E+04 -8.844021E+03  2.323237E-09  2.210742E-10
       136  19  4.287046E+05  3.122517E+04  3.238646E+04 -9.211073E+03  1.375001E+03  4.731163E+03
       136  20  4.459191E+05  3.544848E+04  3.827668E+04 -4.476367E+03  3.758741E+03  5.508142E+03
       136  21  4.642469E+05  4.279177E+04  4.650284E+04 -1.045753E+04  6.142492E+03  5.983973E+03
       136  22  3.016063E+05 -1.521232E+02  2.546912E+03 -9.649823E+03  1.953512E+03  4.731338E+03
       136  23  3.010652E+05 -3.021108E+02  4.315887E+03 -4.292238E+03  4.148779E+03  5.508334E+03
       136  24  3.016044E+05  2.635559E+03  8.290324E+03 -9.650655E+03  6.343986E+03  5.984154E+03
       136  25  1.745229E+05 -3.153057E+04 -2.729374E+04 -1.008848E+04  2.531905E+03  4.731513E+03
       136  26  1.562306E+05 -3.605419E+04 -2.964634E+04 -4.108154E+03  4.538726E+03  5.508527E+03
       136  27  1.389863E+05 -3.752253E+04 -2.992401E+04 -8.843990E+03  6.545428E+03  5.984336E+03
       137   1  4.855558E+05  4.323696E+04  5.281150E+04 -5.232000E+03 -6.070466E+03 -7.137241E+03
       137   2  4.983030E+05  4.617773E+04  6.356623E+04 -7.673812E+03 -1.831336E+04 -7.427469E+03
       137   3  5.215272E+05  8.449362E+04  9.113953E+04 -2.078019E+04 -3.055963E+04 -2.455255E+03
       137   4  3.035657E+05 -1.664733E+03  1.023229E+04 -9.633827E+03 -7.889874E+03 -7.138033E+03
       137   5  2.986078E+05 -3.116650E+03  1.668004E+04 -4.310047E+03 -1.684452E+04 -7.427024E+03
       137   6  3.035594E+05  3.024187E+04  3.766731E+04 -9.650741E+03 -2.580210E+04 -2.453128E+03
       137   7  1.216062E+05 -4.656870E+04 -3.234915E+04 -1.403436E+04 -9.708753E+03 -7.138800E+03
       137   8  9.894935E+04 -5.241383E+04 -3.020886E+04 -9.473737E+02 -1.537614E+04 -7.426563E+03
       137   9  8.563515E+04 -2.401292E+04 -1.580825E+04  1.474791E+03 -2.104625E+04 -2.450831E+03
       137  10  4.855557E+05  4.323690E+04  5.281133E+04 -5.232035E+03 -9.180516E-12 -1.270195E-09
       137  11  4.983026E+05  4.617758E+04  6.356549E+04 -7.673921E+03  1.418326E-09 -2.185997E-09
       137  12  5.215262E+05  8.449336E+04  9.113777E+04 -2.078025E+04 -8.838489E-10 -7.508673E-10
       137  13  3.035656E+05 -1.664804E+03  1.023208E+04 -9.633872E+03 -1.388733E-09 -2.128601E-09
       137  14  2.986075E+05 -3.116786E+03  1.667941E+04 -4.310147E+03  2.880387E-09 -3.794872E-11
       137  15  3.035587E+05  3.024168E+04  3.766605E+04 -9.650792E+03 -2.787033E-09 -3.749029E-10
       137  16  1.216061E+05 -4.656878E+04 -3.234942E+04 -1.403441E+04  9.086724E-11 -3.375572E-10
       137  17  9.894908E+04 -5.241395E+04 -3.020940E+04 -9.474657E+02 -1.561017E-10 -5.353305E-10
       137  18  8.563468E+04 -2.401305E+04 -1.580909E+04  1.474749E+03 -1.137894E-09 -1.116458E-09
       137  19  4.855558E+05  4.323696E+04  5.281150E+04 -5.232000E+03  6.070466E+03  7.137241E+03
       137  20  4.983030E+05  4.617773E+04  6.356623E+04 -7.673812E+03  1.831336E+04  7.427469E+03
       137  21  5.215272E+05  8.449362E+04  9.113953E+04 -2.078019E+04  3.055963E+04  2.455255E+03
       137  22  3.035657E+05 -1.664733E+03  1.023229E+04 -9.633827E+03  7.889874E+03  7.138033E+03
       137  23  2.986078E+05 -3.116650E+03  1.668004E+04 -4.310047E+03  1.684452E+04  7.427024E+03
       137  24  3.035594E+05  3.024187E+04  3.766731E+04 -9.650741E+03  2.580210E+04  2.453128E+03
       137  25  1.216062E+05 -4.656870E+04 -3.234915E+04 -1.403436E+04  9.708753E+03  7.138800E+03
       137  26  9.894935E+04 -5.241383E+04 -3.020886E+04 -9.473737E+02  1.537614E+04  7.426563E+03
       137  27  8.563515E+04 -2.401292E+04 -1.580825E+04  1.474791E+03  2.104625E+04  2.450831E+03
       138   1  2.612247E+06  1.054557E+07  2.594127E+06 -1.422182E+06  1.022543E+05  2.366902E+05
       138   2  1.900498E+06  7.990606E+06  1.859652E+06 -6.644573E+05  2.851398E+05  4.697224E+04
       138   3  1.327140E+06  5.523565E+06  1.286119E+06 -1.403566E+06  2.018773E+05 -1.435521E+05
       138   4  5.917692E+04  2.346803E+05  7.487693E+04 -1.366775E+06  1.032129E+05  3.736056E+04
       138   5 -1.174506E+04  2.125590E+05  4.060589E+04 -6.178318E+05  2.856060E+05  1.644521E+04
       138   6  2.768610E+04  2.439338E+05  5.202887E+04 -1.366865E+06  2.003783E+05 -6.051349E+03
       138   7 -2.501693E+06 -9.980309E+06 -2.451981E+06 -1.312079E+06  1.041474E+05 -1.587115E+05
       138   8 -1.928264E+06 -7.510209E+06 -1.782556E+06 -5.716620E+05  2.860714E+05 -1.370633E+04
       138   9 -1.273729E+06 -5.010119E+06 -1.183887E+06 -1.330375E+06  1.988883E+05  1.302956E+05
       138  10  2.612221E+06  1.054551E+07  2.594003E+06 -1.422202E+06 -1.900452E-09 -1.328805E-09
       138  11  1.900410E+06  7.990581E+06  1.859495E+06 -6.644680E+05 -5.093196E-09  6.563884E-09
       138  12  1.327091E+06  5.523532E+06  1.286005E+06 -1.403543E+06  4.273856E-09  1.551436E-09
       138  13  5.916510E+04  2.346759E+05  7.485425E+04 -1.366778E+06 -1.456456E-09 -2.434490E-11
       138  14 -1.183274E+04  2.125368E+05  4.045205E+04 -6.178356E+05 -8.973245E-09 -7.064192E-11
       138  15  2.764298E+04  2.439230E+05  5.195335E+04 -1.366864E+06  3.175521E-09 -1.690819E-08
       138  16 -2.501712E+06 -9.980339E+06 -2.452049E+06 -1.312065E+06 -1.936509E-09  2.349290E-09
       138  17 -1.928352E+06 -7.510231E+06 -1.782710E+06 -5.716589E+05  2.086058E-09 -1.015410E-08
       138  18 -1.273776E+06 -5.010148E+06 -1.183994E+06 -1.330396E+06 -4.787882E-11 -4.639767E-09
       138  19  2.612247E+06  1.054557E+07  2.594127E+06 -1.422182E+06 -1.022543E+05 -2.366902E+05
       138  20  1.900498E+06  7.990606E+06  1.859652E+06 -6.644573E+05 -2.851398E+05 -4.697224E+04
       138  21  1.327140E+06  5.523565E+06  1.286119E+06 -1.403566E+06 -2.018773E+05  1.435521E+05
       138  22  5.917692E+04  2.346803E+05  7.487693E+04 -1.366775E+06 -1.032129E+05 -3.736056E+04
       138  23 -1.174506E+04  2.125590E+05  4.060589E+04 -6.178318E+05 -2.856060E+05 -1.644521E+04
       138  24  2.768610E+04  2.439338E+05  5.202887E+04 -1.366865E+06 -2.003783E+05  6.051349E+03
       138  25 -2.501693E+06 -9.980309E+06 -2.451981E+06 -1.312079E+06 -1.041474E+05  1.587115E+05
       138  26 -1.928264E+06 -7.510209E+06 -1.782556E+06 -5.716620E+05 -2.860714E+05  1.370633E+04
       138  27 -1.273729E+06 -5.010119E+06 -1.183887E+06 -1.330375E+06 -1.988883E+05 -1.302956E+05
       139   1  6.647913E+05  2.804731E+06  6.568440E+05 -1.397650E+06  9.856537E+04 -7.655201E+04
       139   2  2.881274E+04  3.169915E+05  9.400027E+04 -6.140280E+05  4.290667E+03 -1.161969E+05
       139   3 -5.284450E+05 -2.179649E+06 -4.329547E+05 -1.333666E+06 -9.006400E+04 -1.557047E+05
       139   4  3.073477E+04  2.342289E+05  5.494398E+04 -1.368066E+06  9.782999E+04 -1.731313E+04
       139   5  1.029317E+04  2.416478E+05  7.633172E+04 -6.162512E+05  3.563273E+03 -5.700817E+04
       139   6  6.896568E+04  2.343202E+05  1.339107E+05 -1.367603E+06 -9.080061E+04 -9.671923E+04
       139   7 -6.037872E+05 -2.330197E+06 -5.473935E+05 -1.338578E+06  9.709850E+04  4.168297E+04
       139   8 -8.224892E+03  1.663169E+05  5.867595E+04 -6.184742E+05  2.835408E+03  2.173410E+03
       139   9  6.659651E+05  2.653675E+06  7.003903E+05 -1.401651E+06 -9.154206E+04 -3.750465E+04
       139  10  6.647793E+05  2.804722E+06  6.568148E+05 -1.397644E+06  1.205143E-09 -8.526333E-09
       139  11  2.880910E+04  3.169770E+05  9.397488E+04 -6.140276E+05  1.043224E-09  5.956927E-09
       139  12 -5.284603E+05 -2.179678E+06 -4.330158E+05 -1.333678E+06 -3.501550E-10  2.849072E-09
       139  13  3.072442E+04  2.342260E+05  5.492545E+04 -1.368064E+06 -1.079709E-09 -2.126851E-10
       139  14  1.029229E+04  2.416443E+05  7.632559E+04 -6.162511E+05  4.154092E-09 -9.289841E-11
       139  15  6.895428E+04  2.343079E+05  1.338776E+05 -1.367610E+06  1.139839E-08 -1.884743E-08
       139  16 -6.037978E+05 -2.330201E+06 -5.474145E+05 -1.338582E+06 -2.315519E-09  1.413453E-08
       139  17 -8.224902E+03  1.663169E+05  5.867593E+04 -6.184742E+05 -8.803784E-09 -1.541344E-08
       139  18  6.659557E+05  2.653671E+06  7.003719E+05 -1.401654E+06 -1.856642E-09 -5.004512E-09
       139  19  6.647913E+05  2.804731E+06  6.568440E+05 -1.397650E+06 -9.856537E+04  7.655201E+04
       139  20  2.881274E+04  3.169915E+05  9.400027E+04 -6.140280E+05 -4.290667E+03  1.161969E+05
       139  21 -5.284450E+05 -2.179649E+06 -4.329547E+05 -1.333666E+06  9.006400E+04  1.557047E+05
       139  22  3.073477E+04  2.342289E+05  5.494398E+04 -1.368066E+06 -9.782999E+04  1.731313E+04
       139  23  1.029317E+04  2.416478E+05  7.633172E+04 -6.162512E+05 -3.563273E+03  5.700817E+04
       139  24  6.896568E+04  2.343202E+05  1.339107E+05 -1.367603E+06  9.080061E+04  9.671923E+04
       139  25 -6.037872E+05 -2.330197E+06 -5.473935E+05 -1.338578E+06 -9.709850E+04 -4.168297E+04
       139  26 -8.224892E+03  1.663169E+05  5.867595E+04 -6.184742E+05 -2.835408E+03 -2.173410E+03
       139  27  6.659651E+05  2.653675E+06  7.003903E+05 -1.401651E+06  9.154206E+04  3.750465E+04
       140   1 -1.259778E+06 -4.831238E+06 -1.034796E+06 -1.389888E+06 -1.912351E+05 -2.586001E+05
       140   2 -1.932604E+06 -7.395451E+06 -1.532392E+06 -5.250861E+05 -2.784007E+05 -2.315090E+05
       140   3 -2.053767E+06 -9.797783E+06 -1.906284E+06 -1.159224E+06 -1.008139E+05 -2.028729E+05
       140   4  2.746073E+03  2.729939E+05  1.654633E+05 -1.367469E+06 -1.927562E+05 -1.237798E+05
       140   5 -5.255862E+04  1.770143E+05  2.552878E+05 -6.175608E+05 -2.779198E+05 -2.618347E+05
       140   6  4.694792E+05  2.639230E+05  5.823368E+05 -1.365056E+06 -9.977437E+04 -3.982693E+05
       140   7  1.263427E+06  5.401373E+06  1.364006E+06 -1.344768E+06 -1.942605E+05  1.215216E+04
       140   8  1.823392E+06  7.802632E+06  2.039012E+06 -7.110558E+05 -2.774337E+05 -2.925162E+05
       140   9  2.985290E+06  1.041875E+07  3.063596E+06 -1.574070E+06 -9.861614E+04 -5.968242E+05
       140  10 -1.259836E+06 -4.831320E+06 -1.034992E+06 -1.389928E+06  4.695913E-09 -8.428831E-09
       140  11 -1.932702E+06 -7.395529E+06 -1.532640E+06 -5.251383E+05  9.756410E-10  5.301061E-10
       140  12 -2.053789E+06 -9.797830E+06 -1.906382E+06 -1.159240E+06 -1.041623E-09 -2.210170E-10
       140  13  2.701983E+03  2.729674E+05  1.653644E+05 -1.367489E+06 -3.473361E-09 -6.941350E-12
       140  14 -5.266006E+04  1.769199E+05  2.550135E+05 -6.176194E+05  2.721646E-09  8.131360E-12
       140  15  4.694259E+05  2.637500E+05  5.820197E+05 -1.365088E+06 -1.747715E-09 -3.957943E-09
       140  16  1.263387E+06  5.401363E+06  1.363935E+06 -1.344766E+06  5.071055E-09  1.384352E-08
       140  17  1.823286E+06  7.802520E+06  2.038708E+06 -7.111208E+05  3.053294E-10 -6.500476E-09
       140  18  2.985186E+06  1.041837E+07  3.062918E+06 -1.574117E+06 -2.261752E-09 -2.060730E-10
       140  19 -1.259778E+06 -4.831238E+06 -1.034796E+06 -1.389888E+06  1.912351E+05  2.586001E+05
       140  20 -1.932604E+06 -7.395451E+06 -1.532392E+06 -5.250861E+05  2.784007E+05  2.315090E+05
       140  21 -2.053767E+06 -9.797783E+06 -1.906284E+06 -1.159224E+06  1.008139E+05  2.028729E+05
       140  22  2.746073E+03  2.729939E+05  1.654633E+05 -1.367469E+06  1.927562E+05  1.237798E+05
       140  23 -5.255862E+04  1.770143E+05  2.552878E+05 -6.175608E+05  2.779198E+05  2.618347E+05
       140  24  4.694792E+05  2.639230E+05  5.823368E+05 -1.365056E+06  9.977437E+04  3.982693E+05
       140  25  1.263427E+06  5.401373E+06  1.364006E+06 -1.344768E+06  1.942605E+05 -1.215216E+04
       140  26  1.823392E+06  7.802632E+06  2.039012E+06 -7.110558E+05  2.774337E+05  2.925162E+05
       140  27  2.985290E+06  1.041875E+07  3.063596E+06 -1.574070E+06  9.861614E+04  5.968242E+05
       141   1 -5.772556E+05 -2.528742E+05 -1.286128E+05 -2.445183E+05 -6.218788E+04 -1.825214E+04
       141   2 -5.450952E+05 -2.004156E+05 -7.839495E+04 -2.314243E+05 -3.842237E+04  2.619480E+03
       141   3 -5.200342E+05 -1.721172E+05 -5.419148E+04 -2.188355E+05 -1.181461E+04  1.593261E+04
       141   4 -2.620061E+05 -1.098491E+05 -4.400254E+04 -1.324097E+05 -3.051385E+04 -6.361729E+03
       141   5 -2.578173E+05 -8.311148E+04 -2.113717E+04 -1.382830E+05 -2.354785E+04  8.202466E+03
       141   6 -2.573943E+05 -7.719983E+04 -1.096391E+04 -1.446636E+05 -1.374212E+04  1.520809E+04
       141   7  5.333759E+04  3.319429E+04  4.060129E+04 -2.024687E+04  1.176993E+03  5.538226E+03
       141   8  2.954565E+04  3.420555E+04  3.611720E+04 -4.510007E+04 -8.666078E+03  1.378895E+04
       141   9  5.321631E+03  1.772569E+04  3.226272E+04 -7.046153E+04 -1.567051E+04  1.448323E+04
       141  10 -5.772599E+05 -2.528756E+05 -1.286207E+05 -2.445192E+05 -2.528781E-08 -7.062458E-09
       141  11 -5.450968E+05 -2.004160E+05 -7.839774E+04 -2.314242E+05 -3.815115E-09  7.616247E-09
       141  12 -5.200344E+05 -1.721176E+05 -5.419222E+04 -2.188354E+05  3.509103E-08  2.307621E-08
       141  13 -2.620071E+05 -1.098493E+05 -4.400436E+04 -1.324099E+05 -2.026411E-09 -2.003992E-09
       141  14 -2.578179E+05 -8.311170E+04 -2.113834E+04 -1.382828E+05 -3.719242E-09 -7.203787E-09
       141  15 -2.573946E+05 -7.720013E+04 -1.096470E+04 -1.446634E+05  1.225198E-08 -9.645988E-09
       141  16  5.333758E+04  3.319426E+04  4.060123E+04 -2.024687E+04  1.742124E-08  7.490975E-09
       141  17  2.954552E+04  3.420533E+04  3.611670E+04 -4.509998E+04 -9.074666E-09 -1.056938E-09
       141  18  5.321311E+03  1.772540E+04  3.226186E+04 -7.046134E+04 -2.758283E-08 -6.109425E-09
       141  19 -5.772556E+05 -2.528742E+05 -1.286128E+05 -2.445183E+05  6.218788E+04  1.825214E+04
       141  20 -5.450952E+05 -2.004156E+05 -7.839495E+04 -2.314243E+05  3.842237E+04 -2.619480E+03
       141  21 -5.200342E+05 -1.721172E+05 -5.419148E+04 -2.188355E+05  1.181461E+04 -1.593261E+04
       141  22 -2.620061E+05 -1.098491E+05 -4.400254E+04 -1.324097E+05  3.051385E+04  6.361729E+03
       141  23 -2.578173E+05 -8.311148E+04 -2.113717E+04 -1.382830E+05  2.354785E+04 -8.202466E+03
       141  24 -2.573943E+05 -7.719983E+04 -1.096391E+04 -1.446636E+05  1.374212E+04 -1.520809E+04
       141  25  5.333759E+04  3.319429E+04  4.060129E+04 -2.024687E+04 -1.176993E+03 -5.538226E+03
       141  26  2.954565E+04  3.420555E+04  3.611720E+04 -4.510007E+04  8.666078E+03 -1.378895E+04
       141  27  5.321631E+03  1.772569E+04  3.226272E+04 -7.046153E+04  1.567051E+04 -1.448323E+04
       142   1 -4.957701E+05 -1.637444E+05 -4.650976E+04 -2.136054E+05 -1.027354E+04  1.561229E+04
       142   2 -4.629557E+05 -1.459934E+05 -3.509787E+04 -2.013298E+05 -5.673161E+03  1.583651E+04
       142   3 -4.269924E+05 -1.344687E+05 -2.723079E+04 -1.937492E+05 -7.379397E+02  1.516868E+04
       142   4 -2.561025E+05 -7.624483E+04 -8.114117E+03 -1.447001E+05 -1.221112E+04  1.488413E+04
       142   5 -2.576857E+05 -7.201282E+04 -4.201883E+03 -1.428451E+05 -9.593131E+03  1.436454E+04
       142   6 -2.557276E+05 -7.361385E+04 -2.262369E+03 -1.456857E+05 -6.640562E+03  1.295295E+04
       142   7 -1.637627E+04  1.126008E+04  3.027957E+04 -7.577040E+04 -1.414946E+04  1.415568E+04
       142   8 -5.236993E+04  1.972551E+03  2.669366E+04 -8.434204E+04 -1.351447E+04  1.289204E+04
       142   9 -8.442851E+04 -1.275500E+04  2.270657E+04 -9.760903E+04 -1.254497E+04  1.073656E+04
       142  10 -4.957703E+05 -1.637447E+05 -4.651042E+04 -2.136053E+05 -2.162271E-08 -2.135749E-09
       142  11 -4.629558E+05 -1.459937E+05 -3.509840E+04 -2.013297E+05 -1.396884E-09 -2.584337E-10
       142  12 -4.269925E+05 -1.344689E+05 -2.723123E+04 -1.937492E+05  2.427230E-08  9.104264E-09
       142  13 -2.561028E+05 -7.624511E+04 -8.114814E+03 -1.447000E+05  1.665839E-08 -9.274494E-09
       142  14 -2.576858E+05 -7.201307E+04 -4.202443E+03 -1.428450E+05  5.505361E-09 -8.127561E-09
       142  15 -2.557277E+05 -7.361404E+04 -2.262768E+03 -1.456856E+05 -2.815850E-09 -3.548420E-09
       142  16 -1.637654E+04  1.125981E+04  3.027882E+04 -7.577024E+04  3.264206E-08  1.774622E-08
       142  17 -5.237017E+04  1.972323E+03  2.669301E+04 -8.434190E+04 -2.779558E-09  3.525253E-09
       142  18 -8.442871E+04 -1.275516E+04  2.270606E+04 -9.760892E+04 -2.796903E-08 -1.136807E-08
       142  19 -4.957701E+05 -1.637444E+05 -4.650976E+04 -2.136054E+05  1.027354E+04 -1.561229E+04
       142  20 -4.629557E+05 -1.459934E+05 -3.509787E+04 -2.013298E+05  5.673161E+03 -1.583651E+04
       142  21 -4.269924E+05 -1.344687E+05 -2.723079E+04 -1.937492E+05  7.379397E+02 -1.516868E+04
       142  22 -2.561025E+05 -7.624483E+04 -8.114117E+03 -1.447001E+05  1.221112E+04 -1.488413E+04
       142  23 -2.576857E+05 -7.201282E+04 -4.201883E+03 -1.428451E+05  9.593131E+03 -1.436454E+04
       142  24 -2.557276E+05 -7.361385E+04 -2.262369E+03 -1.456857E+05  6.640562E+03 -1.295295E+04
       142  25 -1.637627E+04  1.126008E+04  3.027957E+04 -7.577040E+04  1.414946E+04 -1.415568E+04
       142  26 -5.236993E+04  1.972551E+03  2.669366E+04 -8.434204E+04  1.351447E+04 -1.289204E+04
       142  27 -8.442851E+04 -1.275500E+04  2.270657E+04 -9.760903E+04  1.254497E+04 -1.073656E+04
       143   1 -4.050312E+05 -1.267216E+05 -2.325610E+04 -1.877434E+05  1.568731E+02  1.370349E+04
       143   2 -3.723541E+05 -1.119346E+05 -1.731975E+04 -1.754391E+05  1.863420E+03  1.125421E+04
       143   3 -3.354172E+05 -1.017227E+05 -1.193877E+04 -1.681663E+05  3.609272E+03  8.699583E+03
       143   4 -2.555879E+05 -7.355202E+04 -1.688033E+03 -1.456739E+05 -5.747752E+03  1.148722E+04
       143   5 -2.577266E+05 -7.120176E+04 -9.109831E+02 -1.431895E+05 -4.275379E+03  8.950316E+03
       143   6 -2.555606E+05 -7.338033E+04 -5.037698E+02 -1.457369E+05 -2.763747E+03  6.308078E+03
       143   7 -1.061202E+05 -2.037996E+04  1.988000E+04 -1.035947E+05 -1.165387E+04  9.270379E+03
       143   8 -1.430856E+05 -3.046778E+04  1.549764E+04 -1.109344E+05 -1.041533E+04  6.645993E+03
       143   9 -1.756981E+05 -4.503760E+04  1.093107E+04 -1.233051E+05 -9.137546E+03  3.916282E+03
       143  10 -4.050313E+05 -1.267218E+05 -2.325645E+04 -1.877435E+05  3.273365E-09  3.818954E-09
       143  11 -3.723541E+05 -1.119347E+05 -1.732000E+04 -1.754391E+05  3.230323E-08  1.584933E-08
       143  12 -3.354173E+05 -1.017228E+05 -1.193894E+04 -1.681663E+05  7.159181E-08  2.394061E-08
       143  13 -2.555880E+05 -7.355217E+04 -1.688343E+03 -1.456738E+05 -1.179671E-09  1.229443E-09
       143  14 -2.577267E+05 -7.120185E+04 -9.111679E+02 -1.431894E+05  1.952388E-09  1.011738E-08
       143  15 -2.555606E+05 -7.338038E+04 -5.038590E+02 -1.457369E+05  1.432219E-08  1.968776E-08
       143  16 -1.061204E+05 -2.038009E+04  1.987958E+04 -1.035946E+05 -4.985700E-09 -5.680418E-09
       143  17 -1.430857E+05 -3.046786E+04  1.549736E+04 -1.109343E+05 -3.087800E-08 -1.638513E-08
       143  18 -1.756982E+05 -4.503764E+04  1.093088E+04 -1.233050E+05 -4.760870E-08 -1.985418E-08
       143  19 -4.050312E+05 -1.267216E+05 -2.325610E+04 -1.877434E+05 -1.568731E+02 -1.370349E+04
       143  20 -3.723541E+05 -1.119346E+05 -1.731975E+04 -1.754391E+05 -1.863420E+03 -1.125421E+04
       143  21 -3.354172E+05 -1.017227E+05 -1.193877E+04 -1.681663E+05 -3.609272E+03 -8.699583E+03
       143  22 -2.555879E+05 -7.355202E+04 -1.688033E+03 -1.456739E+05  5.747752E+03 -1.148722E+04
       143  23 -2.577266E+05 -7.120176E+04 -9.109831E+02 -1.431895E+05  4.275379E+03 -8.950316E+03
       143  24 -2.555606E+05 -7.338033E+04 -5.037698E+02 -1.457369E+05  2.763747E+03 -6.308078E+03
       143  25 -1.061202E+05 -2.037996E+04  1.988000E+04 -1.035947E+05  1.165387E+04 -9.270379E+03
       143  26 -1.430856E+05 -3.046778E+04  1.549764E+04 -1.109344E+05  1.041533E+04 -6.645993E+03
       143  27 -1.756981E+05 -4.503760E+04  1.093107E+04 -1.233051E+05  9.137546E+03 -3.916282E+03
       144   1 -3.137010E+05 -9.400471E+04 -8.583052E+03 -1.620823E+05  4.309167E+03  7.054665E+03
       144   2 -2.810691E+05 -7.943846E+04 -3.537694E+03 -1.497547E+05  5.521491E+03  4.233629E+03
       144   3 -2.440445E+05 -6.929766E+04  1.404935E+03 -1.424792E+05  6.737809E+03  1.401790E+03
       144   4 -2.555437E+05 -7.337985E+04 -3.816126E+02 -1.457327E+05 -2.064365E+03  4.663063E+03
       144   5 -2.577407E+05 -7.116848E+04 -2.216883E+02 -1.432064E+05 -8.762763E+02  1.832974E+03
       144   6 -2.555426E+05 -7.337828E+04 -1.457308E+02 -1.457329E+05  3.157953E+02 -1.007915E+03
       144   7 -1.973818E+05 -5.275429E+04  7.820203E+03 -1.293815E+05 -8.438609E+03  2.271195E+03
       144   8 -2.344116E+05 -6.289834E+04  3.094535E+03 -1.366578E+05 -7.274340E+03 -5.677915E+02
       144   9 -2.670404E+05 -7.745885E+04 -1.696221E+03 -1.489865E+05 -6.106097E+03 -3.417575E+03
       144  10 -3.137011E+05 -9.400477E+04 -8.583181E+03 -1.620823E+05 -3.802733E-08 -2.043517E-08
       144  11 -2.810691E+05 -7.943849E+04 -3.537785E+03 -1.497547E+05 -3.477155E-08 -2.009419E-08
       144  12 -2.440446E+05 -6.929767E+04  1.404845E+03 -1.424792E+05 -1.045165E-08 -7.251134E-09
       144  13 -2.555437E+05 -7.337988E+04 -3.816615E+02 -1.457327E+05  5.902842E-09  1.758981E-08
       144  14 -2.577407E+05 -7.116848E+04 -2.216960E+02 -1.432064E+05 -6.474663E-09  5.175417E-09
       144  15 -2.555426E+05 -7.337828E+04 -1.457329E+02 -1.457329E+05 -4.237345E-09  1.341917E-09
       144  16 -1.973819E+05 -5.275431E+04  7.820059E+03 -1.293815E+05  5.420989E-08  2.088774E-08
       144  17 -2.344116E+05 -6.289836E+04  3.094435E+03 -1.366578E+05  2.583134E-08  1.179067E-08
       144  18 -2.670404E+05 -7.745888E+04 -1.696313E+03 -1.489866E+05  1.042692E-08  4.756219E-09
       144  19 -3.137010E+05 -9.400471E+04 -8.583052E+03 -1.620823E+05 -4.309167E+03 -7.054665E+03
       144  20 -2.810691E+05 -7.943846E+04 -3.537694E+03 -1.497547E+05 -5.521491E+03 -4.233629E+03
       144  21 -2.440445E+05 -6.929766E+04  1.404935E+03 -1.424792E+05 -6.737809E+03 -1.401790E+03
       144  22 -2.555437E+05 -7.337985E+04 -3.816126E+02 -1.457327E+05  2.064365E+03 -4.663063E+03
       144  23 -2.577407E+05 -7.116848E+04 -2.216883E+02 -1.432064E+05  8.762763E+02 -1.832974E+03
       144  24 -2.555426E+05 -7.337828E+04 -1.457308E+02 -1.457329E+05 -3.157953E+02  1.007915E+03
       144  25 -1.973818E+05 -5.275429E+04  7.820203E+03 -1.293815E+05  8.438609E+03 -2.271195E+03
       144  26 -2.344116E+05 -6.289834E+04  3.094535E+03 -1.366578E+05  7.274340E+03  5.677915E+02
       144  27 -2.670404E+05 -7.745885E+04 -1.696221E+03 -1.489865E+05  6.106097E+03  3.417575E+03
       145   1 -2.223589E+05 -6.157639E+04  4.637430E+03 -1.363870E+05  7.391732E+03 -2.712179E+02
       145   2 -1.897381E+05 -4.701910E+04  9.505737E+03 -1.240549E+05  8.508791E+03 -3.138980E+03
       145   3 -1.527083E+05 -3.687189E+04  1.434810E+04 -1.167735E+05  9.621142E+03 -5.993944E+03
       145   4 -2.555418E+05 -7.337933E+04 -1.291221E+02 -1.457319E+05  9.696752E+02 -2.680964E+03
       145   5 -2.577441E+05 -7.117515E+04 -1.284114E+02 -1.432052E+05  2.114960E+03 -5.538283E+03
       145   6 -2.555440E+05 -7.338667E+04 -1.760214E+02 -1.457297E+05  3.255544E+03 -8.382824E+03
       145   7 -2.887229E+05 -8.518194E+04 -4.895386E+03 -1.550762E+05 -5.451939E+03 -5.090543E+03
       145   8 -3.257449E+05 -9.533065E+04 -9.762409E+03 -1.623535E+05 -4.278134E+03 -7.937309E+03
       145   9 -3.583695E+05 -1.099007E+05 -1.470040E+04 -1.746817E+05 -3.109026E+03 -1.077132E+04
       145  10 -2.223589E+05 -6.157640E+04  4.637328E+03 -1.363870E+05  6.767933E-09  7.118434E-10
       145  11 -1.897382E+05 -4.701913E+04  9.505582E+03 -1.240548E+05 -8.071663E-11 -2.303029E-09
       145  12 -1.527084E+05 -3.687195E+04  1.434786E+04 -1.167735E+05 -2.790459E-09 -3.512157E-09
       145  13 -2.555418E+05 -7.337933E+04 -1.291374E+02 -1.457319E+05 -1.076179E-09 -1.079871E-10
       145  14 -2.577441E+05 -7.117519E+04 -1.284774E+02 -1.432052E+05 -6.198053E-09 -1.819026E-09
       145  15 -2.555441E+05 -7.338675E+04 -1.761734E+02 -1.457297E+05 -8.829288E-10 -2.508229E-09
       145  16 -2.887229E+05 -8.518198E+04 -4.895490E+03 -1.550762E+05 -1.713679E-09 -1.171250E-09
       145  17 -3.257449E+05 -9.533073E+04 -9.762562E+03 -1.623535E+05 -2.314526E-09 -2.028658E-09
       145  18 -3.583695E+05 -1.099009E+05 -1.470063E+04 -1.746817E+05  2.137758E-09 -8.910351E-10
       145  19 -2.223589E+05 -6.157639E+04  4.637430E+03 -1.363870E+05 -7.391732E+03  2.712179E+02
       145  20 -1.897381E+05 -4.701910E+04  9.505737E+03 -1.240549E+05 -8.508791E+03  3.138980E+03
       145  21 -1.527083E+05 -3.687189E+04  1.434810E+04 -1.167735E+05 -9.621142E+03  5.993944E+03
       145  22 -2.555418E+05 -7.337933E+04 -1.291221E+02 -1.457319E+05 -9.696752E+02  2.680964E+03
       145  23 -2.577441E+05 -7.117515E+04 -1.284114E+02 -1.432052E+05 -2.114960E+03  5.538283E+03
       145  24 -2.555440E+05 -7.338667E+04 -1.760214E+02 -1.457297E+05 -3.255544E+03  8.382824E+03
       145  25 -2.887229E+05 -8.518194E+04 -4.895386E+03 -1.550762E+05  5.451939E+03  5.090543E+03
       145  26 -3.257449E+05 -9.533065E+04 -9.762409E+03 -1.623535E+05  4.278134E+03  7.937309E+03
       145  27 -3.583695E+05 -1.099007E+05 -1.470040E+04 -1.746817E+05  3.109026E+03  1.077132E+04
       146   1 -1.310250E+05 -2.914739E+04  1.753938E+04 -1.106838E+05  1.027965E+04 -7.652048E+03
       146   2 -9.843099E+04 -1.457858E+04  2.237082E+04 -9.834460E+04  1.125611E+04 -1.048225E+04
       146   3 -6.142032E+04 -4.411909E+03  2.725868E+04 -9.104101E+04  1.218809E+04 -1.319335E+04
       146   4 -2.555529E+05 -7.338758E+04 -2.203438E+02 -1.457298E+05  3.914665E+03 -1.004086E+04
       146   5 -2.577423E+05 -7.119897E+04 -3.784686E+02 -1.431982E+05  5.155801E+03 -1.277210E+04
       146   6 -2.555686E+05 -7.346518E+04 -6.899563E+02 -1.457028E+05  6.352466E+03 -1.538419E+04
       146   7 -3.800636E+05 -1.176260E+05 -1.797997E+04 -1.807691E+05 -2.448977E+03 -1.242917E+04
       146   8 -4.170246E+05 -1.278161E+05 -2.312745E+04 -1.880406E+05 -9.428151E+02 -1.506131E+04
       146   9 -4.496731E+05 -1.425133E+05 -2.863799E+04 -2.003477E+05  5.188364E+02 -1.757429E+04
       146  10 -1.310252E+05 -2.914748E+04  1.753907E+04 -1.106838E+05  3.956973E-09 -9.039983E-10
       146  11 -9.843115E+04 -1.457873E+04  2.237038E+04 -9.834450E+04 -3.916420E-09 -4.135031E-09
       146  12 -6.142052E+04 -4.412136E+03  2.725807E+04 -9.104088E+04 -7.959361E-09 -2.883035E-09
       146  13 -2.555529E+05 -7.338769E+04 -2.205620E+02 -1.457298E+05 -1.560617E-09 -2.378659E-09
       146  14 -2.577423E+05 -7.119915E+04 -3.788250E+02 -1.431981E+05 -6.406362E-09 -3.836142E-09
       146  15 -2.555687E+05 -7.346544E+04 -6.904768E+02 -1.457027E+05 -6.649093E-09 -2.004813E-09
       146  16 -3.800637E+05 -1.176262E+05 -1.798027E+04 -1.807691E+05 -7.991288E-09 -4.293953E-09
       146  17 -4.170247E+05 -1.278164E+05 -2.312787E+04 -1.880406E+05 -6.543759E-09 -4.881999E-09
       146  18 -4.496732E+05 -1.425136E+05 -2.863857E+04 -2.003477E+05 -5.438749E-10 -1.197321E-09
       146  19 -1.310250E+05 -2.914739E+04  1.753938E+04 -1.106838E+05 -1.027965E+04  7.652048E+03
       146  20 -9.843099E+04 -1.457858E+04  2.237082E+04 -9.834460E+04 -1.125611E+04  1.048225E+04
       146  21 -6.142032E+04 -4.411909E+03  2.725868E+04 -9.104101E+04 -1.218809E+04  1.319335E+04
       146  22 -2.555529E+05 -7.338758E+04 -2.203438E+02 -1.457298E+05 -3.914665E+03  1.004086E+04
       146  23 -2.577423E+05 -7.119897E+04 -3.784686E+02 -1.431982E+05 -5.155801E+03  1.277210E+04
       146  24 -2.555686E+05 -7.346518E+04 -6.899563E+02 -1.457028E+05 -6.352466E+03  1.538419E+04
       146  25 -3.800636E+05 -1.176260E+05 -1.797997E+04 -1.807691E+05  2.448977E+03  1.242917E+04
       146  26 -4.170246E+05 -1.278161E+05 -2.312745E+04 -1.880406E+05  9.428151E+02  1.506131E+04
       146  27 -4.496731E+05 -1.425133E+05 -2.863799E+04 -2.003477E+05 -5.188364E+02  1.757429E+04
       147   1 -3.970645E+04  3.316349E+03  3.045189E+04 -8.497502E+04  1.289571E+04 -1.471217E+04
       147   2 -7.427232E+03  1.801285E+04  3.573254E+04 -7.237107E+04  1.231221E+04 -1.734792E+04
       147   3  2.931719E+04  2.820969E+04  4.198950E+04 -6.462193E+04  1.135051E+04 -1.897591E+04
       147   4 -2.556326E+05 -7.348353E+04 -9.210993E+02 -1.456968E+05  7.062391E+03 -1.690242E+04
       147   5 -2.577215E+05 -7.154939E+04 -1.706720E+03 -1.430684E+05  8.720515E+03 -1.869721E+04
       147   6 -2.557913E+05 -7.455977E+04 -3.292536E+03 -1.452959E+05  1.000047E+04 -1.948394E+04
       147   7 -4.715108E+05 -1.502794E+05 -3.229513E+04 -2.063995E+05  1.231137E+03 -1.909189E+04
       147   8 -5.079496E+05 -1.611054E+05 -3.914713E+04 -2.137394E+05  5.130323E+03 -2.004593E+04
       147   9 -5.408125E+05 -1.773206E+05 -4.857612E+04 -2.259350E+05  8.651082E+03 -1.999172E+04
       147  10 -3.970669E+04  3.316072E+03  3.045117E+04 -8.497487E+04  2.319653E-08  7.858512E-09
       147  11 -7.427476E+03  1.801248E+04  3.573169E+04 -7.237090E+04  1.833491E-09 -6.763366E-09
       147  12  2.931696E+04  2.820927E+04  4.198858E+04 -6.462175E+04 -3.396120E-08 -2.207212E-08
       147  13 -2.556327E+05 -7.348385E+04 -9.217298E+02 -1.456967E+05 -4.214304E-09  1.538601E-09
       147  14 -2.577217E+05 -7.154978E+04 -1.707520E+03 -1.430683E+05 -5.017224E-09  6.291928E-09
       147  15 -2.557915E+05 -7.456021E+04 -3.293437E+03 -1.452958E+05 -1.469720E-08  6.706047E-09
       147  16 -4.715109E+05 -1.502798E+05 -3.229582E+04 -2.063994E+05 -2.263375E-08 -9.370026E-09
       147  17 -5.079497E+05 -1.611059E+05 -3.914794E+04 -2.137393E+05  2.503286E-09 -8.235053E-10
       147  18 -5.408127E+05 -1.773210E+05 -4.857701E+04 -2.259349E+05  2.321404E-08  1.074744E-09
       147  19 -3.970645E+04  3.316349E+03  3.045189E+04 -8.497502E+04 -1.289571E+04  1.471217E+04
       147  20 -7.427232E+03  1.801285E+04  3.573254E+04 -7.237107E+04 -1.231221E+04  1.734792E+04
       147  21  2.931719E+04  2.820969E+04  4.198950E+04 -6.462193E+04 -1.135051E+04  1.897591E+04
       147  22 -2.556326E+05 -7.348353E+04 -9.210993E+02 -1.456968E+05 -7.062391E+03  1.690242E+04
       147  23 -2.577215E+05 -7.154939E+04 -1.706720E+03 -1.430684E+05 -8.720515E+03  1.869721E+04
       147  24 -2.557913E+05 -7.455977E+04 -3.292536E+03 -1.452959E+05 -1.000047E+04  1.948394E+04
       147  25 -4.715108E+05 -1.502794E+05 -3.229513E+04 -2.063995E+05 -1.231137E+03  1.909189E+04
       147  26 -5.079496E+05 -1.611054E+05 -3.914713E+04 -2.137394E+05 -5.130323E+03  2.004593E+04
       147  27 -5.408125E+05 -1.773206E+05 -4.857612E+04 -2.259350E+05 -8.651082E+03  1.999172E+04
       148   1  5.132494E+04  3.581724E+04  4.587667E+04 -5.873513E+04  1.209136E+04 -1.946260E+04
       148   2  7.977991E+04  5.179782E+04  5.697215E+04 -4.205682E+04 -3.861691E+03 -2.126654E+04
       148   3  1.127624E+05  6.081910E+04  7.797397E+04 -2.819499E+04 -2.302424E+04 -1.453236E+04
       148   4 -2.563822E+05 -7.488319E+04 -4.447774E+03 -1.452051E+05  1.075327E+04 -1.996629E+04
       148   5 -2.577034E+05 -7.614229E+04 -8.575297E+03 -1.413131E+05  1.379905E+04 -1.463555E+04
       148   6 -2.582631E+05 -8.812642E+04 -1.785092E+04 -1.402386E+05  1.363573E+04 -7.637408E+02
       148   7 -5.639872E+05 -1.855736E+05 -5.477411E+04 -2.316347E+05  9.415884E+03 -2.046972E+04
       148   8 -5.950608E+05 -2.040666E+05 -7.412459E+04 -2.405164E+05  3.144919E+04 -8.008910E+03
       148   9 -6.291375E+05 -2.370508E+05 -1.136778E+05 -2.522147E+05  5.027048E+04  1.299389E+04
       148  10  5.132468E+04  3.581680E+04  4.587569E+04 -5.873494E+04  2.742893E-08  2.282921E-09
       148  11  7.977977E+04  5.179733E+04  5.697128E+04 -4.205689E+04  4.348740E-09 -9.397469E-10
       148  12  1.127617E+05  6.081873E+04  7.797257E+04 -2.819526E+04 -2.212775E-08 -9.574037E-09
       148  13 -2.563824E+05 -7.488365E+04 -4.448740E+03 -1.452050E+05 -1.322627E-08  5.776265E-09
       148  14 -2.577037E+05 -7.614257E+04 -8.576057E+03 -1.413130E+05 -3.018544E-09  4.717435E-09
       148  15 -2.582633E+05 -8.812647E+04 -1.785127E+04 -1.402386E+05  1.439530E-09  1.800386E-09
       148  16 -5.639874E+05 -1.855741E+05 -5.477507E+04 -2.316345E+05 -3.645998E-08 -2.392487E-08
       148  17 -5.950619E+05 -2.040670E+05 -7.412657E+04 -2.405162E+05 -3.116394E-09 -7.493121E-09
       148  18 -6.291403E+05 -2.370517E+05 -1.136829E+05 -2.522153E+05  2.548857E-08  7.474935E-09
       148  19  5.132494E+04  3.581724E+04  4.587667E+04 -5.873513E+04 -1.209136E+04  1.946260E+04
       148  20  7.977991E+04  5.179782E+04  5.697215E+04 -4.205682E+04  3.861691E+03  2.126654E+04
       148  21  1.127624E+05  6.081910E+04  7.797397E+04 -2.819499E+04  2.302424E+04  1.453236E+04
       148  22 -2.563822E+05 -7.488319E+04 -4.447774E+03 -1.452051E+05 -1.075327E+04  1.996629E+04
       148  23 -2.577034E+05 -7.614229E+04 -8.575297E+03 -1.413131E+05 -1.379905E+04  1.463555E+04
       148  24 -2.582631E+05 -8.812642E+04 -1.785092E+04 -1.402386E+05 -1.363573E+04  7.637408E+02
       148  25 -5.639872E+05 -1.855736E+05 -5.477411E+04 -2.316347E+05 -9.415884E+03  2.046972E+04
       148  26 -5.950608E+05 -2.040666E+05 -7.412459E+04 -2.405164E+05 -3.144919E+04  8.008910E+03
       148  27 -6.291375E+05 -2.370508E+05 -1.136778E+05 -2.522147E+05 -5.027048E+04 -1.299389E+04
       149   1 -7.530189E+04 -7.840957E+03 -2.882247E+04 -2.006807E+04 -6.286816E+04 -3.385302E+03
       149   2 -8.122932E+04  7.654995E+04  2.001310E+04 -4.700410E+03 -4.318413E+04 -1.031171E+04
       149   3 -1.128876E+05  6.811737E+04  3.284113E+04  2.176200E+04 -2.350622E+04 -1.015691E+04
       149   4 -3.706716E+05 -8.138169E+04 -1.013146E+05  9.948947E+03 -6.938326E+04 -3.392888E+03
       149   5 -3.574084E+05  8.342860E+03 -4.486990E+04  4.369265E+03 -4.529168E+04 -1.031437E+04
       149   6 -3.706548E+05  4.454433E+03 -2.750675E+04  9.885035E+03 -2.120547E+04 -1.015457E+04
       149   7 -6.659598E+05 -1.549255E+05 -1.738124E+05  3.995164E+04 -7.589526E+04 -3.401107E+03
       149   8 -6.335170E+05 -5.986935E+04 -1.097581E+05  1.343487E+04 -4.739830E+04 -1.031709E+04
       149   9 -6.283606E+05 -5.921270E+04 -8.785906E+04 -1.986976E+03 -1.890566E+04 -1.015232E+04
       149  10 -7.530614E+04 -7.842031E+03 -2.882992E+04 -2.006824E+04  1.005066E-09  4.695727E-10
       149  11 -8.123136E+04  7.654934E+04  2.000940E+04 -4.700769E+03  2.887650E-09  2.461012E-10
       149  12 -1.128882E+05  6.811711E+04  3.283989E+04  2.176180E+04  1.243657E-09 -1.450927E-09
       149  13 -3.706768E+05 -8.138300E+04 -1.013236E+05  9.948757E+03  9.517297E-10  1.268928E-09
       149  14 -3.574106E+05  8.342195E+03 -4.487396E+04  4.368889E+03 -3.442650E-09  9.775593E-10
       149  15 -3.706554E+05  4.454201E+03 -2.750779E+04  9.884862E+03 -2.495520E-09  5.968376E-10
       149  16 -6.659660E+05 -1.549270E+05 -1.738233E+05  3.995143E+04  4.997309E-11  6.049089E-10
       149  17 -6.335194E+05 -5.987007E+04 -1.097625E+05  1.343447E+04  1.183633E-09 -1.258090E-09
       149  18 -6.283610E+05 -5.921291E+04 -8.785992E+04 -1.987130E+03 -7.808692E-10 -1.424883E-09
       149  19 -7.530189E+04 -7.840957E+03 -2.882247E+04 -2.006807E+04  6.286816E+04  3.385302E+03
       149  20 -8.122932E+04  7.654995E+04  2.001310E+04 -4.700410E+03  4.318413E+04  1.031171E+04
       149  21 -1.128876E+05  6.811737E+04  3.284113E+04  2.176200E+04  2.350622E+04  1.015691E+04
       149  22 -3.706716E+05 -8.138169E+04 -1.013146E+05  9.948947E+03  6.938326E+04  3.392888E+03
       149  23 -3.574084E+05  8.342860E+03 -4.486990E+04  4.369265E+03  4.529168E+04  1.031437E+04
       149  24 -3.706548E+05  4.454433E+03 -2.750675E+04  9.885035E+03  2.120547E+04  1.015457E+04
       149  25 -6.659598E+05 -1.549255E+05 -1.738124E+05  3.995164E+04  7.589526E+04  3.401107E+03
       149  26 -6.335170E+05 -5.986935E+04 -1.097581E+05  1.343487E+04  4.739830E+04  1.031709E+04
       149  27 -6.283606E+05 -5.921270E+04 -8.785906E+04 -1.986976E+03  1.890566E+04  1.015232E+04
       150   1 -1.280739E+05  5.151803E+04  3.351750E+04  7.886786E+03 -1.718604E+04 -8.738147E+03
       150   2 -1.456469E+05  5.471516E+04  3.962725E+04  3.868583E+03 -1.154531E+04 -8.321207E+03
       150   3 -1.660119E+05  4.966832E+04  4.000420E+04  1.129754E+04 -5.905364E+03 -7.491766E+03
       150   4 -3.653951E+05 -7.113929E+03 -2.228512E+04  9.988427E+03 -1.705375E+04 -8.738301E+03
       150   5 -3.639742E+05  7.948284E+02 -1.159430E+04  4.260674E+03 -1.115771E+04 -8.320982E+03
       150   6 -3.653909E+05  4.136443E+02 -6.815171E+03  9.980357E+03 -5.262276E+03 -7.491127E+03
       150   7 -6.026643E+05 -6.574989E+04 -7.809160E+04  1.208925E+04 -1.692152E+04 -8.738455E+03
       150   8 -5.822576E+05 -5.312889E+04 -6.281911E+04  4.652614E+03 -1.077024E+04 -8.320757E+03
       150   9 -5.647333E+05 -4.884386E+04 -5.363727E+04  8.663592E+03 -4.619394E+03 -7.490491E+03
       150  10 -1.280743E+05  5.151787E+04  3.351680E+04  7.886665E+03 -7.417858E-10 -2.567503E-09
       150  11 -1.456471E+05  5.471505E+04  3.962687E+04  3.868506E+03 -4.301935E-10  1.230018E-09
       150  12 -1.660120E+05  4.966825E+04  4.000403E+04  1.129750E+04 -1.893819E-09  1.482587E-09
       150  13 -3.653954E+05 -7.114089E+03 -2.228581E+04  9.988307E+03  1.078463E-09 -1.810216E-09
       150  14 -3.639744E+05  7.947207E+02 -1.159466E+04  4.260600E+03 -2.966786E-10 -7.239815E-10
       150  15 -3.653910E+05  4.135767E+02 -6.815329E+03  9.980325E+03 -1.272016E-09 -1.110922E-09
       150  16 -6.026646E+05 -6.575005E+04 -7.809228E+04  1.208913E+04  2.854745E-09 -1.708896E-10
       150  17 -5.822577E+05 -5.312900E+04 -6.281945E+04  4.652542E+03  8.413053E-10 -1.109307E-09
       150  18 -5.647334E+05 -4.884392E+04 -5.363741E+04  8.663564E+03  3.649266E-09  4.562085E-10
       150  19 -1.280739E+05  5.151803E+04  3.351750E+04  7.886786E+03  1.718604E+04  8.738147E+03
       150  20 -1.456469E+05  5.471516E+04  3.962725E+04  3.868583E+03  1.154531E+04  8.321207E+03
       150  21 -1.660119E+05  4.966832E+04  4.000420E+04  1.129754E+04  5.905364E+03  7.491766E+03
       150  22 -3.653951E+05 -7.113929E+03 -2.228512E+04  9.988427E+03  1.705375E+04  8.738301E+03
       150  23 -3.639742E+05  7.948284E+02 -1.159430E+04  4.260674E+03  1.115771E+04  8.320982E+03
       150  24 -3.653909E+05  4.136443E+02 -6.815171E+03  9.980357E+03  5.262276E+03  7.491127E+03
       150  25 -6.026643E+05 -6.574989E+04 -7.809160E+04  1.208925E+04  1.692152E+04  8.738455E+03
       150  26 -5.822576E+05 -5.312889E+04 -6.281911E+04  4.652614E+03  1.077024E+04  8.320757E+03
       150  27 -5.647333E+05 -4.884386E+04 -5.363727E+04  8.663592E+03  4.619394E+03  7.490491E+03
       151   1 -1.861130E+05  4.354861E+04  3.658404E+04  1.008071E+04 -4.716027E+03 -6.932643E+03
       151   2 -2.050917E+05  3.949861E+04  3.447549E+04  4.393824E+03 -3.258544E+03 -6.086104E+03
       151   3 -2.244555E+05  3.474752E+04  3.123812E+04  1.028585E+04 -1.801385E+03 -5.213030E+03
       151   4 -3.648449E+05 -5.848531E+02 -5.298431E+03  1.001265E+04 -4.196552E+03 -6.932113E+03
       151   5 -3.646498E+05  9.057826E+01 -2.955817E+03  4.222672E+03 -2.722905E+03 -6.085483E+03
       151   6 -3.648430E+05  6.199409E+01 -1.753476E+03  1.001179E+04 -1.249536E+03 -5.212315E+03
       151   7 -5.435472E+05 -4.472058E+04 -4.718308E+04  9.944600E+03 -3.677226E+03 -6.931582E+03
       151   8 -5.241843E+05 -3.931927E+04 -4.038886E+04  4.051556E+03 -2.187402E+03 -6.084863E+03
       151   9 -5.052123E+05 -3.462494E+04 -3.474643E+04  9.737790E+03 -6.978119E+02 -5.211600E+03
       151  10 -1.861131E+05  4.354855E+04  3.658391E+04  1.008068E+04  2.118911E-10  2.142593E-09
       151  11 -2.050917E+05  3.949857E+04  3.447540E+04  4.393808E+03  8.172514E-10  1.473294E-09
       151  12 -2.244555E+05  3.474749E+04  3.123807E+04  1.028584E+04  2.112654E-09 -5.107932E-10
       151  13 -3.648449E+05 -5.849094E+02 -5.298555E+03  1.001263E+04  2.673736E-10 -1.640292E-09
       151  14 -3.646498E+05  9.053650E+01 -2.955901E+03  4.222658E+03 -3.634078E-10  1.342897E-09
       151  15 -3.648430E+05  6.196450E+01 -1.753530E+03  1.001179E+04  1.341412E-09  3.185626E-09
       151  16 -5.435473E+05 -4.472064E+04 -4.718320E+04  9.944579E+03  1.533526E-09  1.685909E-09
       151  17 -5.241843E+05 -3.931931E+04 -4.038894E+04  4.051545E+03 -1.473690E-09  2.164494E-09
       151  18 -5.052124E+05 -3.462497E+04 -3.474648E+04  9.737787E+03 -2.410368E-11  1.939341E-09
       151  19 -1.861130E+05  4.354861E+04  3.658404E+04  1.008071E+04  4.716027E+03  6.932643E+03
       151  20 -2.050917E+05  3.949861E+04  3.447549E+04  4.393824E+03  3.258544E+03  6.086104E+03
       151  21 -2.244555E+05  3.474752E+04  3.123812E+04  1.028585E+04  1.801385E+03  5.213030E+03
       151  22 -3.648449E+05 -5.848531E+02 -5.298431E+03  1.001265E+04  4.196552E+03  6.932113E+03
       151  23 -3.646498E+05  9.057826E+01 -2.955817E+03  4.222672E+03  2.722905E+03  6.085483E+03
       151  24 -3.648430E+05  6.199409E+01 -1.753476E+03  1.001179E+04  1.249536E+03  5.212315E+03
       151  25 -5.435472E+05 -4.472058E+04 -4.718308E+04  9.944600E+03  3.677226E+03  6.931582E+03
       151  26 -5.241843E+05 -3.931927E+04 -4.038886E+04  4.051556E+03  2.187402E+03  6.084863E+03
       151  27 -5.052123E+05 -3.462494E+04 -3.474643E+04  9.737790E+03  6.978119E+02  5.211600E+03
       152   1 -2.452243E+05  2.949757E+04  2.661220E+04  1.017645E+04 -1.514935E+03 -4.699795E+03
       152   2 -2.644877E+05  2.478175E+04  2.263018E+04  4.324374E+03 -1.079243E+03 -3.822906E+03
       152   3 -2.838524E+05  2.003239E+04  1.834802E+04  1.013716E+04 -6.437313E+02 -2.942852E+03
       152   4 -3.647780E+05 -1.947201E+01 -1.377919E+03  1.003119E+04 -9.691831E+02 -4.699050E+03
       152   5 -3.647264E+05  2.363141E+01 -8.858392E+02  4.198661E+03 -5.316011E+02 -3.822115E+03
       152   6 -3.647770E+05  3.280158E+01 -6.952999E+02  1.003111E+04 -9.418751E+01 -2.942013E+03
       152   7 -4.843186E+05 -2.953753E+04 -2.936902E+04  9.885956E+03 -4.235351E+02 -4.698306E+03
       152   8 -4.649558E+05 -2.473520E+04 -2.440254E+04  4.072965E+03  1.595246E+01 -3.821325E+03
       152   9 -4.456956E+05 -1.996726E+04 -1.973907E+04  9.925073E+03  4.552851E+02 -2.941174E+03
       152  10 -2.452243E+05  2.949754E+04  2.661216E+04  1.017644E+04  1.451003E-09 -2.000370E-10
       152  11 -2.644877E+05  2.478174E+04  2.263015E+04  4.324370E+03  1.842813E-09  4.672076E-09
       152  12 -2.838524E+05  2.003238E+04  1.834800E+04  1.013716E+04 -1.593168E-10  3.074770E-09
       152  13 -3.647780E+05 -1.949597E+01 -1.377963E+03  1.003119E+04 -1.078512E-09  1.169416E-09
       152  14 -3.647264E+05  2.361565E+01 -8.858672E+02  4.198659E+03  9.437917E-10  3.825577E-09
       152  15 -3.647770E+05  3.279228E+01 -6.953162E+02  1.003111E+04 -1.701320E-09  1.611494E-10
       152  16 -4.843186E+05 -2.953755E+04 -2.936906E+04  9.885954E+03 -1.226865E-09  1.626259E-09
       152  17 -4.649558E+05 -2.473522E+04 -2.440257E+04  4.072965E+03 -6.875541E-10 -7.146521E-10
       152  18 -4.456956E+05 -1.996727E+04 -1.973908E+04  9.925074E+03  5.448175E-10 -4.834661E-10
       152  19 -2.452243E+05  2.949757E+04  2.661220E+04  1.017645E+04  1.514935E+03  4.699795E+03
       152  20 -2.644877E+05  2.478175E+04  2.263018E+04  4.324374E+03  1.079243E+03  3.822906E+03
       152  21 -2.838524E+05  2.003239E+04  1.834802E+04  1.013716E+04  6.437313E+02  2.942852E+03
       152  22 -3.647780E+05 -1.947201E+01 -1.377919E+03  1.003119E+04  9.691831E+02  4.699050E+03
       152  23 -3.647264E+05  2.363141E+01 -8.858392E+02  4.198661E+03  5.316011E+02  3.822115E+03
       152  24 -3.647770E+05  3.280158E+01 -6.952999E+02  1.003111E+04  9.418751E+01  2.942013E+03
       152  25 -4.843186E+05 -2.953753E+04 -2.936902E+04  9.885956E+03  4.235351E+02  4.698306E+03
       152  26 -4.649558E+05 -2.473520E+04 -2.440254E+04  4.072965E+03 -1.595246E+01  3.821325E+03
       152  27 -4.456956E+05 -1.996726E+04 -1.973907E+04  9.925073E+03 -4.552851E+02  2.941174E+03
       153   1 -3.048054E+05  1.483295E+04  1.332865E+04  1.010651E+04 -5.204175E+02 -2.429617E+03
       153   2 -3.241439E+05  1.004844E+04  8.704086E+03  4.225110E+03 -1.174011E+02 -1.547271E+03
       153   3 -3.435868E+05  5.238850E+03  3.800665E+03  1.005732E+04  2.855446E+02 -6.648342E+02
       153   4 -3.647767E+05  3.178327E+01 -6.830742E+02  1.004193E+04  2.952802E+01 -2.428757E+03
       153   5 -3.647243E+05  2.509534E+01 -8.164115E+02  4.185137E+03  4.325722E+02 -1.546393E+03
       153   6 -3.647764E+05 -6.580478E+00 -1.228538E+03  1.004200E+04  8.355581E+02 -6.639372E+02
       153   7 -4.247448E+05 -1.476964E+04 -1.469504E+04  9.977364E+03  5.794207E+02 -2.427896E+03
       153   8 -4.053033E+05 -9.998366E+03 -1.033702E+04  4.145167E+03  9.825098E+02 -1.545515E+03
       153   9 -3.859656E+05 -5.252044E+03 -6.257771E+03  1.002668E+04  1.385553E+03 -6.630402E+02
       153  10 -3.048054E+05  1.483294E+04  1.332864E+04  1.010651E+04  1.672000E-09  8.684953E-10
       153  11 -3.241439E+05  1.004844E+04  8.704082E+03  4.225109E+03  1.492909E-09  2.970060E-10
       153  12 -3.435868E+05  5.238850E+03  3.800664E+03  1.005732E+04 -2.014106E-10 -1.007406E-09
       153  13 -3.647767E+05  3.177694E+01 -6.830853E+02  1.004193E+04 -2.597384E-10  4.660386E-09
       153  14 -3.647244E+05  2.509272E+01 -8.164163E+02  4.185138E+03 -5.617628E-10  9.428797E-10
       153  15 -3.647764E+05 -6.581139E+00 -1.228540E+03  1.004200E+04  1.643058E-09 -1.936752E-09
       153  16 -4.247448E+05 -1.476965E+04 -1.469506E+04  9.977365E+03 -3.173832E-09  2.401974E-09
       153  17 -4.053033E+05 -9.998369E+03 -1.033703E+04  4.145168E+03 -6.986658E-10  3.879484E-10
       153  18 -3.859656E+05 -5.252045E+03 -6.257776E+03  1.002668E+04 -7.039240E-10 -3.612503E-09
       153  19 -3.048054E+05  1.483295E+04  1.332865E+04  1.010651E+04  5.204175E+02  2.429617E+03
       153  20 -3.241439E+05  1.004844E+04  8.704086E+03  4.225110E+03  1.174011E+02  1.547271E+03
       153  21 -3.435868E+05  5.238850E+03  3.800665E+03  1.005732E+04 -2.855446E+02  6.648342E+02
       153  22 -3.647767E+05  3.178327E+01 -6.830742E+02  1.004193E+04 -2.952802E+01  2.428757E+03
       153  23 -3.647243E+05  2.509534E+01 -8.164115E+02  4.185137E+03 -4.325722E+02  1.546393E+03
       153  24 -3.647764E+05 -6.580478E+00 -1.228538E+03  1.004200E+04 -8.355581E+02  6.639372E+02
       153  25 -4.247448E+05 -1.476964E+04 -1.469504E+04  9.977364E+03 -5.794207E+02  2.427896E+03
       153  26 -4.053033E+05 -9.998366E+03 -1.033702E+04  4.145167E+03 -9.825098E+02  1.545515E+03
       153  27 -3.859656E+05 -5.252044E+03 -6.257771E+03  1.002668E+04 -1.385553E+03  6.630402E+02
       154   1 -3.646455E+05  9.870008E+01 -1.565209E+03  9.937541E+03  5.303132E+02 -1.487759E+02
       154   2 -3.838640E+05 -4.657947E+03 -7.100174E+03  4.152403E+03  1.830511E+03  7.349925E+02
       154   3 -4.034507E+05 -1.002292E+04 -1.364448E+04  1.008784E+04  3.130718E+03  1.605498E+03
       154   4 -3.648347E+05  6.398796E+01 -1.551632E+03  1.004321E+04  1.084361E+03 -1.478690E+02
       154   5 -3.646514E+05  8.782137E+01 -2.592366E+03  4.183385E+03  2.376318E+03  7.358766E+02
       154   6 -3.648352E+05 -4.951947E+02 -4.636648E+03  1.004412E+04  3.668324E+03  1.606361E+03
       154   7 -3.650238E+05  2.927604E+01 -1.538054E+03  1.014887E+04  1.638408E+03 -1.469619E+02
       154   8 -3.454384E+05  4.833564E+03  1.915419E+03  4.214367E+03  2.922141E+03  7.367608E+02
       154   9 -3.262183E+05  9.032430E+03  4.371084E+03  1.000039E+04  4.205963E+03  1.607223E+03
       154  10 -3.646455E+05  9.869998E+01 -1.565210E+03  9.937542E+03 -1.679031E-09  1.168838E-09
       154  11 -3.838640E+05 -4.657949E+03 -7.100182E+03  4.152402E+03  1.396432E-09  5.140350E-10
       154  12 -4.034507E+05 -1.002293E+04 -1.364450E+04  1.008784E+04  2.326658E-11  1.252646E-09
       154  13 -3.648347E+05  6.398762E+01 -1.551634E+03  1.004321E+04 -1.925317E-12 -1.415524E-09
       154  14 -3.646514E+05  8.781927E+01 -2.592377E+03  4.183383E+03 -3.664622E-09 -1.136491E-10
       154  15 -3.648352E+05 -4.952011E+02 -4.636678E+03  1.004411E+04  1.746314E-09  2.099959E-09
       154  16 -3.650238E+05  2.927530E+01 -1.538059E+03  1.014887E+04  2.832156E-09 -1.164787E-09
       154  17 -3.454384E+05  4.833561E+03  1.915402E+03  4.214365E+03  1.463452E-09 -3.953490E-09
       154  18 -3.262183E+05  9.032422E+03  4.371046E+03  1.000038E+04  1.937506E-09  3.762333E-10
       154  19 -3.646455E+05  9.870008E+01 -1.565209E+03  9.937541E+03 -5.303132E+02  1.487759E+02
       154  20 -3.838640E+05 -4.657947E+03 -7.100174E+03  4.152403E+03 -1.830511E+03 -7.349925E+02
       154  21 -4.034507E+05 -1.002292E+04 -1.364448E+04  1.008784E+04 -3.130718E+03 -1.605498E+03
       154  22 -3.648347E+05  6.398796E+01 -1.551632E+03  1.004321E+04 -1.084361E+03  1.478690E+02
       154  23 -3.646514E+05  8.782137E+01 -2.592366E+03  4.183385E+03 -2.376318E+03 -7.358766E+02
       154  24 -3.648352E+05 -4.951947E+02 -4.636648E+03  1.004412E+04 -3.668324E+03 -1.606361E+03
       154  25 -3.650238E+05  2.927604E+01 -1.538054E+03  1.014887E+04 -1.638408E+03  1.469619E+02
       154  26 -3.454384E+05  4.833564E+03  1.915419E+03  4.214367E+03 -2.922141E+03 -7.367608E+02
       154  27 -3.262183E+05  9.032430E+03  4.371084E+03  1.000039E+04 -4.205963E+03 -1.607223E+03
       155   1 -4.249056E+05 -1.435748E+04 -1.999622E+04  8.972403E+03  3.994473E+03  2.149290E+03
       155   2 -4.429876E+05 -1.878897E+04 -2.865549E+04  4.604381E+03  9.286959E+03  3.015949E+03
       155   3 -4.636149E+05 -3.048021E+04 -4.258610E+04  1.192468E+04  1.457964E+04  3.656534E+03
       155   4 -3.653142E+05  3.769699E+02 -5.961450E+03  1.003330E+04  4.600572E+03  2.150254E+03
       155   5 -3.640550E+05  7.074802E+02 -1.013297E+04  4.194215E+03  9.752639E+03  3.016642E+03
       155   6 -3.653168E+05 -6.196846E+03 -1.947777E+04  1.004343E+04  1.490507E+04  3.656945E+03
       155   7 -3.057195E+05  1.511117E+04  8.073082E+03  1.109429E+04  5.206729E+03  2.151221E+03
       155   8 -2.851166E+05  2.020349E+04  8.389128E+03  3.783994E+03  1.021838E+04  3.017335E+03
       155   9 -2.670098E+05  1.808585E+04  3.629908E+03  8.161878E+03  1.523054E+04  3.657354E+03
       155  10 -4.249056E+05 -1.435749E+04 -1.999626E+04  8.972396E+03 -3.607734E-10  4.154224E-09
       155  11 -4.429877E+05 -1.878901E+04 -2.865567E+04  4.604358E+03 -4.965349E-10  2.540267E-09
       155  12 -4.636151E+05 -3.048028E+04 -4.258653E+04  1.192464E+04 -7.123881E-10  3.200122E-09
       155  13 -3.653142E+05  3.769592E+02 -5.961499E+03  1.003329E+04 -7.929490E-12  2.359200E-09
       155  14 -3.640551E+05  7.074449E+02 -1.013317E+04  4.194191E+03  1.196250E-10  1.767907E-09
       155  15 -3.653170E+05 -6.196920E+03 -1.947821E+04  1.004339E+04  3.266014E-10 -9.912735E-10
       155  16 -3.057195E+05  1.511116E+04  8.073022E+03  1.109428E+04  1.000712E-09  1.685884E-09
       155  17 -2.851167E+05  2.020345E+04  8.388914E+03  3.783969E+03  1.640487E-09 -2.194844E-09
       155  18 -2.670101E+05  1.808577E+04  3.629447E+03  8.161833E+03 -1.282203E-09 -4.406241E-09
       155  19 -4.249056E+05 -1.435748E+04 -1.999622E+04  8.972403E+03 -3.994473E+03 -2.149290E+03
       155  20 -4.429876E+05 -1.878897E+04 -2.865549E+04  4.604381E+03 -9.286959E+03 -3.015949E+03
       155  21 -4.636149E+05 -3.048021E+04 -4.258610E+04  1.192468E+04 -1.457964E+04 -3.656534E+03
       155  22 -3.653142E+05  3.769699E+02 -5.961450E+03  1.003330E+04 -4.600572E+03 -2.150254E+03
       155  23 -3.640550E+05  7.074802E+02 -1.013297E+04  4.194215E+03 -9.752639E+03 -3.016642E+03
       155  24 -3.653168E+05 -6.196846E+03 -1.947777E+04  1.004343E+04 -1.490507E+04 -3.656945E+03
       155  25 -3.057195E+05  1.511117E+04  8.073082E+03  1.109429E+04 -5.206729E+03 -2.151221E+03
       155  26 -2.851166E+05  2.020349E+04  8.389128E+03  3.783994E+03 -1.021838E+04 -3.017335E+03
       155  27 -2.670098E+05  1.808585E+04  3.629908E+03  8.161878E+03 -1.523054E+04 -3.657354E+03
       156   1 -4.891060E+05 -2.555858E+04 -5.197278E+04 -3.726114E+02  1.701440E+04  4.674194E+03
       156   2 -4.966071E+05 -2.683636E+04 -7.171078E+04  1.217084E+04  4.048924E+04  5.192623E+03
       156   3 -5.277582E+05 -1.103537E+05 -1.273056E+05  3.627769E+04  6.396908E+04  1.813835E+03
       156   4 -3.699156E+05  3.913894E+03 -2.404137E+04  9.977747E+03  1.853373E+04  4.676688E+03
       156   5 -3.583109E+05  7.308545E+03 -3.921106E+04  4.247893E+03  3.958156E+04  5.190725E+03
       156   6 -3.699296E+05 -7.110590E+04 -8.854586E+04  1.008196E+04  6.063518E+04  1.806548E+03
       156   7 -2.507118E+05  3.338576E+04  3.889129E+03  2.033010E+04  2.005335E+04  4.679231E+03
       156   8 -2.199970E+05  4.145233E+04 -6.712602E+03 -3.676833E+03  3.867367E+04  5.188851E+03
       156   9 -2.120768E+05 -3.185738E+04 -4.978750E+04 -1.612045E+04  5.730043E+04  1.799544E+03
       156  10 -4.891063E+05 -2.555868E+04 -5.197337E+04 -3.726755E+02 -2.417638E-09  1.219164E-09
       156  11 -4.966089E+05 -2.683683E+04 -7.171392E+04  1.217067E+04 -1.037667E-09  3.551142E-10
       156  12 -5.277626E+05 -1.103548E+05 -1.273133E+05  3.627759E+04  1.420001E-09 -1.586655E-10
       156  13 -3.699160E+05  3.913778E+03 -2.404206E+04  9.977677E+03  8.245356E-10  4.099691E-09
       156  14 -3.583126E+05  7.308096E+03 -3.921405E+04  4.247727E+03 -1.195962E-10 -2.075704E-09
       156  15 -3.699336E+05 -7.110689E+04 -8.855278E+04  1.008187E+04  5.164175E-10  1.497500E-09
       156  16 -2.507123E+05  3.338563E+04  3.888332E+03  2.033003E+04  1.971196E-10  6.716817E-10
       156  17 -2.199986E+05  4.145190E+04 -6.715464E+03 -3.676995E+03 -2.005833E-09  1.334737E-10
       156  18 -2.120804E+05 -3.185827E+04 -4.979368E+04 -1.612054E+04 -1.633062E-09 -4.482662E-10
       156  19 -4.891060E+05 -2.555858E+04 -5.197278E+04 -3.726114E+02 -1.701440E+04 -4.674194E+03
       156  20 -4.966071E+05 -2.683636E+04 -7.171078E+04  1.217084E+04 -4.048924E+04 -5.192623E+03
       156  21 -5.277582E+05 -1.103537E+05 -1.273056E+05  3.627769E+04 -6.396908E+04 -1.813835E+03
       156  22 -3.699156E+05  3.913894E+03 -2.404137E+04  9.977747E+03 -1.853373E+04 -4.676688E+03
       156  23 -3.583109E+05  7.308545E+03 -3.921106E+04  4.247893E+03 -3.958156E+04 -5.190725E+03
       156  24 -3.699296E+05 -7.110590E+04 -8.854586E+04  1.008196E+04 -6.063518E+04 -1.806548E+03
       156  25 -2.507118E+05  3.338576E+04  3.889129E+03  2.033010E+04 -2.005335E+04 -4.679231E+03
       156  26 -2.199970E+05  4.145233E+04 -6.712602E+03 -3.676833E+03 -3.867367E+04 -5.188851E+03
       156  27 -2.120768E+05 -3.185738E+04 -4.978750E+04 -1.612045E+04 -5.730043E+04 -1.799544E+03
       157   1  1.945053E+05  1.099494E+06  2.175261E+05 -9.393081E+04  3.865398E+03  8.790824E+04
       157   2  6.158218E+04  9.862679E+05  1.253968E+05 -4.015088E+04  1.084734E+04  4.958029E+04
       157   3  4.209209E+04  9.063187E+05  8.653730E+04 -4.010255E+04  7.645173E+03  1.124952E+04
       157   4  9.937913E+04  7.175063E+05  1.238392E+05 -5.452426E+04  3.877274E+03  7.977781E+04
       157   5 -8.620814E+03  7.014808E+05  5.902944E+04 -2.770086E+04  1.084975E+04  4.831844E+04
       157   6 -4.350204E+03  7.175536E+05  4.274671E+04 -5.460594E+04  7.639372E+03  1.685014E+04
       157   7  4.247997E+03  3.356546E+05  3.014264E+04 -1.514193E+04  3.888124E+03  7.165235E+04
       157   8 -7.882896E+04  4.167686E+05 -7.343300E+03 -1.525657E+04  1.085211E+04  4.705716E+04
       157   9 -5.079419E+04  5.288218E+05 -1.046038E+03 -6.910488E+04  7.633309E+03  2.244907E+04
       157  10  1.945032E+05  1.099486E+06  2.175116E+05 -9.393108E+04 -1.693842E-09  3.109176E-09
       157  11  6.158139E+04  9.862652E+05  1.253920E+05 -4.015131E+04 -1.445823E-09 -4.778447E-09
       157  12  4.209200E+04  9.063186E+05  8.653695E+04 -4.010262E+04 -1.943830E-09 -1.133210E-08
       157  13  9.937741E+04  7.174994E+05  1.238272E+05 -5.452451E+04  3.588806E-10  5.359121E-10
       157  14 -8.621566E+03  7.014782E+05  5.902484E+04 -2.770128E+04 -8.596358E-10  1.848694E-10
       157  15 -4.350343E+03  7.175533E+05  4.274607E+04 -5.460604E+04  2.855410E-09  1.083421E-09
       157  16  4.246603E+03  3.356491E+05  3.013297E+04 -1.514215E+04 -6.248786E-10 -2.250409E-09
       157  17 -7.882968E+04  4.167662E+05 -7.347680E+03 -1.525698E+04  3.491598E-10  5.022256E-09
       157  18 -5.079439E+04  5.288213E+05 -1.047093E+03 -6.910502E+04 -3.552727E-09  1.091133E-08
       157  19  1.945053E+05  1.099494E+06  2.175261E+05 -9.393081E+04 -3.865398E+03 -8.790824E+04
       157  20  6.158218E+04  9.862679E+05  1.253968E+05 -4.015088E+04 -1.084734E+04 -4.958029E+04
       157  21  4.209209E+04  9.063187E+05  8.653730E+04 -4.010255E+04 -7.645173E+03 -1.124952E+04
       157  22  9.937913E+04  7.175063E+05  1.238392E+05 -5.452426E+04 -3.877274E+03 -7.977781E+04
       157  23 -8.620814E+03  7.014808E+05  5.902944E+04 -2.770086E+04 -1.084975E+04 -4.831844E+04
       157  24 -4.350204E+03  7.175536E+05  4.274671E+04 -5.460594E+04 -7.639372E+03 -1.685014E+04
       157  25  4.247997E+03  3.356546E+05  3.014264E+04 -1.514193E+04 -3.888124E+03 -7.165235E+04
       157  26 -7.882896E+04  4.167686E+05 -7.343300E+03 -1.525657E+04 -1.085211E+04 -4.705716E+04
       157  27 -5.079419E+04  5.288218E+05 -1.046038E+03 -6.910488E+04 -7.633309E+03 -2.244907E+04
       158   1  2.985361E+04  8.033182E+05  6.066352E+04 -5.952352E+04  3.661832E+03  7.314297E+03
       158   2 -3.269121E+03  7.029043E+05  3.517169E+04 -2.724258E+04 -1.993176E+02 -1.114637E+04
       158   3 -1.232249E+04  6.107875E+05  2.767719E+04 -4.889753E+04 -4.047248E+03 -2.960428E+04
       158   4  7.417576E+03  7.122628E+05  3.952253E+04 -5.462635E+04  3.659171E+03  9.928090E+03
       158   5 -1.984480E+03  7.081165E+05  3.638160E+04 -2.765615E+04 -2.019928E+02 -8.541027E+03
       158   6  1.268464E+04  7.122596E+05  5.124445E+04 -5.462098E+04 -4.049655E+03 -2.701018E+04
       158   7 -1.501895E+04  6.212151E+05  1.838103E+04 -4.972990E+04  3.656551E+03  1.254150E+04
       158   8 -6.998370E+02  7.133288E+05  3.759154E+04 -2.806973E+04 -2.046714E+02 -5.935659E+03
       158   9  3.769117E+04  8.137413E+05  7.481106E+04 -6.034537E+04 -4.052110E+03 -2.441565E+04
       158  10  2.985358E+04  8.033182E+05  6.066339E+04 -5.952354E+04 -4.835230E-10  1.027260E-09
       158  11 -3.269154E+03  7.029041E+05  3.517146E+04 -2.724258E+04 -2.529927E-09  7.374333E-09
       158  12 -1.232275E+04  6.107865E+05  2.767552E+04 -4.889762E+04 -3.481460E-09  9.212125E-09
       158  13  7.417535E+03  7.122627E+05  3.952232E+04 -5.462638E+04  4.431246E-09  9.924089E-10
       158  14 -1.984500E+03  7.081164E+05  3.638147E+04 -2.765616E+04  5.821247E-09  7.591855E-12
       158  15  1.268443E+04  7.122588E+05  5.124305E+04 -5.462107E+04  9.262972E-10  9.558032E-10
       158  16 -1.501901E+04  6.212149E+05  1.838071E+04 -4.972994E+04 -2.010581E-09  1.108423E-10
       158  17 -6.998465E+02  7.133287E+05  3.759147E+04 -2.806973E+04 -9.005353E-11 -7.314115E-09
       158  18  3.769100E+04  8.137407E+05  7.480991E+04 -6.034545E+04 -1.022880E-09 -9.467501E-09
       158  19  2.985361E+04  8.033182E+05  6.066352E+04 -5.952352E+04 -3.661832E+03 -7.314297E+03
       158  20 -3.269121E+03  7.029043E+05  3.517169E+04 -2.724258E+04  1.993176E+02  1.114637E+04
       158  21 -1.232249E+04  6.107875E+05  2.767719E+04 -4.889753E+04  4.047248E+03  2.960428E+04
       158  22  7.417576E+03  7.122628E+05  3.952253E+04 -5.462635E+04 -3.659171E+03 -9.928090E+03
       158  23 -1.984480E+03  7.081165E+05  3.638160E+04 -2.765615E+04  2.019928E+02  8.541027E+03
       158  24  1.268464E+04  7.122596E+05  5.124445E+04 -5.462098E+04  4.049655E+03  2.701018E+04
       158  25 -1.501895E+04  6.212151E+05  1.838103E+04 -4.972990E+04 -3.656551E+03 -1.254150E+04
       158  26 -6.998370E+02  7.133288E+05  3.759154E+04 -2.806973E+04  2.046714E+02  5.935659E+03
       158  27  3.769117E+04  8.137413E+05  7.481106E+04 -6.034537E+04  4.052110E+03  2.441565E+04
       159   1 -5.712278E+04  5.226727E+05  1.348521E+04 -7.807170E+04 -8.049927E+03 -4.191615E+04
       159   2 -8.665931E+04  4.009524E+05  2.248344E+04 -7.737908E+03 -1.122968E+04 -8.368733E+04
       159   3  6.326658E+04  3.295033E+05  1.035298E+05  8.887923E+03 -3.985617E+03 -1.254421E+05
       159   4 -8.128780E+03  7.218541E+05  5.969250E+04 -5.461433E+04 -8.057053E+03 -3.625775E+04
       159   5 -1.386387E+04  6.960975E+05  9.128784E+04 -2.769822E+04 -1.122548E+04 -8.506165E+04
       159   6  1.610283E+05  7.217857E+05  1.997827E+05 -5.448330E+04 -3.966445E+03 -1.338560E+05
       159   7  4.086452E+04  9.210733E+05  1.058975E+05 -3.114938E+04 -8.063752E+03 -3.059755E+04
       159   8  5.892691E+04  9.913238E+05  1.600866E+05 -4.766805E+04 -1.122119E+04 -8.643661E+04
       159   9  2.587937E+05  1.114217E+06  2.960266E+05 -1.178946E+05 -3.945566E+03 -1.422752E+05
       159  10 -5.712332E+04  5.226708E+05  1.348179E+04 -7.807197E+04 -1.395678E-10 -3.784249E-09
       159  11 -8.666133E+04  4.009448E+05  2.247005E+04 -7.738665E+03 -1.321265E-09 -2.271502E-09
       159  12  6.326234E+04  3.294864E+05  1.035002E+05  8.887521E+03  3.994658E-10  6.454150E-10
       159  13 -8.129202E+03  7.218526E+05  5.968991E+04 -5.461457E+04 -2.489274E-09  1.235990E-09
       159  14 -1.386594E+04  6.960897E+05  9.127402E+04 -2.769899E+04  8.938504E-10 -5.556112E-11
       159  15  1.610235E+05  7.217665E+05  1.997490E+05 -5.448373E+04  1.923872E-09  1.000418E-09
       159  16  4.086420E+04  9.210723E+05  1.058957E+05 -3.114958E+04 -1.978932E-10  4.571728E-09
       159  17  5.892477E+04  9.913158E+05  1.600723E+05 -4.766884E+04 -2.232318E-11  2.274832E-09
       159  18  2.587883E+05  1.114195E+06  2.959886E+05 -1.178950E+05  7.582287E-10 -5.935987E-10
       159  19 -5.712278E+04  5.226727E+05  1.348521E+04 -7.807170E+04  8.049927E+03  4.191615E+04
       159  20 -8.665931E+04  4.009524E+05  2.248344E+04 -7.737908E+03  1.122968E+04  8.368733E+04
       159  21  6.326658E+04  3.295033E+05  1.035298E+05  8.887923E+03  3.985617E+03  1.254421E+05
       159  22 -8.128780E+03  7.218541E+05  5.969250E+04 -5.461433E+04  8.057053E+03  3.625775E+04
       159  23 -1.386387E+04  6.960975E+05  9.128784E+04 -2.769822E+04  1.122548E+04  8.506165E+04
       159  24  1.610283E+05  7.217857E+05  1.997827E+05 -5.448330E+04  3.966445E+03  1.338560E+05
       159  25  4.086452E+04  9.210733E+05  1.058975E+05 -3.114938E+04  8.063752E+03  3.059755E+04
       159  26  5.892691E+04  9.913238E+05  1.600866E+05 -4.766805E+04  1.122119E+04  8.643661E+04
       159  27  2.587937E+05  1.114217E+06  2.960266E+05 -1.178946E+05  3.945566E+03  1.422752E+05
       160   1  5.876173E+04  3.800541E+04  1.774227E+04 -9.609082E+03 -5.442730E+04 -5.481013E+03
       160   2  3.300106E+04  1.117648E+05  5.661932E+04  8.977185E+02 -3.923695E+04 -1.663939E+04
       160   3 -1.598315E+04  1.003679E+05  6.434119E+04  3.195341E+04 -2.406436E+04 -1.631033E+04
       160   4 -4.056050E+05 -7.753185E+04 -9.598517E+04  2.021853E+04 -6.576609E+04 -5.500000E+03
       160   5 -3.933028E+05  6.657180E+03 -4.271775E+04  9.881310E+03 -4.287079E+04 -1.664659E+04
       160   6 -4.055817E+05  4.318363E+03 -2.597473E+04  2.009452E+04 -1.999200E+04 -1.630326E+04
       160   7 -8.697730E+05 -1.930816E+05 -2.097274E+05  5.002372E+04 -7.709640E+04 -5.520086E+03
       160   8 -8.194387E+05 -9.846301E+04 -1.420670E+05  1.885862E+04 -4.650215E+04 -1.665390E+04
       160   9 -7.950397E+05 -9.174132E+04 -1.163007E+05  8.243055E+03 -1.592216E+04 -1.629634E+04
       160  10  5.875854E+04  3.800458E+04  1.773665E+04 -9.609322E+03 -2.510990E-09  2.028301E-09
       160  11  3.299933E+04  1.117641E+05  5.661591E+04  8.971928E+02  1.048941E-10  6.112273E-09
       160  12 -1.598384E+04  1.003674E+05  6.433960E+04  3.195309E+04  2.867076E-09  2.496551E-09
       160  13 -4.056096E+05 -7.753305E+04 -9.599336E+04  2.021824E+04  2.749841E-10 -1.576490E-09
       160  14 -3.933048E+05  6.656388E+03 -4.272173E+04  9.880735E+03  1.575063E-10 -4.119054E-09
       160  15 -4.055822E+05  4.317970E+03 -2.597598E+04  2.009425E+04  1.210648E-09 -4.765056E-10
       160  16 -8.697793E+05 -1.930833E+05 -2.097387E+05  5.002338E+04  2.482335E-09  7.849417E-10
       160  17 -8.194411E+05 -9.846389E+04 -1.420716E+05  1.885800E+04 -8.998589E-10  6.285103E-09
       160  18 -7.950400E+05 -9.174168E+04 -1.163017E+05  8.242846E+03 -3.266797E-09 -1.143290E-09
       160  19  5.876173E+04  3.800541E+04  1.774227E+04 -9.609082E+03  5.442730E+04  5.481013E+03
       160  20  3.300106E+04  1.117648E+05  5.661932E+04  8.977185E+02  3.923695E+04  1.663939E+04
       160  21 -1.598315E+04  1.003679E+05  6.434119E+04  3.195341E+04  2.406436E+04  1.631033E+04
       160  22 -4.056050E+05 -7.753185E+04 -9.598517E+04  2.021853E+04  6.576609E+04  5.500000E+03
       160  23 -3.933028E+05  6.657180E+03 -4.271775E+04  9.881310E+03  4.287079E+04  1.664659E+04
       160  24 -4.055817E+05  4.318363E+03 -2.597473E+04  2.009452E+04  1.999200E+04  1.630326E+04
       160  25 -8.697730E+05 -1.930816E+05 -2.097274E+05  5.002372E+04  7.709640E+04  5.520086E+03
       160  26 -8.194387E+05 -9.846301E+04 -1.420670E+05  1.885862E+04  4.650215E+04  1.665390E+04
       160  27 -7.950397E+05 -9.174132E+04 -1.163007E+05  8.243055E+03  1.592216E+04  1.629634E+04
       161   1 -4.911152E+04  8.046575E+04  6.088614E+04  1.867651E+04 -1.665306E+04 -1.384761E+04
       161   2 -8.547958E+04  7.801795E+04  6.193221E+04  9.668098E+03 -1.148422E+04 -1.274457E+04
       161   3 -1.243071E+05  6.858787E+04  5.785904E+04  2.173375E+04 -6.317781E+03 -1.102667E+04
       161   4 -4.006787E+05 -6.229258E+03 -2.098085E+04  2.025677E+04 -1.611892E+04 -1.384719E+04
       161   5 -3.994075E+05  6.304887E+02 -1.100445E+04  9.712766E+03 -1.053981E+04 -1.274311E+04
       161   6 -4.006705E+05  4.344633E+02 -6.434599E+03  2.024361E+04 -4.962793E+03 -1.102404E+04
       161   7 -7.521318E+05 -9.293299E+04 -1.028562E+05  2.183607E+04 -1.558508E+04 -1.384677E+04
       161   8 -7.132444E+05 -7.676392E+04 -8.394774E+04  9.757364E+03 -9.595867E+03 -1.274164E+04
       161   9 -6.769634E+05 -6.772433E+04 -7.073339E+04  1.875409E+04 -3.608405E+03 -1.102141E+04
       161  10 -4.911187E+04  8.046547E+04  6.088526E+04  1.867632E+04 -2.594556E-09 -2.014637E-09
       161  11 -8.547977E+04  7.801774E+04  6.193166E+04  9.667980E+03 -3.632357E-09  4.045724E-09
       161  12 -1.243072E+05  6.858773E+04  5.785874E+04  2.173370E+04 -6.821327E-11  6.227334E-09
       161  13 -4.006790E+05 -6.229534E+03 -2.098170E+04  2.025659E+04  1.873314E-09  4.546874E-09
       161  14 -3.994077E+05  6.302846E+02 -1.100496E+04  9.712658E+03 -2.040344E-10 -1.212508E-08
       161  15 -4.006706E+05  4.343262E+02 -6.434873E+03  2.024356E+04 -2.885148E-09  6.440047E-09
       161  16 -7.521321E+05 -9.293326E+04 -1.028570E+05  2.183590E+04  2.021096E-09 -5.531051E-09
       161  17 -7.132445E+05 -7.676412E+04 -8.394821E+04  9.757266E+03  1.859736E-09 -2.703708E-09
       161  18 -6.769634E+05 -6.772447E+04 -7.073364E+04  1.875406E+04 -2.255448E-09  8.627099E-10
       161  19 -4.911152E+04  8.046575E+04  6.088614E+04  1.867651E+04  1.665306E+04  1.384761E+04
       161  20 -8.547958E+04  7.801795E+04  6.193221E+04  9.668098E+03  1.148422E+04  1.274457E+04
       161  21 -1.243071E+05  6.858787E+04  5.785904E+04  2.173375E+04  6.317781E+03  1.102667E+04
       161  22 -4.006787E+05 -6.229258E+03 -2.098085E+04  2.025677E+04  1.611892E+04  1.384719E+04
       161  23 -3.994075E+05  6.304887E+02 -1.100445E+04  9.712766E+03  1.053981E+04  1.274311E+04
       161  24 -4.006705E+05  4.344633E+02 -6.434599E+03  2.024361E+04  4.962793E+03  1.102404E+04
       161  25 -7.521318E+05 -9.293299E+04 -1.028562E+05  2.183607E+04  1.558508E+04  1.384677E+04
       161  26 -7.132444E+05 -7.676392E+04 -8.394774E+04  9.757364E+03  9.595867E+03  1.274164E+04
       161  27 -6.769634E+05 -6.772433E+04 -7.073339E+04  1.875409E+04  3.608405E+03  1.102141E+04
       162   1 -1.620857E+05  5.827052E+04  5.022889E+04  2.062085E+04 -5.130291E+03 -9.907309E+03
       162   2 -1.997451E+05  4.947063E+04  4.373022E+04  1.003317E+04 -3.769456E+03 -8.146916E+03
       162   3 -2.377998E+05  4.018522E+04  3.620233E+04  2.069215E+04 -2.409362E+03 -6.350580E+03
       162   4 -4.001915E+05 -4.088173E+02 -4.986491E+03  2.028659E+04 -3.960699E+03 -9.904938E+03
       162   5 -3.999893E+05  1.042771E+02 -2.786979E+03  9.662434E+03 -2.576224E+03 -8.144312E+03
       162   6 -4.001873E+05  1.278172E+02 -1.633212E+03  2.028536E+04 -1.192408E+03 -6.347733E+03
       162   7 -6.382450E+05 -5.909215E+04 -6.020567E+04  1.995243E+04 -2.791552E+03 -9.902568E+03
       162   8 -6.001964E+05 -4.926491E+04 -4.930687E+04  9.291794E+03 -1.383375E+03 -8.141709E+03
       162   9 -5.625505E+05 -3.993145E+04 -3.947054E+04  1.987866E+04  2.422895E+01 -6.344888E+03
       162  10 -1.620857E+05  5.827041E+04  5.022866E+04  2.062081E+04  5.323911E-09 -2.488763E-09
       162  11 -1.997452E+05  4.947056E+04  4.373006E+04  1.003315E+04  3.215084E-10 -1.399143E-09
       162  12 -2.377998E+05  4.018518E+04  3.620225E+04  2.069214E+04 -6.560423E-09 -1.883618E-09
       162  13 -4.001916E+05 -4.089268E+02 -4.986705E+03  2.028656E+04 -2.126593E-09 -1.086305E-09
       162  14 -3.999893E+05  1.042041E+02 -2.787116E+03  9.662417E+03 -3.771464E-10 -3.709485E-09
       162  15 -4.001873E+05  1.277736E+02 -1.633290E+03  2.028535E+04  1.840350E-10 -4.291097E-09
       162  16 -6.382451E+05 -5.909226E+04 -6.020587E+04  1.995241E+04 -4.306332E-09 -2.510892E-09
       162  17 -6.001965E+05 -4.926498E+04 -4.930700E+04  9.291785E+03 -1.860081E-09  6.495085E-09
       162  18 -5.625505E+05 -3.993150E+04 -3.947061E+04  1.987866E+04  5.472170E-09  7.852914E-09
       162  19 -1.620857E+05  5.827052E+04  5.022889E+04  2.062085E+04  5.130291E+03  9.907309E+03
       162  20 -1.997451E+05  4.947063E+04  4.373022E+04  1.003317E+04  3.769456E+03  8.146916E+03
       162  21 -2.377998E+05  4.018522E+04  3.620233E+04  2.069215E+04  2.409362E+03  6.350580E+03
       162  22 -4.001915E+05 -4.088173E+02 -4.986491E+03  2.028659E+04  3.960699E+03  9.904938E+03
       162  23 -3.999893E+05  1.042771E+02 -2.786979E+03  9.662434E+03  2.576224E+03  8.144312E+03
       162  24 -4.001873E+05  1.278172E+02 -1.633212E+03  2.028536E+04  1.192408E+03  6.347733E+03
       162  25 -6.382450E+05 -5.909215E+04 -6.020567E+04  1.995243E+04  2.791552E+03  9.902568E+03
       162  26 -6.001964E+05 -4.926491E+04 -4.930687E+04  9.291794E+03  1.383375E+03  8.141709E+03
       162  27 -5.625505E+05 -3.993145E+04 -3.947054E+04  1.987866E+04 -2.422895E+01  6.344888E+03
       163   1 -2.762114E+05  3.059398E+04  2.740700E+04  2.055265E+04 -2.142800E+03 -5.298148E+03
       163   2 -3.141376E+05  2.124051E+04  1.917604E+04  9.814416E+03 -1.761725E+03 -3.496947E+03
       163   3 -3.522263E+05  1.194099E+04  1.068201E+04  2.040753E+04 -1.380941E+03 -1.692588E+03
       163   4 -4.001321E+05  6.461137E+01 -1.269240E+03  2.030456E+04 -9.344004E+02 -5.295236E+03
       163   5 -4.000491E+05  5.917143E+01 -7.824507E+02  9.638740E+03 -5.513063E+02 -3.493954E+03
       163   6 -4.001303E+05  1.074152E+02 -5.601146E+02  2.030445E+04 -1.684796E+02 -1.689508E+03
       163   7 -5.240385E+05 -3.046583E+04 -2.994650E+04  2.005651E+04  2.737600E+02 -5.292324E+03
       163   8 -4.859538E+05 -2.112269E+04 -2.074143E+04  9.463084E+03  6.589464E+02 -3.490961E+03
       163   9 -4.480323E+05 -1.172633E+04 -1.180239E+04  2.020138E+04  1.043889E+03 -1.686428E+03
       163  10 -2.762114E+05  3.059395E+04  2.740694E+04  2.055265E+04 -5.472542E-09 -3.026185E-09
       163  11 -3.141376E+05  2.124049E+04  1.917601E+04  9.814411E+03 -4.444115E-09  3.393853E-09
       163  12 -3.522263E+05  1.194099E+04  1.068200E+04  2.040753E+04 -3.459664E-09  2.233912E-09
       163  13 -4.001321E+05  6.458104E+01 -1.269295E+03  2.030456E+04 -1.068231E-09 -2.233907E-09
       163  14 -4.000491E+05  5.915824E+01 -7.824742E+02  9.638738E+03  1.903446E-09 -7.226857E-09
       163  15 -4.001303E+05  1.074121E+02 -5.601200E+02  2.030445E+04  4.524348E-10 -2.139207E-09
       163  16 -5.240385E+05 -3.046586E+04 -2.994656E+04  2.005651E+04  6.405743E-09  5.587643E-09
       163  17 -4.859538E+05 -2.112270E+04 -2.074146E+04  9.463085E+03  5.024361E-09  9.425451E-09
       163  18 -4.480323E+05 -1.172633E+04 -1.180240E+04  2.020138E+04  3.728471E-09  1.892071E-09
       163  19 -2.762114E+05  3.059398E+04  2.740700E+04  2.055265E+04  2.142800E+03  5.298148E+03
       163  20 -3.141376E+05  2.124051E+04  1.917604E+04  9.814416E+03  1.761725E+03  3.496947E+03
       163  21 -3.522263E+05  1.194099E+04  1.068201E+04  2.040753E+04  1.380941E+03  1.692588E+03
       163  22 -4.001321E+05  6.461137E+01 -1.269240E+03  2.030456E+04  9.344004E+02  5.295236E+03
       163  23 -4.000491E+05  5.917143E+01 -7.824507E+02  9.638740E+03  5.513063E+02  3.493954E+03
       163  24 -4.001303E+05  1.074152E+02 -5.601146E+02  2.030445E+04  1.684796E+02  1.689508E+03
       163  25 -5.240385E+05 -3.046583E+04 -2.994650E+04  2.005651E+04 -2.737600E+02  5.292324E+03
       163  26 -4.859538E+05 -2.112269E+04 -2.074143E+04  9.463084E+03 -6.589464E+02  3.490961E+03
       163  27 -4.480323E+05 -1.172633E+04 -1.180239E+04  2.020138E+04 -1.043889E+03  1.686428E+03
       164   1 -3.907780E+05  2.388150E+03  1.541376E+03  2.032541E+04 -1.286483E+03 -6.415226E+02
       164   2 -4.287388E+05 -7.015274E+03 -7.214933E+03  9.575108E+03 -1.017436E+03  1.163633E+03
       164   3 -4.668479E+05 -1.634434E+04 -1.615762E+04  2.017373E+04 -7.483177E+02  2.966854E+03
       164   4 -4.001266E+05  1.057449E+02 -5.176099E+02  2.030832E+04 -7.382411E+01 -6.384244E+02
       164   5 -4.000519E+05  5.791841E+01 -5.500721E+02  9.633918E+03  1.938880E+02  1.166699E+03
       164   6 -4.001272E+05  8.463642E+01 -7.680625E+02  2.030837E+04  4.616876E+02  2.969893E+03
       164   7 -4.094752E+05 -2.176665E+03 -2.576595E+03  2.029123E+04  1.138817E+03 -6.353261E+02
       164   8 -3.713643E+05  7.131053E+03  6.114738E+03  9.692729E+03  1.405268E+03  1.169765E+03
       164   9 -3.334024E+05  1.651330E+04  1.462121E+04  2.044303E+04  1.671822E+03  2.972932E+03
       164  10 -3.907780E+05  2.388149E+03  1.541372E+03  2.032541E+04 -2.267671E-09  2.546158E-09
       164  11 -4.287388E+05 -7.015275E+03 -7.214937E+03  9.575109E+03  2.018577E-09 -3.512367E-09
       164  12 -4.668479E+05 -1.634435E+04 -1.615764E+04  2.017374E+04 -5.022204E-09 -3.293245E-09
       164  13 -4.001266E+05  1.057445E+02 -5.176106E+02  2.030832E+04  2.934943E-09  7.451660E-09
       164  14 -4.000519E+05  5.791694E+01 -5.500747E+02  9.633917E+03  1.081234E-09 -3.984718E-09
       164  15 -4.001272E+05  8.462689E+01 -7.680794E+02  2.030837E+04  6.258489E-10 -2.530503E-09
       164  16 -4.094752E+05 -2.176666E+03 -2.576598E+03  2.029123E+04  1.120509E-09  1.207089E-09
       164  17 -3.713643E+05  7.131051E+03  6.114732E+03  9.692728E+03  3.526499E-09 -1.242773E-08
       164  18 -3.334024E+05  1.651329E+04  1.462119E+04  2.044302E+04  5.469380E-09 -5.783449E-09
       164  19 -3.907780E+05  2.388150E+03  1.541376E+03  2.032541E+04  1.286483E+03  6.415226E+02
       164  20 -4.287388E+05 -7.015274E+03 -7.214933E+03  9.575108E+03  1.017436E+03 -1.163633E+03
       164  21 -4.668479E+05 -1.634434E+04 -1.615762E+04  2.017373E+04  7.483177E+02 -2.966854E+03
       164  22 -4.001266E+05  1.057449E+02 -5.176099E+02  2.030832E+04  7.382411E+01  6.384244E+02
       164  23 -4.000519E+05  5.791841E+01 -5.500721E+02  9.633918E+03 -1.938880E+02 -1.166699E+03
       164  24 -4.001272E+05  8.463642E+01 -7.680625E+02  2.030837E+04 -4.616876E+02 -2.969893E+03
       164  25 -4.094752E+05 -2.176665E+03 -2.576595E+03  2.029123E+04 -1.138817E+03  6.353261E+02
       164  26 -3.713643E+05  7.131053E+03  6.114738E+03  9.692729E+03 -1.405268E+03 -1.169765E+03
       164  27 -3.334024E+05  1.651330E+04  1.462121E+04  2.044303E+04 -1.671822E+03 -2.972932E+03
       165   1 -5.053976E+05 -2.585322E+04 -2.551659E+04  2.003862E+04 -6.043444E+02  4.020395E+03
       165   2 -5.432012E+05 -3.522428E+04 -3.483442E+04  9.377708E+03  1.919727E+02  5.820217E+03
       165   3 -5.812801E+05 -4.482206E+04 -4.475378E+04  2.001190E+04  9.887573E+02  7.588917E+03
       165   4 -4.001560E+05  1.196528E+02 -9.521682E+02  2.029611E+04  6.135487E+02  4.023401E+03
       165   5 -4.000214E+05  8.137781E+01 -1.566326E+03  9.649069E+03  1.389104E+03  5.823038E+03
       165   6 -4.001590E+05 -1.797128E+02 -2.767252E+03  2.029683E+04  2.165175E+03  7.591561E+03
       165   7 -2.949043E+05  2.609174E+04  2.361151E+04  2.055364E+04  1.831647E+03  4.026409E+03
       165   8 -2.568226E+05  3.538559E+04  3.170039E+04  9.920482E+03  2.586510E+03  5.825860E+03
       165   9 -2.190076E+05  4.446032E+04  3.921708E+04  2.058183E+04  3.341934E+03  7.594206E+03
       165  10 -5.053976E+05 -2.585323E+04 -2.551662E+04  2.003863E+04 -1.340373E-08 -2.369150E-09
       165  11 -5.432012E+05 -3.522431E+04 -3.483448E+04  9.377707E+03 -7.618188E-10 -6.227858E-09
       165  12 -5.812801E+05 -4.482212E+04 -4.475389E+04  2.001190E+04  8.644494E-09 -1.777865E-09
       165  13 -4.001561E+05  1.196353E+02 -9.521993E+02  2.029611E+04 -1.087440E-09 -3.429413E-09
       165  14 -4.000214E+05  8.134089E+01 -1.566393E+03  9.649063E+03 -2.169023E-09 -2.653999E-09
       165  15 -4.001591E+05 -1.797760E+02 -2.767369E+03  2.029682E+04 -4.231583E-10  2.401334E-09
       165  16 -2.949043E+05  2.609172E+04  2.361147E+04  2.055363E+04  1.167981E-08  2.338513E-09
       165  17 -2.568226E+05  3.538555E+04  3.170032E+04  9.920470E+03  5.124068E-09 -4.652898E-09
       165  18 -2.190077E+05  4.446026E+04  3.921695E+04  2.058181E+04 -7.830437E-09  4.242492E-09
       165  19 -5.053976E+05 -2.585322E+04 -2.551659E+04  2.003862E+04  6.043444E+02 -4.020395E+03
       165  20 -5.432012E+05 -3.522428E+04 -3.483442E+04  9.377708E+03 -1.919727E+02 -5.820217E+03
       165  21 -5.812801E+05 -4.482206E+04 -4.475378E+04  2.001190E+04 -9.887573E+02 -7.588917E+03
       165  22 -4.001560E+05  1.196528E+02 -9.521682E+02  2.029611E+04 -6.135487E+02 -4.023401E+03
       165  23 -4.000214E+05  8.137781E+01 -1.566326E+03  9.649069E+03 -1.389104E+03 -5.823038E+03
       165  24 -4.001590E+05 -1.797128E+02 -2.767252E+03  2.029683E+04 -2.165175E+03 -7.591561E+03
       165  25 -2.949043E+05  2.609174E+04  2.361151E+04  2.055364E+04 -1.831647E+03 -4.026409E+03
       165  26 -2.568226E+05  3.538559E+04  3.170039E+04  9.920482E+03 -2.586510E+03 -5.825860E+03
       165  27 -2.190076E+05  4.446032E+04  3.921708E+04  2.058183E+04 -3.341934E+03 -7.594206E+03
       166   1 -6.199075E+05 -5.386084E+04 -5.465997E+04  1.931000E+04  1.378863E+03  8.701651E+03
       166   2 -6.568915E+05 -6.305535E+04 -6.585276E+04  9.551969E+03  4.820329E+03  1.043314E+04
       166   3 -6.953741E+05 -7.615984E+04 -8.028215E+04  2.095768E+04  8.263444E+03  1.162163E+04
       166   4 -4.004214E+05  2.857678E+02 -3.561248E+03  2.026479E+04  2.719187E+03  8.704557E+03
       166   5 -3.997065E+05  3.671590E+02 -6.077582E+03  9.687125E+03  5.797189E+03  1.043499E+04
       166   6 -4.004275E+05 -3.397194E+03 -1.157687E+04  2.027271E+04  8.877045E+03  1.162252E+04
       166   7 -1.808908E+05  5.442897E+04  4.753422E+04  2.121990E+04  4.059982E+03  8.707466E+03
       166   8 -1.424603E+05  6.378500E+04  5.369315E+04  9.822303E+03  6.774450E+03  1.043684E+04
       166   9 -1.054006E+05  6.935930E+04  5.712252E+04  1.958737E+04  9.490934E+03  1.162341E+04
       166  10 -6.199075E+05 -5.386092E+04 -5.466011E+04  1.930999E+04  7.958915E-09 -3.409118E-10
       166  11 -6.568916E+05 -6.305548E+04 -6.585301E+04  9.551929E+03  3.455745E-09  2.792819E-09
       166  12 -6.953742E+05 -7.616000E+04 -8.028253E+04  2.095761E+04  1.397005E-09 -4.020558E-09
       166  13 -4.004214E+05  2.856844E+02 -3.561405E+03  2.026477E+04  3.107922E-10 -3.990027E-09
       166  14 -3.997065E+05  3.670331E+02 -6.077849E+03  9.687076E+03  1.082823E-10  1.019127E-08
       166  15 -4.004277E+05 -3.397361E+03 -1.157728E+04  2.027263E+04 -9.288179E-14  3.660854E-09
       166  16 -1.808908E+05  5.442889E+04  4.753405E+04  2.121987E+04 -8.824017E-09 -5.699465E-10
       166  17 -1.424604E+05  6.378487E+04  5.369286E+04  9.822246E+03 -5.304618E-09 -1.115688E-08
       166  18 -1.054008E+05  6.935913E+04  5.712209E+04  1.958728E+04 -2.124001E-09 -1.000452E-09
       166  19 -6.199075E+05 -5.386084E+04 -5.465997E+04  1.931000E+04 -1.378863E+03 -8.701651E+03
       166  20 -6.568915E+05 -6.305535E+04 -6.585276E+04  9.551969E+03 -4.820329E+03 -1.043314E+04
       166  21 -6.953741E+05 -7.615984E+04 -8.028215E+04  2.095768E+04 -8.263444E+03 -1.162163E+04
       166  22 -4.004214E+05  2.857678E+02 -3.561248E+03  2.026479E+04 -2.719187E+03 -8.704557E+03
       166  23 -3.997065E+05  3.671590E+02 -6.077582E+03  9.687125E+03 -5.797189E+03 -1.043499E+04
       166  24 -4.004275E+05 -3.397194E+03 -1.157687E+04  2.027271E+04 -8.877045E+03 -1.162252E+04
       166  25 -1.808908E+05  5.442897E+04  4.753422E+04  2.121990E+04 -4.059982E+03 -8.707466E+03
       166  26 -1.424603E+05  6.378500E+04  5.369315E+04  9.822303E+03 -6.774450E+03 -1.043684E+04
       166  27 -1.054006E+05  6.935930E+04  5.712252E+04  1.958737E+04 -9.490934E+03 -1.162341E+04
       167   1 -7.362659E+05 -7.973505E+04 -9.159569E+04  1.339031E+04  7.271594E+03  1.391039E+04
       167   2 -7.664215E+05 -8.761475E+04 -1.098498E+05  1.455790E+04  2.670608E+04  1.443364E+04
       167   3 -8.113398E+05 -1.443705E+05 -1.529880E+05  3.641712E+04  4.615609E+04  4.797937E+03
       167   4 -4.031286E+05  2.420024E+03 -1.432945E+04  2.013923E+04  1.101158E+04  1.391746E+04
       167   5 -3.963505E+05  3.682979E+03 -2.356740E+04  9.832937E+03  2.363235E+04  1.442719E+04
       167   6 -4.031443E+05 -4.273105E+04 -5.294569E+04  2.021856E+04  3.627011E+04  4.779935E+03
       167   7 -6.988850E+04  8.456744E+04  6.292942E+04  2.689174E+04  1.475357E+04  1.392462E+04
       167   8 -2.615295E+04  9.497111E+04  6.270579E+04  5.105073E+03  2.055680E+04  1.442079E+04
       167   9  5.203951E+03  5.889709E+04  4.708495E+04  4.009253E+03  2.637764E+04  4.762457E+03
       167  10 -7.362660E+05 -7.973527E+04 -9.159615E+04  1.339023E+04  1.203174E-09 -5.285926E-09
       167  11 -7.664224E+05 -8.761517E+04 -1.098515E+05  1.455759E+04 -8.832166E-10 -2.915500E-09
       167  12 -8.113421E+05 -1.443711E+05 -1.529921E+05  3.641694E+04 -1.678135E-09  3.954010E-09
       167  13 -4.031288E+05  2.419783E+03 -1.433004E+04  2.013910E+04 -2.156714E-09  7.084591E-09
       167  14 -3.963512E+05  3.682605E+03 -2.356884E+04  9.832663E+03  1.617572E-09  4.621898E-09
       167  15 -4.031457E+05 -4.273143E+04 -5.294821E+04  2.021842E+04  6.243768E-10  4.220034E-09
       167  16 -6.988878E+04  8.456718E+04  6.292864E+04  2.689158E+04 -3.040908E-09  3.491126E-09
       167  17 -2.615345E+04  9.497078E+04  6.270460E+04  5.104835E+03 -9.126997E-10  4.487285E-09
       167  18  5.203198E+03  5.889688E+04  4.708360E+04  4.009151E+03  3.515159E-10 -4.041397E-10
       167  19 -7.362659E+05 -7.973505E+04 -9.159569E+04  1.339031E+04 -7.271594E+03 -1.391039E+04
       167  20 -7.664215E+05 -8.761475E+04 -1.098498E+05  1.455790E+04 -2.670608E+04 -1.443364E+04
       167  21 -8.113398E+05 -1.443705E+05 -1.529880E+05  3.641712E+04 -4.615609E+04 -4.797937E+03
       167  22 -4.031286E+05  2.420024E+03 -1.432945E+04  2.013923E+04 -1.101158E+04 -1.391746E+04
       167  23 -3.963505E+05  3.682979E+03 -2.356740E+04  9.832937E+03 -2.363235E+04 -1.442719E+04
       167  24 -4.031443E+05 -4.273105E+04 -5.294569E+04  2.021856E+04 -3.627011E+04 -4.779935E+03
       167  25 -6.988850E+04  8.456744E+04  6.292942E+04  2.689174E+04 -1.475357E+04 -1.392462E+04
       167  26 -2.615295E+04  9.497111E+04  6.270579E+04  5.105073E+03 -2.055680E+04 -1.442079E+04
       167  27  5.203951E+03  5.889709E+04  4.708495E+04  4.009253E+03 -2.637764E+04 -4.762457E+03
       168   1 -2.071037E+05 -8.002329E+05 -2.009414E+05  1.874453E+05 -8.508670E+03 -6.343423E+04
       168   2 -1.442336E+05 -6.272042E+05 -1.256698E+05  1.621899E+05 -2.610173E+04 -2.635384E+04
       168   3 -9.881761E+04 -4.632045E+05 -7.891228E+04  1.729689E+05 -2.525342E+04  1.076242E+04
       168   4 -2.126815E+04 -4.970455E+04 -2.285195E+04  1.738901E+05 -8.552988E+03 -1.721639E+04
       168   5 -5.215309E+03 -4.791243E+04 -1.017623E+04  1.558825E+05 -2.611269E+04 -1.196120E+04
       168   6 -1.077190E+03 -4.964065E+04 -3.890496E+03  1.739096E+05 -2.523803E+04 -6.681390E+03
       168   7  1.645287E+05  7.013465E+05  1.552064E+05  1.603184E+05 -8.599304E+03  2.905709E+04
       168   8  1.337826E+05  5.317007E+05  1.053013E+05  1.495691E+05 -2.612393E+04  2.444614E+03
       168   9  9.665378E+04  3.640904E+05  7.112565E+04  1.748510E+05 -2.522270E+04 -2.413651E+04
       168  10 -2.071048E+05 -8.002372E+05 -2.009491E+05  1.874449E+05  5.431297E-10  2.733632E-08
       168  11 -1.442345E+05 -6.272051E+05 -1.256724E+05  1.621894E+05 -1.206046E-09  1.568888E-09
       168  12 -9.881832E+04 -4.632048E+05 -7.891370E+04  1.729691E+05  1.395454E-09 -2.745762E-08
       168  13 -2.126831E+04 -4.970489E+04 -2.285264E+04  1.738899E+05  2.202819E-09  2.794659E-09
       168  14 -5.216080E+03 -4.791276E+04 -1.017778E+04  1.558823E+05  7.430109E-11  1.453211E-11
       168  15 -1.077886E+03 -4.964087E+04 -3.891776E+03  1.739095E+05 -1.406057E-09  1.446115E-09
       168  16  1.645284E+05  7.013456E+05  1.552047E+05  1.603186E+05 -4.788725E-10 -2.553149E-08
       168  17  1.337819E+05  5.317005E+05  1.053000E+05  1.495692E+05  1.844864E-09 -2.318481E-09
       168  18  9.665294E+04  3.640896E+05  7.112336E+04  1.748506E+05  5.108688E-10  2.582823E-08
       168  19 -2.071037E+05 -8.002329E+05 -2.009414E+05  1.874453E+05  8.508670E+03  6.343423E+04
       168  20 -1.442336E+05 -6.272042E+05 -1.256698E+05  1.621899E+05  2.610173E+04  2.635384E+04
       168  21 -9.881761E+04 -4.632045E+05 -7.891228E+04  1.729689E+05  2.525342E+04 -1.076242E+04
       168  22 -2.126815E+04 -4.970455E+04 -2.285195E+04  1.738901E+05  8.552988E+03  1.721639E+04
       168  23 -5.215309E+03 -4.791243E+04 -1.017623E+04  1.558825E+05  2.611269E+04  1.196120E+04
       168  24 -1.077190E+03 -4.964065E+04 -3.890496E+03  1.739096E+05  2.523803E+04  6.681390E+03
       168  25  1.645287E+05  7.013465E+05  1.552064E+05  1.603184E+05  8.599304E+03 -2.905709E+04
       168  26  1.337826E+05  5.317007E+05  1.053013E+05  1.495691E+05  2.612393E+04 -2.444614E+03
       168  27  9.665378E+04  3.640904E+05  7.112565E+04  1.748510E+05  2.522270E+04  2.413651E+04
       169   1 -7.293965E+04 -3.521237E+05 -5.617474E+04  1.744157E+05 -1.891479E+04  9.341405E+03
       169   2 -3.166211E+04 -1.838452E+05 -1.993900E+04  1.560496E+05 -9.547223E+03  8.820396E+03
       169   3  1.015935E+04 -1.523104E+04  1.679604E+04  1.748724E+05  3.943820E+02  8.298879E+03
       169   4 -1.328524E+03 -4.873643E+04 -1.580886E+03  1.741626E+05 -1.890207E+04 -6.344619E+03
       169   5 -8.427254E+01 -4.896942E+04  3.051520E+03  1.555697E+05 -9.534520E+03 -7.859053E+03
       169   6  1.877969E+03 -4.872119E+04  8.873947E+03  1.741651E+05  4.069511E+02 -9.373867E+03
       169   7  7.027759E+04  2.547411E+05  5.301032E+04  1.739094E+05 -1.888934E+04 -2.203810E+04
       169   8  3.149274E+04  8.592483E+04  2.604249E+04  1.550896E+05 -9.521792E+03 -2.454201E+04
       169   9 -6.403322E+03 -8.220964E+04  9.529501E+02  1.734578E+05  4.195608E+02 -2.704567E+04
       169  10 -7.294005E+04 -3.521239E+05 -5.617557E+04  1.744158E+05  1.807182E-09 -2.472806E-09
       169  11 -3.166222E+04 -1.838453E+05 -1.993932E+04  1.560497E+05  3.593355E-10  1.513810E-09
       169  12  1.015933E+04 -1.523112E+04  1.679591E+04  1.748724E+05  5.507483E-10 -1.535397E-10
       169  13 -1.328919E+03 -4.873657E+04 -1.581633E+03  1.741625E+05  1.927209E-09  1.728060E-09
       169  14 -8.438671E+01 -4.896951E+04  3.051233E+03  1.555696E+05 -5.515486E-10 -5.269759E-10
       169  15  1.877946E+03 -4.872129E+04  8.873781E+03  1.741651E+05  3.654338E-10  4.937090E-10
       169  16  7.027708E+04  2.547405E+05  5.300873E+04  1.739090E+05 -2.362798E-10  3.626514E-09
       169  17  3.149249E+04  8.592416E+04  2.604119E+04  1.550895E+05  1.164727E-09 -7.062419E-10
       169  18 -6.403518E+03 -8.221043E+04  9.515750E+02  1.734578E+05  2.768241E-09 -5.814553E-10
       169  19 -7.293965E+04 -3.521237E+05 -5.617474E+04  1.744157E+05  1.891479E+04 -9.341405E+03
       169  20 -3.166211E+04 -1.838452E+05 -1.993900E+04  1.560496E+05  9.547223E+03 -8.820396E+03
       169  21  1.015935E+04 -1.523104E+04  1.679604E+04  1.748724E+05 -3.943820E+02 -8.298879E+03
       169  22 -1.328524E+03 -4.873643E+04 -1.580886E+03  1.741626E+05  1.890207E+04  6.344619E+03
       169  23 -8.427254E+01 -4.896942E+04  3.051520E+03  1.555697E+05  9.534520E+03  7.859053E+03
       169  24  1.877969E+03 -4.872119E+04  8.873947E+03  1.741651E+05 -4.069511E+02  9.373867E+03
       169  25  7.027759E+04  2.547411E+05  5.301032E+04  1.739094E+05  1.888934E+04  2.203810E+04
       169  26  3.149274E+04  8.592483E+04  2.604249E+04  1.550896E+05  9.521792E+03  2.454201E+04
       169  27 -6.403322E+03 -8.220964E+04  9.529501E+02  1.734578E+05 -4.195608E+02  2.704567E+04
       170   1  3.561897E+04  9.642925E+04  4.041511E+04  1.714655E+05  7.066748E+03  7.827045E+03
       170   2  8.517277E+04  2.590421E+05  8.843088E+04  1.687483E+05  1.185740E+04 -2.569242E+04
       170   3  1.646060E+05  4.336211E+05  1.657560E+05  2.025473E+05  4.484749E+03 -5.923484E+04
       170   4  1.352462E+03 -4.698733E+04  1.251772E+04  1.740089E+05  7.080430E+03 -1.091801E+04
       170   5  1.032476E+04 -5.115390E+04  2.421673E+04  1.557718E+05  1.185660E+04 -2.341036E+04
       170   6  4.553711E+04 -4.702022E+04  5.063202E+04  1.740480E+05  4.468348E+03 -3.591655E+04
       170   7 -3.291507E+04 -1.903834E+05 -1.537932E+04  1.765518E+05  7.093959E+03 -2.965883E+04
       170   8 -6.452870E+04 -3.612584E+05 -4.000253E+04  1.428019E+05  1.185570E+04 -2.112942E+04
       170   9 -7.354511E+04 -5.274470E+05 -6.450581E+04  1.455709E+05  4.449804E+03 -1.261621E+04
       170  10  3.561890E+04  9.642917E+04  4.041490E+04  1.714654E+05  1.419014E-09  9.361918E-10
       170  11  8.517244E+04  2.590414E+05  8.842938E+04  1.687485E+05  2.015587E-09  1.190233E-09
       170  12  1.646050E+05  4.336173E+05  1.657494E+05  2.025475E+05 -7.522669E-10 -1.476493E-09
       170  13  1.352376E+03 -4.698747E+04  1.251740E+04  1.740090E+05  6.846695E-10  3.238949E-09
       170  14  1.032446E+04 -5.115453E+04  2.421544E+04  1.557720E+05  1.846608E-09  2.811094E-10
       170  15  4.553675E+04 -4.702161E+04  5.062956E+04  1.740482E+05  1.863706E-10  1.273719E-09
       170  16 -3.291536E+04 -1.903844E+05 -1.538107E+04  1.765520E+05  1.419321E-09  7.043643E-10
       170  17 -6.452897E+04 -3.612589E+05 -4.000364E+04  1.428021E+05  1.727484E-09 -3.305204E-09
       170  18 -7.354517E+04 -5.274472E+05 -6.450615E+04  1.455710E+05 -2.487011E-10 -4.573134E-10
       170  19  3.561897E+04  9.642925E+04  4.041511E+04  1.714655E+05 -7.066748E+03 -7.827045E+03
       170  20  8.517277E+04  2.590421E+05  8.843088E+04  1.687483E+05 -1.185740E+04  2.569242E+04
       170  21  1.646060E+05  4.336211E+05  1.657560E+05  2.025473E+05 -4.484749E+03  5.923484E+04
       170  22  1.352462E+03 -4.698733E+04  1.251772E+04  1.740089E+05 -7.080430E+03  1.091801E+04
       170  23  1.032476E+04 -5.115390E+04  2.421673E+04  1.557718E+05 -1.185660E+04  2.341036E+04
       170  24  4.553711E+04 -4.702022E+04  5.063202E+04  1.740480E+05 -4.468348E+03  3.591655E+04
       170  25 -3.291507E+04 -1.903834E+05 -1.537932E+04  1.765518E+05 -7.093959E+03  2.965883E+04
       170  26 -6.452870E+04 -3.612584E+05 -4.000253E+04  1.428019E+05 -1.185570E+04  2.112942E+04
       170  27 -7.354511E+04 -5.274470E+05 -6.450581E+04  1.455709E+05 -4.449804E+03  1.261621E+04
       171   1  8.579599E+05  3.184356E+05  2.052937E+05  3.043705E+05  8.346513E+04  2.679276E+04
       171   2  8.262717E+05  1.934833E+05  1.270579E+05  3.018230E+05  5.439023E+04  6.328599E+03
       171   3  8.250547E+05  1.791721E+05  9.999905E+04  2.866365E+05  2.202709E+04 -5.399051E+03
       171   4  5.505527E+05  1.706979E+05  1.161594E+05  1.877717E+05  7.544020E+04  2.376512E+04
       171   5  5.297087E+05  7.249374E+04  4.917549E+04  2.104545E+05  5.188063E+04  5.381548E+03
       171   6  5.382622E+05  8.386622E+04  2.901974E+04  2.204936E+05  2.503090E+04 -4.266752E+03
       171   7  2.432430E+05  2.298632E+04  2.701734E+04  7.123203E+04  6.741971E+04  2.074018E+04
       171   8  2.332327E+05 -4.848530E+04 -2.871412E+04  1.191274E+05  4.937234E+04  4.435090E+03
       171   9  2.515482E+05 -1.143896E+04 -4.196613E+04  1.543760E+05  2.803319E+04 -3.134872E+03
       171  10  8.579522E+05  3.184329E+05  2.052792E+05  3.043687E+05 -1.177943E-09 -1.435977E-09
       171  11  8.262685E+05  1.934825E+05  1.270522E+05  3.018227E+05 -1.707922E-09 -1.082766E-09
       171  12  8.250542E+05  1.791720E+05  9.999809E+04  2.866366E+05  1.454027E-09  2.026687E-09
       171  13  5.505464E+05  1.706958E+05  1.161476E+05  1.877702E+05 -7.899486E-10  4.867495E-10
       171  14  5.297059E+05  7.249298E+04  4.917038E+04  2.104543E+05  2.653009E-10  5.536362E-09
       171  15  5.382615E+05  8.386603E+04  2.901853E+04  2.204937E+05 -1.609404E-09  1.026852E-09
       171  16  2.432380E+05  2.298464E+04  2.700799E+04  7.123090E+04  9.580102E-10  4.036048E-09
       171  17  2.332301E+05 -4.848597E+04 -2.871874E+04  1.191272E+05 -1.572530E-09  1.672799E-09
       171  18  2.515474E+05 -1.143918E+04 -4.196762E+04  1.543761E+05  2.678218E-10 -9.833483E-10
       171  19  8.579599E+05  3.184356E+05  2.052937E+05  3.043705E+05 -8.346513E+04 -2.679276E+04
       171  20  8.262717E+05  1.934833E+05  1.270579E+05  3.018230E+05 -5.439023E+04 -6.328599E+03
       171  21  8.250547E+05  1.791721E+05  9.999905E+04  2.866365E+05 -2.202709E+04  5.399051E+03
       171  22  5.505527E+05  1.706979E+05  1.161594E+05  1.877717E+05 -7.544020E+04 -2.376512E+04
       171  23  5.297087E+05  7.249374E+04  4.917549E+04  2.104545E+05 -5.188063E+04 -5.381548E+03
       171  24  5.382622E+05  8.386622E+04  2.901974E+04  2.204936E+05 -2.503090E+04  4.266752E+03
       171  25  2.432430E+05  2.298632E+04  2.701734E+04  7.123203E+04 -6.741971E+04 -2.074018E+04
       171  26  2.332327E+05 -4.848530E+04 -2.871412E+04  1.191274E+05 -4.937234E+04 -4.435090E+03
       171  27  2.515482E+05 -1.143896E+04 -4.196613E+04  1.543760E+05 -2.803319E+04  3.134872E+03
       172   1  7.827913E+05  1.903310E+05  8.756845E+04  2.847011E+05  2.006674E+04 -3.989522E+03
       172   2  7.614297E+05  1.656846E+05  6.902168E+04  2.722941E+05  1.352774E+04 -5.620581E+03
       172   3  7.330222E+05  1.609973E+05  5.752177E+04  2.705460E+05  6.802518E+03 -6.758219E+03
       172   4  5.345197E+05  9.472984E+04  2.338332E+04  2.140688E+05  2.036688E+04 -3.876780E+03
       172   5  5.375420E+05  8.102345E+04  1.156774E+04  2.101577E+05  1.414103E+04 -5.389563E+03
       172   6  5.334573E+05  8.721636E+04  6.553218E+03  2.169051E+05  7.728657E+03 -6.408977E+03
       172   7  2.863080E+05 -8.664575E+02 -4.080693E+04  1.434623E+05  2.066690E+04 -3.764090E+03
       172   8  3.137036E+05 -3.634067E+03 -4.589020E+04  1.480417E+05  1.475407E+04 -5.158637E+03
       172   9  3.339319E+05  1.343794E+04 -4.441836E+04  1.632798E+05  8.654467E+03 -6.059855E+03
       172  10  7.827909E+05  1.903309E+05  8.756767E+04  2.847012E+05  2.530967E-09 -1.037657E-09
       172  11  7.614295E+05  1.656845E+05  6.902127E+04  2.722942E+05  1.880360E-09  5.538145E-09
       172  12  7.330222E+05  1.609973E+05  5.752159E+04  2.705460E+05 -3.227017E-09  2.994827E-09
       172  13  5.345192E+05  9.472971E+04  2.338251E+04  2.140689E+05  2.167963E-09  1.472027E-09
       172  14  5.375418E+05  8.102336E+04  1.156731E+04  2.101578E+05 -8.707253E-10  7.244261E-09
       172  15  5.334573E+05  8.721630E+04  6.553028E+03  2.169051E+05 -1.681775E-09  7.224990E-10
       172  16  2.863076E+05 -8.665873E+02 -4.080776E+04  1.434624E+05 -3.869854E-09 -4.226497E-09
       172  17  3.137033E+05 -3.634154E+03 -4.589066E+04  1.480418E+05 -3.739960E-09  5.813228E-09
       172  18  3.339318E+05  1.343788E+04 -4.441857E+04  1.632798E+05  1.210032E-09 -3.435252E-09
       172  19  7.827913E+05  1.903310E+05  8.756845E+04  2.847011E+05 -2.006674E+04  3.989522E+03
       172  20  7.614297E+05  1.656846E+05  6.902168E+04  2.722941E+05 -1.352774E+04  5.620581E+03
       172  21  7.330222E+05  1.609973E+05  5.752177E+04  2.705460E+05 -6.802518E+03  6.758219E+03
       172  22  5.345197E+05  9.472984E+04  2.338332E+04  2.140688E+05 -2.036688E+04  3.876780E+03
       172  23  5.375420E+05  8.102345E+04  1.156774E+04  2.101577E+05 -1.414103E+04  5.389563E+03
       172  24  5.334573E+05  8.721636E+04  6.553218E+03  2.169051E+05 -7.728657E+03  6.408977E+03
       172  25  2.863080E+05 -8.664575E+02 -4.080693E+04  1.434623E+05 -2.066690E+04  3.764090E+03
       172  26  3.137036E+05 -3.634067E+03 -4.589020E+04  1.480417E+05 -1.475407E+04  5.158637E+03
       172  27  3.339319E+05  1.343794E+04 -4.441836E+04  1.632798E+05 -8.654467E+03  6.059855E+03
       173   1  7.043898E+05  1.525380E+05  4.887299E+04  2.634989E+05  5.725637E+03 -6.246528E+03
       173   2  6.844327E+05  1.367534E+05  4.011699E+04  2.503648E+05  3.888586E+03 -5.531308E+03
       173   3  6.539109E+05  1.327970E+05  3.259158E+04  2.496426E+05  2.042273E+03 -4.792490E+03
       173   4  5.330719E+05  8.809944E+04  5.055933E+03  2.162861E+05  6.494017E+03 -5.956722E+03
       173   5  5.383125E+05  8.187502E+04  2.692975E+03  2.101982E+05  4.672230E+03 -5.235624E+03
       173   6  5.329853E+05  8.747615E+04  1.548956E+03  2.165223E+05  2.841122E+03 -4.490946E+03
       173   7  3.617819E+05  2.366259E+04 -3.876369E+04  1.690848E+05  7.262167E+03 -5.667004E+03
       173   8  3.922128E+05  2.699788E+04 -3.473286E+04  1.700401E+05  5.455674E+03 -4.940017E+03
       173   9  4.120740E+05  4.215619E+04 -2.949487E+04  1.834079E+05  3.639800E+03 -4.189467E+03
       173  10  7.043897E+05  1.525379E+05  4.887285E+04  2.634989E+05  6.148415E-09  7.113798E-09
       173  11  6.844326E+05  1.367534E+05  4.011690E+04  2.503648E+05  1.473707E-09  1.679405E-10
       173  12  6.539109E+05  1.327970E+05  3.259153E+04  2.496426E+05  6.921450E-11 -1.002818E-08
       173  13  5.330718E+05  8.809939E+04  5.055787E+03  2.162861E+05  3.176909E-10  1.327315E-09
       173  14  5.383125E+05  8.187498E+04  2.692882E+03  2.101983E+05  1.662912E-09  5.812522E-09
       173  15  5.329853E+05  8.747613E+04  1.548903E+03  2.165223E+05  2.175618E-09 -5.270001E-09
       173  16  3.617819E+05  2.366255E+04 -3.876385E+04  1.690848E+05 -4.371401E-09 -6.609722E-09
       173  17  3.922128E+05  2.699784E+04 -3.473296E+04  1.700401E+05  2.984196E-09  6.698972E-09
       173  18  4.120739E+05  4.215616E+04 -2.949493E+04  1.834079E+05  6.148062E-09  5.581041E-09
       173  19  7.043898E+05  1.525380E+05  4.887299E+04  2.634989E+05 -5.725637E+03  6.246528E+03
       173  20  6.844327E+05  1.367534E+05  4.011699E+04  2.503648E+05 -3.888586E+03  5.531308E+03
       173  21  6.539109E+05  1.327970E+05  3.259158E+04  2.496426E+05 -2.042273E+03  4.792490E+03
       173  22  5.330719E+05  8.809944E+04  5.055933E+03  2.162861E+05 -6.494017E+03  5.956722E+03
       173  23  5.383125E+05  8.187502E+04  2.692975E+03  2.101982E+05 -4.672230E+03  5.235624E+03
       173  24  5.329853E+05  8.747615E+04  1.548956E+03  2.165223E+05 -2.841122E+03  4.490946E+03
       173  25  3.617819E+05  2.366259E+04 -3.876369E+04  1.690848E+05 -7.262167E+03  5.667004E+03
       173  26  3.922128E+05  2.699788E+04 -3.473286E+04  1.700401E+05 -5.455674E+03  4.940017E+03
       173  27  4.120740E+05  4.215619E+04 -2.949487E+04  1.834079E+05 -3.639800E+03  4.189467E+03
       174   1  6.267902E+05  1.227557E+05  2.515417E+04  2.422473E+05  1.548499E+03 -4.139747E+03
       174   2  6.071508E+05  1.078119E+05  1.838932E+04  2.291317E+05  6.882424E+02 -3.034675E+03
       174   3  5.766300E+05  1.039076E+05  1.193234E+04  2.284611E+05 -1.718693E+02 -1.930397E+03
       174   4  5.329491E+05  8.752673E+04  1.212127E+03  2.164453E+05  2.336791E+03 -3.842133E+03
       174   5  5.383877E+05  8.198655E+04  7.773227E+02  2.102308E+05  1.476091E+03 -2.737176E+03
       174   6  5.329444E+05  8.748609E+04  6.508118E+02  2.164611E+05  6.155163E+02 -1.633015E+03
       174   7  4.391169E+05  5.229852E+04 -2.273053E+04  1.906469E+05  3.124950E+03 -3.544569E+03
       174   8  4.696292E+05  5.616152E+04 -1.683506E+04  1.913317E+05  2.263845E+03 -2.439713E+03
       174   9  4.892605E+05  7.106460E+04 -1.063092E+04  2.044619E+05  1.402844E+03 -1.335655E+03
       174  10  6.267902E+05  1.227556E+05  2.515413E+04  2.422473E+05 -5.857187E-09 -5.024733E-09
       174  11  6.071508E+05  1.078119E+05  1.838930E+04  2.291317E+05 -9.702636E-10  4.778782E-09
       174  12  5.766300E+05  1.039076E+05  1.193234E+04  2.284610E+05  1.269308E-09  3.887104E-09
       174  13  5.329491E+05  8.752672E+04  1.212089E+03  2.164453E+05  1.053526E-09 -1.734530E-09
       174  14  5.383877E+05  8.198654E+04  7.773045E+02  2.102308E+05 -2.861565E-09  4.977347E-09
       174  15  5.329444E+05  8.748609E+04  6.508061E+02  2.164611E+05 -5.912765E-09 -4.938351E-09
       174  16  4.391169E+05  5.229851E+04 -2.273058E+04  1.906469E+05  1.020190E-08 -1.115611E-09
       174  17  4.696292E+05  5.616151E+04 -1.683508E+04  1.913317E+05  2.459491E-09  1.671300E-09
       174  18  4.892605E+05  7.106460E+04 -1.063093E+04  2.044619E+05 -9.365948E-09  5.820951E-10
       174  19  6.267902E+05  1.227557E+05  2.515417E+04  2.422473E+05 -1.548499E+03  4.139747E+03
       174  20  6.071508E+05  1.078119E+05  1.838932E+04  2.291317E+05 -6.882424E+02  3.034675E+03
       174  21  5.766300E+05  1.039076E+05  1.193234E+04  2.284611E+05  1.718693E+02  1.930397E+03
       174  22  5.329491E+05  8.752673E+04  1.212127E+03  2.164453E+05 -2.336791E+03  3.842133E+03
       174  23  5.383877E+05  8.198655E+04  7.773227E+02  2.102308E+05 -1.476091E+03  2.737176E+03
       174  24  5.329444E+05  8.748609E+04  6.508118E+02  2.164611E+05 -6.155163E+02  1.633015E+03
       174  25  4.391169E+05  5.229852E+04 -2.273053E+04  1.906469E+05 -3.124950E+03  3.544569E+03
       174  26  4.696292E+05  5.616152E+04 -1.683506E+04  1.913317E+05 -2.263845E+03  2.439713E+03
       174  27  4.892605E+05  7.106460E+04 -1.063092E+04  2.044619E+05 -1.402844E+03  1.335655E+03
       175   1  5.497616E+05  9.379204E+04  4.887788E+03  2.210985E+05 -5.556603E+02 -1.244175E+03
       175   2  5.301734E+05  7.892120E+04 -1.200162E+03  2.079936E+05 -1.476152E+03 -1.647604E+02
       175   3  4.997403E+05  7.508157E+04 -6.931141E+03  2.073018E+05 -2.396228E+03  9.137488E+02
       175   4  5.329521E+05  8.747927E+04  6.723444E+02  2.164560E+05  2.310650E+02 -9.470253E+02
       175   5  5.383790E+05  8.199285E+04  8.997253E+02  2.102386E+05 -6.900328E+02  1.321515E+02
       175   6  5.329603E+05  8.753762E+04  1.484539E+03  2.164339E+05 -1.610734E+03  1.210417E+03
       175   7  5.161430E+05  8.116652E+04 -3.543118E+03  2.118136E+05  1.017767E+03 -6.498846E+02
       175   8  5.465847E+05  8.506450E+04  2.999605E+03  2.124835E+05  9.609640E+01  4.290671E+02
       175   9  5.661813E+05  9.999370E+04  9.900099E+03  2.255664E+05 -8.251972E+02  1.507102E+03
       175  10  5.497616E+05  9.379203E+04  4.887785E+03  2.210985E+05 -2.858507E-09 -5.480100E-09
       175  11  5.301734E+05  7.892120E+04 -1.200166E+03  2.079936E+05 -2.932929E-09 -2.196969E-09
       175  12  4.997403E+05  7.508157E+04 -6.931153E+03  2.073018E+05 -3.261134E-10 -3.345889E-09
       175  13  5.329521E+05  8.747927E+04  6.723426E+02  2.164560E+05 -6.062050E-09 -3.857228E-09
       175  14  5.383790E+05  8.199285E+04  8.997244E+02  2.102386E+05 -7.079114E-09 -6.638516E-09
       175  15  5.329603E+05  8.753762E+04  1.484531E+03  2.164339E+05  1.698308E-09 -8.629573E-09
       175  16  5.161430E+05  8.116652E+04 -3.543121E+03  2.118136E+05 -9.053781E-09 -2.219023E-10
       175  17  5.465847E+05  8.506450E+04  2.999604E+03  2.124835E+05 -2.777317E-10 -3.432897E-09
       175  18  5.661813E+05  9.999370E+04  9.900093E+03  2.255664E+05  7.820154E-09 -3.951510E-09
       175  19  5.497616E+05  9.379204E+04  4.887788E+03  2.210985E+05  5.556603E+02  1.244175E+03
       175  20  5.301734E+05  7.892120E+04 -1.200162E+03  2.079936E+05  1.476152E+03  1.647604E+02
       175  21  4.997403E+05  7.508157E+04 -6.931141E+03  2.073018E+05  2.396228E+03 -9.137488E+02
       175  22  5.329521E+05  8.747927E+04  6.723444E+02  2.164560E+05 -2.310650E+02  9.470253E+02
       175  23  5.383790E+05  8.199285E+04  8.997253E+02  2.102386E+05  6.900328E+02 -1.321515E+02
       175  24  5.329603E+05  8.753762E+04  1.484539E+03  2.164339E+05  1.610734E+03 -1.210417E+03
       175  25  5.161430E+05  8.116652E+04 -3.543118E+03  2.118136E+05 -1.017767E+03  6.498846E+02
       175  26  5.465847E+05  8.506450E+04  2.999605E+03  2.124835E+05 -9.609640E+01 -4.290671E+02
       175  27  5.661813E+05  9.999370E+04  9.900099E+03  2.255664E+05  8.251972E+02 -1.507102E+03
       176   1  4.728182E+05  6.497125E+04 -1.356670E+04  2.001166E+05 -2.959894E+03  1.535708E+03
       176   2  4.530737E+05  4.986787E+04 -1.844529E+04  1.867933E+05 -5.121279E+03  2.147774E+03
       176   3  4.229426E+05  4.671521E+04 -2.180661E+04  1.857536E+05 -7.274600E+03  2.739256E+03
       176   4  5.330214E+05  8.745703E+04  1.919813E+03  2.165126E+05 -2.166446E+03  1.835356E+03
       176   5  5.382691E+05  8.187708E+04  3.379900E+03  2.102207E+05 -4.341071E+03  2.442354E+03
       176   6  5.331327E+05  8.825046E+04  6.367748E+03  2.162122E+05 -6.507704E+03  3.028743E+03
       176   7  5.932283E+05  1.099431E+05  1.740609E+04  2.329102E+05 -1.372912E+03  2.135037E+03
       176   8  6.234718E+05  1.138868E+05  2.520455E+04  2.336511E+05 -3.560744E+03  2.736979E+03
       176   9  6.433347E+05  1.297865E+05  3.454112E+04  2.466757E+05 -5.740658E+03  3.318287E+03
       176  10  4.728182E+05  6.497125E+04 -1.356672E+04  2.001166E+05 -2.139252E-09 -6.495502E-09
       176  11  4.530736E+05  4.986785E+04 -1.844535E+04  1.867933E+05  1.637864E-09 -1.241063E-09
       176  12  4.229425E+05  4.671519E+04 -2.180672E+04  1.857537E+05  3.586689E-09  1.311103E-09
       176  13  5.330214E+05  8.745702E+04  1.919798E+03  2.165126E+05  7.454138E-10 -2.011502E-09
       176  14  5.382691E+05  8.187707E+04  3.379854E+03  2.102207E+05 -8.353073E-10 -1.464037E-09
       176  15  5.331327E+05  8.825044E+04  6.367652E+03  2.162122E+05 -4.821278E-10 -5.230792E-09
       176  16  5.932283E+05  1.099431E+05  1.740608E+04  2.329102E+05  7.510835E-09  8.718678E-10
       176  17  6.234718E+05  1.138868E+05  2.520451E+04  2.336511E+05 -1.707305E-09  1.849436E-09
       176  18  6.433346E+05  1.297865E+05  3.454104E+04  2.466757E+05 -2.753184E-09 -3.297625E-09
       176  19  4.728182E+05  6.497125E+04 -1.356670E+04  2.001166E+05  2.959894E+03 -1.535708E+03
       176  20  4.530737E+05  4.986787E+04 -1.844529E+04  1.867933E+05  5.121279E+03 -2.147774E+03
       176  21  4.229426E+05  4.671521E+04 -2.180661E+04  1.857536E+05  7.274600E+03 -2.739256E+03
       176  22  5.330214E+05  8.745703E+04  1.919813E+03  2.165126E+05  2.166446E+03 -1.835356E+03
       176  23  5.382691E+05  8.187708E+04  3.379900E+03  2.102207E+05  4.341071E+03 -2.442354E+03
       176  24  5.331327E+05  8.825046E+04  6.367748E+03  2.162122E+05  6.507704E+03 -3.028743E+03
       176  25  5.932283E+05  1.099431E+05  1.740609E+04  2.329102E+05  1.372912E+03 -2.135037E+03
       176  26  6.234718E+05  1.138868E+05  2.520455E+04  2.336511E+05  3.560744E+03 -2.736979E+03
       176  27  6.433347E+05  1.297865E+05  3.454112E+04  2.466757E+05  5.740658E+03 -3.318287E+03
       177   1  3.952184E+05  3.657382E+04 -2.700775E+04  1.804299E+05 -8.872478E+03  3.033059E+03
       177   2  3.751760E+05  1.916159E+04 -2.708767E+04  1.648395E+05 -1.658193E+04  1.518667E+03
       177   3  3.491372E+05  2.376074E+04 -1.879520E+04  1.592250E+05 -2.413853E+04 -3.988655E+02
       177   4  5.336363E+05  8.711871E+04  8.258491E+03  2.169736E+05 -7.977324E+03  3.370922E+03
       177   5  5.372821E+05  8.083088E+04  1.459023E+04  2.101949E+05 -1.594264E+04  1.759775E+03
       177   6  5.349802E+05  9.660269E+04  2.949523E+04  2.133915E+05 -2.375545E+04 -2.546449E+02
       177   7  6.720724E+05  1.376644E+05  4.352306E+04  2.535244E+05 -7.081954E+03  3.708861E+03
       177   8  6.994137E+05  1.425021E+05  5.626596E+04  2.555611E+05 -1.530317E+04  2.000954E+03
       177   9  7.208576E+05  1.694480E+05  7.778294E+04  2.675733E+05 -2.337224E+04 -1.103712E+02
       177  10  3.952183E+05  3.657379E+04 -2.700792E+04  1.804299E+05  2.951214E-09  5.429756E-10
       177  11  3.751757E+05  1.916151E+04 -2.708819E+04  1.648395E+05  1.173361E-10  4.924600E-09
       177  12  3.491365E+05  2.376059E+04 -1.879630E+04  1.592249E+05 -1.472051E-09  2.274200E-09
       177  13  5.336363E+05  8.711869E+04  8.258350E+03  2.169736E+05 -4.476038E-10 -5.940177E-09
       177  14  5.372818E+05  8.083081E+04  1.458974E+04  2.101950E+05  1.656882E-10  3.718333E-09
       177  15  5.349796E+05  9.660254E+04  2.949417E+04  2.133915E+05 -7.108998E-10  5.350502E-09
       177  16  6.720723E+05  1.376644E+05  4.352294E+04  2.535244E+05  1.238471E-10 -4.160075E-09
       177  17  6.994134E+05  1.425020E+05  5.626551E+04  2.555611E+05 -1.385126E-10  4.342740E-09
       177  18  7.208570E+05  1.694478E+05  7.778192E+04  2.675733E+05 -5.234059E-10  5.705567E-10
       177  19  3.952184E+05  3.657382E+04 -2.700775E+04  1.804299E+05  8.872478E+03 -3.033059E+03
       177  20  3.751760E+05  1.916159E+04 -2.708767E+04  1.648395E+05  1.658193E+04 -1.518667E+03
       177  21  3.491372E+05  2.376074E+04 -1.879520E+04  1.592250E+05  2.413853E+04  3.988655E+02
       177  22  5.336363E+05  8.711871E+04  8.258491E+03  2.169736E+05  7.977324E+03 -3.370922E+03
       177  23  5.372821E+05  8.083088E+04  1.459023E+04  2.101949E+05  1.594264E+04 -1.759775E+03
       177  24  5.349802E+05  9.660269E+04  2.949523E+04  2.133915E+05  2.375545E+04  2.546449E+02
       177  25  6.720724E+05  1.376644E+05  4.352306E+04  2.535244E+05  7.081954E+03 -3.708861E+03
       177  26  6.994137E+05  1.425021E+05  5.626596E+04  2.555611E+05  1.530317E+04 -2.000954E+03
       177  27  7.208576E+05  1.694480E+05  7.778294E+04  2.675733E+05  2.337224E+04  1.103712E+02
       178   1  3.129467E+05  1.326524E+04 -1.847609E+04  1.750833E+05 -3.195851E+04 -1.450268E+03
       178   2  2.954229E+05 -2.929570E+04  2.102837E+02  1.342775E+05 -6.134307E+04 -1.189461E+04
       178   3  3.171460E+05  6.242198E+04  7.441204E+04  7.399991E+04 -8.804024E+04 -2.946204E+04
       178   4  5.396983E+05  8.290043E+04  3.660532E+04  2.214940E+05 -2.937110E+04 -4.735150E+02
       178   5  5.274070E+05  7.008561E+04  6.203821E+04  2.105769E+05 -6.325321E+04 -1.261670E+04
       178   6  5.552314E+05  1.924062E+05  1.465325E+05  1.801929E+05 -9.444876E+04 -3.188496E+04
       178   7  7.665005E+05  1.525355E+05  9.168326E+04  2.679182E+05 -2.678264E+04  5.034691E+02
       178   8  7.594428E+05  1.694746E+05  1.238611E+05  2.869032E+05 -6.516412E+04 -1.333918E+04
       178   9  7.933727E+05  3.224137E+05  2.186469E+05  2.864273E+05 -1.008599E+05 -3.430989E+04
       178  10  3.129457E+05  1.326497E+04 -1.847801E+04  1.750833E+05 -1.519177E-09  2.567338E-09
       178  11  2.954188E+05 -2.929686E+04  2.029506E+02  1.342770E+05  2.452568E-09  2.773064E-09
       178  12  3.171374E+05  6.241897E+04  7.439586E+04  7.399782E+04 -3.789911E-10  1.199636E-09
       178  13  5.396974E+05  8.290019E+04  3.660370E+04  2.214940E+05 -6.316951E-11 -7.183228E-10
       178  14  5.274027E+05  7.008436E+04  6.203040E+04  2.105762E+05  2.541195E-10 -6.948797E-09
       178  15  5.552216E+05  1.924028E+05  1.465139E+05  1.801905E+05 -1.417881E-09  2.253647E-09
       178  16  7.664998E+05  1.525353E+05  9.168191E+04  2.679182E+05 -3.669018E-09  2.228890E-09
       178  17  7.594382E+05  1.694732E+05  1.238528E+05  2.869025E+05 -1.536804E-09 -7.100396E-09
       178  18  7.933615E+05  3.224097E+05  2.186256E+05  2.864246E+05 -2.751694E-09  4.560171E-10
       178  19  3.129467E+05  1.326524E+04 -1.847609E+04  1.750833E+05  3.195851E+04  1.450268E+03
       178  20  2.954229E+05 -2.929570E+04  2.102837E+02  1.342775E+05  6.134307E+04  1.189461E+04
       178  21  3.171460E+05  6.242198E+04  7.441204E+04  7.399991E+04  8.804024E+04  2.946204E+04
       178  22  5.396983E+05  8.290043E+04  3.660532E+04  2.214940E+05  2.937110E+04  4.735150E+02
       178  23  5.274070E+05  7.008561E+04  6.203821E+04  2.105769E+05  6.325321E+04  1.261670E+04
       178  24  5.552314E+05  1.924062E+05  1.465325E+05  1.801929E+05  9.444876E+04  3.188496E+04
       178  25  7.665005E+05  1.525355E+05  9.168326E+04  2.679182E+05  2.678264E+04 -5.034691E+02
       178  26  7.594428E+05  1.694746E+05  1.238611E+05  2.869032E+05  6.516412E+04  1.333918E+04
       178  27  7.933727E+05  3.224137E+05  2.186469E+05  2.864273E+05  1.008599E+05  3.430989E+04
       179   1 -1.688244E+05 -8.557144E+05 -1.704658E+05  9.521389E+04 -6.231861E+03 -2.631493E+04
       179   2 -1.100402E+05 -6.954020E+05 -1.152440E+05  4.680479E+04 -1.726380E+04 -1.007829E+04
       179   3 -7.223084E+04 -5.420142E+05 -7.577765E+04  8.577146E+04 -1.197716E+04  6.183891E+03
       179   4 -1.701843E+04 -2.467877E+05 -2.087270E+04  8.799627E+04 -6.248717E+03 -1.345367E+04
       179   5  1.304778E+03 -2.442486E+05 -9.950412E+03  4.432128E+04 -1.726519E+04 -8.166033E+03
       179   6  5.654113E+02 -2.467499E+05 -7.166589E+03  8.801945E+04 -1.196810E+04 -2.857223E+03
       179   7  1.347603E+05  3.624773E+05  1.286937E+05  8.077164E+04 -6.265866E+03 -5.798013E+02
       179   8  1.126354E+05  2.070927E+05  9.532937E+04  4.183601E+04 -1.726660E+04 -6.252396E+03
       179   9  7.335558E+04  4.859508E+04  6.143891E+04  9.026854E+04 -1.195911E+04 -1.190261E+04
       179  10 -1.688246E+05 -8.557151E+05 -1.704671E+05  9.521376E+04 -1.275805E-09  2.240664E-09
       179  11 -1.100406E+05 -6.954022E+05 -1.152447E+05  4.680465E+04 -1.534553E-10  9.589651E-10
       179  12 -7.223101E+04 -5.420143E+05 -7.577799E+04  8.577152E+04 -8.547242E-10  1.510684E-09
       179  13 -1.701852E+04 -2.467879E+05 -2.087311E+04  8.799620E+04 -6.490827E-11 -1.036284E-09
       179  14  1.304440E+03 -2.442487E+05 -9.951097E+03  4.432117E+04 -4.314741E-10 -8.808027E-11
       179  15  5.652554E+02 -2.467500E+05 -7.166873E+03  8.801943E+04 -9.870032E-10 -8.997155E-10
       179  16  1.347602E+05  3.624772E+05  1.286937E+05  8.077164E+04 -7.355843E-10 -6.124552E-10
       179  17  1.126351E+05  2.070925E+05  9.532874E+04  4.183593E+04 -2.643847E-09  3.173866E-09
       179  18  7.335539E+04  4.859489E+04  6.143837E+04  9.026843E+04 -3.404244E-09  8.818762E-10
       179  19 -1.688244E+05 -8.557144E+05 -1.704658E+05  9.521389E+04  6.231861E+03  2.631493E+04
       179  20 -1.100402E+05 -6.954020E+05 -1.152440E+05  4.680479E+04  1.726380E+04  1.007829E+04
       179  21 -7.223084E+04 -5.420142E+05 -7.577765E+04  8.577146E+04  1.197716E+04 -6.183891E+03
       179  22 -1.701843E+04 -2.467877E+05 -2.087270E+04  8.799627E+04  6.248717E+03  1.345367E+04
       179  23  1.304778E+03 -2.442486E+05 -9.950412E+03  4.432128E+04  1.726519E+04  8.166033E+03
       179  24  5.654113E+02 -2.467499E+05 -7.166589E+03  8.801945E+04  1.196810E+04  2.857223E+03
       179  25  1.347603E+05  3.624773E+05  1.286937E+05  8.077164E+04  6.265866E+03  5.798013E+02
       179  26  1.126354E+05  2.070927E+05  9.532937E+04  4.183601E+04  1.726660E+04  6.252396E+03
       179  27  7.335558E+04  4.859508E+04  6.143891E+04  9.026854E+04  1.195911E+04  1.190261E+04
       180   1 -3.497367E+04 -3.819795E+05 -3.825172E+04  8.906102E+04 -5.508709E+03  2.586197E+03
       180   2  5.383245E+03 -2.244854E+05 -1.241685E+03  4.407480E+04  8.363231E+02  5.639361E+03
       180   3  4.152539E+04 -6.818431E+04  3.277326E+04  8.706662E+04  7.129015E+03  8.693456E+03
       180   4 -1.417583E+03 -2.458845E+05 -6.624345E+03  8.814718E+04 -5.504782E+03 -1.695676E+03
       180   5  2.581014E+02 -2.452744E+05 -6.072175E+03  4.415752E+04  8.403319E+02  1.392338E+03
       180   6 -2.285487E+03 -2.458863E+05 -8.538016E+03  8.814634E+04  7.133033E+03  4.480530E+03
       180   7  3.213721E+04 -1.097724E+05  2.500185E+04  8.723314E+04 -5.500843E+03 -5.978481E+03
       180   8 -4.867063E+03 -2.660630E+05 -1.090263E+04  4.424024E+04  8.443396E+02 -2.854543E+03
       180   9 -4.609857E+04 -4.235592E+05 -4.985135E+04  8.922576E+04  7.137037E+03  2.688007E+02
       180  10 -3.497370E+04 -3.819795E+05 -3.825179E+04  8.906103E+04  4.379971E-10  3.161647E-09
       180  11  5.383236E+03 -2.244854E+05 -1.241746E+03  4.407479E+04  1.587085E-09 -2.083748E-09
       180  12  4.152531E+04 -6.818441E+04  3.277302E+04  8.706657E+04 -1.938047E-09 -2.486572E-09
       180  13 -1.417616E+03 -2.458845E+05 -6.624407E+03  8.814717E+04 -2.107960E-09  2.984416E-12
       180  14  2.581002E+02 -2.452744E+05 -6.072180E+03  4.415752E+04 -1.114692E-09 -3.165346E-09
       180  15 -2.285547E+03 -2.458864E+05 -8.538149E+03  8.814631E+04 -1.603439E-10  1.835447E-09
       180  16  3.213717E+04 -1.097725E+05  2.500172E+04  8.723311E+04 -2.631556E-09 -3.723821E-09
       180  17 -4.867066E+03 -2.660630E+05 -1.090264E+04  4.424024E+04 -1.047165E-09  1.435186E-09
       180  18 -4.609863E+04 -4.235592E+05 -4.985145E+04  8.922575E+04 -3.454624E-09  3.042055E-09
       180  19 -3.497367E+04 -3.819795E+05 -3.825172E+04  8.906102E+04  5.508709E+03 -2.586197E+03
       180  20  5.383245E+03 -2.244854E+05 -1.241685E+03  4.407480E+04 -8.363231E+02 -5.639361E+03
       180  21  4.152539E+04 -6.818431E+04  3.277326E+04  8.706662E+04 -7.129015E+03 -8.693456E+03
       180  22 -1.417583E+03 -2.458845E+05 -6.624345E+03  8.814718E+04  5.504782E+03  1.695676E+03
       180  23  2.581014E+02 -2.452744E+05 -6.072175E+03  4.415752E+04 -8.403319E+02 -1.392338E+03
       180  24 -2.285487E+03 -2.458863E+05 -8.538016E+03  8.814634E+04 -7.133033E+03 -4.480530E+03
       180  25  3.213721E+04 -1.097724E+05  2.500185E+04  8.723314E+04  5.500843E+03  5.978481E+03
       180  26 -4.867063E+03 -2.660630E+05 -1.090263E+04  4.424024E+04 -8.443396E+02  2.854543E+03
       180  27 -4.609857E+04 -4.235592E+05 -4.985135E+04  8.922576E+04 -7.137037E+03 -2.688007E+02
       181   1  8.420715E+04  8.949631E+04  6.830928E+04  9.168289E+04  1.370133E+04  1.531773E+04
       181   2  1.237184E+05  2.494758E+05  9.973182E+04  4.056770E+04  1.888199E+04  1.183406E+04
       181   3  1.350385E+05  4.033382E+05  1.264671E+05  7.675655E+04  6.764287E+03  8.326243E+03
       181   4  1.174604E+03 -2.474488E+05 -9.930778E+03  8.800989E+04  1.371090E+04  6.021227E+03
       181   5  2.148146E+03 -2.433882E+05 -1.521671E+04  4.433548E+04  1.888019E+04  1.416054E+04
       181   6 -2.709812E+04 -2.474912E+05 -3.326629E+04  8.797105E+04  6.744930E+03  2.227630E+04
       181   7 -8.186584E+04 -5.842888E+05 -8.817814E+04  8.433891E+04  1.372059E+04 -3.270267E+03
       181   8 -1.194393E+05 -7.360282E+05 -1.301817E+05  4.810031E+04  1.887841E+04  1.648518E+04
       181   9 -1.892657E+05 -8.979343E+05 -1.930301E+05  9.917389E+04  6.726068E+03  3.621175E+04
       181  10  8.420688E+04  8.949600E+04  6.830849E+04  9.168272E+04  9.708965E-11  4.193968E-10
       181  11  1.237180E+05  2.494756E+05  9.973089E+04  4.056752E+04 -1.322531E-09 -1.890080E-09
       181  12  1.350385E+05  4.033381E+05  1.264669E+05  7.675651E+04  5.851644E-10  2.805885E-09
       181  13  1.174392E+03 -2.474489E+05 -9.931199E+03  8.800982E+04 -2.030924E-09 -1.125805E-09
       181  14  2.147709E+03 -2.433886E+05 -1.521776E+04  4.433526E+04 -5.351653E-10  1.119910E-09
       181  15 -2.709831E+04 -2.474917E+05 -3.326731E+04  8.797093E+04  2.819496E-10  1.350962E-09
       181  16 -8.186605E+04 -5.842889E+05 -8.817852E+04  8.433895E+04 -2.619248E-09  7.013562E-10
       181  17 -1.194397E+05 -7.360286E+05 -1.301829E+05  4.810006E+04 -9.605405E-10  2.773797E-09
       181  18 -1.892661E+05 -8.979357E+05 -1.930326E+05  9.917370E+04 -1.268266E-09  1.969239E-09
       181  19  8.420715E+04  8.949631E+04  6.830928E+04  9.168289E+04 -1.370133E+04 -1.531773E+04
       181  20  1.237184E+05  2.494758E+05  9.973182E+04  4.056770E+04 -1.888199E+04 -1.183406E+04
       181  21  1.350385E+05  4.033382E+05  1.264671E+05  7.675655E+04 -6.764287E+03 -8.326243E+03
       181  22  1.174604E+03 -2.474488E+05 -9.930778E+03  8.800989E+04 -1.371090E+04 -6.021227E+03
       181  23  2.148146E+03 -2.433882E+05 -1.521671E+04  4.433548E+04 -1.888019E+04 -1.416054E+04
       181  24 -2.709812E+04 -2.474912E+05 -3.326629E+04  8.797105E+04 -6.744930E+03 -2.227630E+04
       181  25 -8.186584E+04 -5.842888E+05 -8.817814E+04  8.433891E+04 -1.372059E+04  3.270267E+03
       181  26 -1.194393E+05 -7.360282E+05 -1.301817E+05  4.810031E+04 -1.887841E+04 -1.648518E+04
       181  27 -1.892657E+05 -8.979343E+05 -1.930301E+05  9.917389E+04 -6.726068E+03 -3.621175E+04
       182   1  3.082090E+05  1.463374E+05  1.337054E+05  3.731306E+04  3.041229E+04 -1.011225E+04
       182   2  2.520882E+05  1.515690E+05  1.109163E+05  4.290940E+04  9.995719E+03 -3.389005E+04
       182   3  1.952255E+05  1.430799E+05  9.800276E+04  5.977329E+04 -1.042795E+04 -4.053978E+04
       182   4 -4.181523E+05 -3.294401E+04 -3.648599E+04  5.764776E+04 -2.545244E+04 -1.015304E+04
       182   5 -4.151918E+05 -7.615903E+03 -1.777665E+04  5.199954E+04 -1.626086E+04 -3.391517E+04
       182   6 -4.181220E+05 -1.158252E+03 -9.756237E+03  5.761958E+04 -7.078649E+03 -4.054004E+04
       182   7 -1.144020E+06 -2.122597E+05 -2.067015E+05  7.795842E+04 -8.125222E+04 -1.019752E+04
       182   8 -1.082042E+06 -1.668266E+05 -1.464877E+05  6.107959E+04 -4.248987E+04 -3.394107E+04
       182   9 -1.031101E+06 -1.454169E+05 -1.175288E+05  5.546797E+04 -3.732551E+03 -4.054033E+04
       182  10  3.082080E+05  1.463370E+05  1.337035E+05  3.731330E+04 -9.795998E-11 -9.953866E-11
       182  11  2.520878E+05  1.515678E+05  1.109140E+05  4.290967E+04  1.821457E-09 -1.254528E-09
       182  12  1.952249E+05  1.430781E+05  9.799947E+04  5.977295E+04 -2.535379E-10 -1.363317E-09
       182  13 -4.181530E+05 -3.294429E+04 -3.648740E+04  5.764755E+04  2.032024E-10  1.034509E-09
       182  14 -4.151924E+05 -7.617209E+03 -1.777931E+04  5.199910E+04  1.950176E-09 -1.980403E-10
       182  15 -4.181225E+05 -1.160029E+03 -9.759419E+03  5.761935E+04 -1.813635E-09  3.639542E-10
       182  16 -1.144027E+06 -2.122615E+05 -2.067141E+05  7.795775E+04 -1.157687E-09  5.152150E-10
       182  17 -1.082044E+06 -1.668283E+05 -1.464932E+05  6.107843E+04  1.295548E-09 -1.586033E-09
       182  18 -1.031102E+06 -1.454187E+05 -1.175319E+05  5.546785E+04 -1.393953E-10 -1.794480E-09
       182  19  3.082090E+05  1.463374E+05  1.337054E+05  3.731306E+04 -3.041229E+04  1.011225E+04
       182  20  2.520882E+05  1.515690E+05  1.109163E+05  4.290940E+04 -9.995719E+03  3.389005E+04
       182  21  1.952255E+05  1.430799E+05  9.800276E+04  5.977329E+04  1.042795E+04  4.053978E+04
       182  22 -4.181523E+05 -3.294401E+04 -3.648599E+04  5.764776E+04  2.545244E+04  1.015304E+04
       182  23 -4.151918E+05 -7.615903E+03 -1.777665E+04  5.199954E+04  1.626086E+04  3.391517E+04
       182  24 -4.181220E+05 -1.158252E+03 -9.756237E+03  5.761958E+04  7.078649E+03  4.054004E+04
       182  25 -1.144020E+06 -2.122597E+05 -2.067015E+05  7.795842E+04  8.125222E+04  1.019752E+04
       182  26 -1.082042E+06 -1.668266E+05 -1.464877E+05  6.107959E+04  4.248987E+04  3.394107E+04
       182  27 -1.031101E+06 -1.454169E+05 -1.175288E+05  5.546797E+04  3.732551E+03  4.054033E+04
       183   1  1.589782E+05  1.337031E+05  9.266141E+04  5.767302E+04 -7.430425E+03 -3.904369E+04
       183   2  1.025449E+05  1.212305E+05  8.376789E+04  5.189859E+04 -8.132791E+03 -3.731760E+04
       183   3  4.606851E+04  1.082269E+05  7.519884E+04  5.854142E+04 -8.837882E+03 -3.400598E+04
       183   4 -4.169210E+05 -1.505514E+03 -7.416545E+03  5.787838E+04 -5.812019E+03 -3.904525E+04
       183   5 -4.166502E+05 -1.946184E+02 -4.080239E+03  5.166847E+04 -3.775511E+03 -3.731555E+04
       183   6 -4.169009E+05  1.096198E+02 -2.322160E+03  5.787649E+04 -1.741744E+03 -3.399964E+04
       183   7 -9.924949E+05 -1.367321E+05 -1.075061E+05  5.808345E+04 -4.195066E+03 -3.904682E+04
       183   8 -9.355798E+05 -1.216339E+05 -9.193697E+04  5.143847E+04  5.782434E+02 -3.731350E+04
       183   9 -8.796586E+05 -1.080188E+05 -7.984963E+04  5.721200E+04  5.349277E+03 -3.399332E+04
       183  10  1.589777E+05  1.337014E+05  9.265844E+04  5.767278E+04 -4.525446E-09 -2.212905E-09
       183  11  1.025445E+05  1.212290E+05  8.376515E+04  5.189834E+04  1.300355E-09  4.942939E-10
       183  12  4.606812E+04  1.082256E+05  7.519652E+04  5.854118E+04  2.267945E-10 -3.734458E-10
       183  13 -4.169214E+05 -1.507160E+03 -7.419473E+03  5.787820E+04  5.132123E-10 -1.159262E-09
       183  14 -4.166506E+05 -1.961172E+02 -4.082882E+03  5.166836E+04  2.615858E-10 -1.675936E-10
       183  15 -4.169012E+05  1.083779E+02 -2.324338E+03  5.787644E+04  4.359570E-10 -1.931871E-09
       183  16 -9.924953E+05 -1.367337E+05 -1.075090E+05  5.808332E+04  3.630608E-09  9.877948E-11
       183  17 -9.355801E+05 -1.216354E+05 -9.193959E+04  5.143849E+04 -2.322602E-10  6.424967E-10
       183  18 -8.796590E+05 -1.080201E+05 -7.985185E+04  5.721215E+04 -6.804976E-11 -1.387499E-10
       183  19  1.589782E+05  1.337031E+05  9.266141E+04  5.767302E+04  7.430425E+03  3.904369E+04
       183  20  1.025449E+05  1.212305E+05  8.376789E+04  5.189859E+04  8.132791E+03  3.731760E+04
       183  21  4.606851E+04  1.082269E+05  7.519884E+04  5.854142E+04  8.837882E+03  3.400598E+04
       183  22 -4.169210E+05 -1.505514E+03 -7.416545E+03  5.787838E+04  5.812019E+03  3.904525E+04
       183  23 -4.166502E+05 -1.946184E+02 -4.080239E+03  5.166847E+04  3.775511E+03  3.731555E+04
       183  24 -4.169009E+05  1.096198E+02 -2.322160E+03  5.787649E+04  1.741744E+03  3.399964E+04
       183  25 -9.924949E+05 -1.367321E+05 -1.075061E+05  5.808345E+04  4.195066E+03  3.904682E+04
       183  26 -9.355798E+05 -1.216339E+05 -9.193697E+04  5.143847E+04 -5.782434E+02  3.731350E+04
       183  27 -8.796586E+05 -1.080188E+05 -7.984963E+04  5.721200E+04 -5.349277E+03  3.399332E+04
       184   1  9.457433E+03  9.957155E+04  6.930574E+04  5.839298E+04 -8.326670E+03 -3.158156E+04
       184   2 -4.704263E+04  8.640072E+04  6.052221E+04  5.206732E+04 -8.086032E+03 -2.749224E+04
       184   3 -1.035898E+05  7.325275E+04  5.158098E+04  5.827950E+04 -7.846697E+03 -2.325476E+04
       184   4 -4.167998E+05  8.676629E+01 -1.764831E+03  5.790349E+04 -1.387903E+03 -3.157477E+04
       184   5 -4.167454E+05  1.343824E+02 -1.010430E+03  5.163431E+04 -8.918204E+02 -2.748420E+04
       184   6 -4.167857E+05  1.605658E+02 -5.914469E+02  5.790340E+04 -3.970192E+02 -2.324543E+04
       184   7 -8.428774E+05 -9.940746E+04 -7.284078E+04  5.741429E+04  5.546259E+03 -3.156798E+04
       184   8 -7.863130E+05 -8.613904E+04 -6.254703E+04  5.120151E+04  6.298250E+03 -2.747617E+04
       184   9 -7.298846E+05 -7.293669E+04 -5.276666E+04  5.752745E+04  7.049025E+03 -2.323610E+04
       184  10  9.457091E+03  9.957046E+04  6.930373E+04  5.839277E+04 -4.017274E-09  5.497859E-10
       184  11 -4.704290E+04  8.639989E+04  6.052066E+04  5.206714E+04  1.918054E-09  1.894829E-09
       184  12 -1.035900E+05  7.325215E+04  5.157985E+04  5.827935E+04  2.621827E-09 -3.561343E-10
       184  13 -4.168000E+05  8.569542E+01 -1.766708E+03  5.790346E+04  9.393421E-10 -2.324661E-09
       184  14 -4.167456E+05  1.335712E+02 -1.011850E+03  5.163429E+04 -3.338170E-10  1.576999E-09
       184  15 -4.167859E+05  1.599856E+02 -5.924624E+02  5.790339E+04  1.035514E-09  2.739562E-09
       184  16 -8.428777E+05 -9.940853E+04 -7.284271E+04  5.741443E+04  1.886591E-09  6.665042E-10
       184  17 -7.863132E+05 -8.613986E+04 -6.254852E+04  5.120165E+04 -1.223733E-09  1.701062E-09
       184  18 -7.298848E+05 -7.293729E+04 -5.276776E+04  5.752758E+04 -2.973356E-09  1.367919E-10
       184  19  9.457433E+03  9.957155E+04  6.930574E+04  5.839298E+04  8.326670E+03  3.158156E+04
       184  20 -4.704263E+04  8.640072E+04  6.052221E+04  5.206732E+04  8.086032E+03  2.749224E+04
       184  21 -1.035898E+05  7.325275E+04  5.158098E+04  5.827950E+04  7.846697E+03  2.325476E+04
       184  22 -4.167998E+05  8.676629E+01 -1.764831E+03  5.790349E+04  1.387903E+03  3.157477E+04
       184  23 -4.167454E+05  1.343824E+02 -1.010430E+03  5.163431E+04  8.918204E+02  2.748420E+04
       184  24 -4.167857E+05  1.605658E+02 -5.914469E+02  5.790340E+04  3.970192E+02  2.324543E+04
       184  25 -8.428774E+05 -9.940746E+04 -7.284078E+04  5.741429E+04 -5.546259E+03  3.156798E+04
       184  26 -7.863130E+05 -8.613904E+04 -6.254703E+04  5.120151E+04 -6.298250E+03  2.747617E+04
       184  27 -7.298846E+05 -7.293669E+04 -5.276666E+04  5.752745E+04 -7.049025E+03  2.323610E+04
       185   1 -1.402549E+05  6.464836E+04  4.536865E+04  5.823604E+04 -7.742201E+03 -2.074185E+04
       185   2 -1.968093E+05  5.146018E+04  3.623704E+04  5.188705E+04 -7.626254E+03 -1.643035E+04
       185   3 -2.534037E+05  3.830916E+04  2.702861E+04  5.809723E+04 -7.511010E+03 -1.210491E+04
       185   4 -4.167712E+05  1.618180E+02 -4.598849E+02  5.790811E+04 -3.052872E+02 -2.073208E+04
       185   5 -4.167430E+05  1.517965E+02 -2.938327E+02  5.162840E+04 -1.656800E+02 -1.641998E+04
       185   6 -4.167629E+05  1.746933E+02 -2.214694E+02  5.790810E+04 -2.676507E+01 -1.209393E+04
       185   7 -6.932117E+05 -6.432865E+04 -4.629050E+04  5.758031E+04  7.128425E+03 -2.072231E+04
       185   8 -6.366287E+05 -5.115907E+04 -3.682596E+04  5.136982E+04  7.292339E+03 -1.640961E+04
       185   9 -5.800956E+05 -3.796113E+04 -2.747216E+04  5.771902E+04  7.455575E+03 -1.208294E+04
       185  10 -1.402551E+05  6.464788E+04  4.536772E+04  5.823591E+04  1.461978E-09 -4.798420E-10
       185  11 -1.968095E+05  5.145988E+04  3.623643E+04  5.188695E+04  3.873163E-11  3.910554E-09
       185  12 -2.534038E+05  3.830899E+04  2.702823E+04  5.809715E+04  2.952689E-10  3.488461E-09
       185  13 -4.167713E+05  1.613565E+02 -4.606926E+02  5.790811E+04  7.034477E-10 -3.991817E-10
       185  14 -4.167430E+05  1.515071E+02 -2.943393E+02  5.162840E+04  2.023803E-09  3.585029E-09
       185  15 -4.167629E+05  1.745363E+02 -2.217442E+02  5.790810E+04 -1.976245E-09  2.932645E-10
       185  16 -6.932119E+05 -6.432913E+04 -4.629140E+04  5.758043E+04  1.880191E-10 -3.808811E-10
       185  17 -6.366288E+05 -5.115937E+04 -3.682657E+04  5.136992E+04  8.876645E-11  2.319051E-10
       185  18 -5.800957E+05 -3.796131E+04 -2.747254E+04  5.771909E+04  3.562775E-09  3.339608E-10
       185  19 -1.402549E+05  6.464836E+04  4.536865E+04  5.823604E+04  7.742201E+03  2.074185E+04
       185  20 -1.968093E+05  5.146018E+04  3.623704E+04  5.188705E+04  7.626254E+03  1.643035E+04
       185  21 -2.534037E+05  3.830916E+04  2.702861E+04  5.809723E+04  7.511010E+03  1.210491E+04
       185  22 -4.167712E+05  1.618180E+02 -4.598849E+02  5.790811E+04  3.052872E+02  2.073208E+04
       185  23 -4.167430E+05  1.517965E+02 -2.938327E+02  5.162840E+04  1.656800E+02  1.641998E+04
       185  24 -4.167629E+05  1.746933E+02 -2.214694E+02  5.790810E+04  2.676507E+01  1.209393E+04
       185  25 -6.932117E+05 -6.432865E+04 -4.629050E+04  5.758031E+04 -7.128425E+03  2.072231E+04
       185  26 -6.366287E+05 -5.115907E+04 -3.682596E+04  5.136982E+04 -7.292339E+03  1.640961E+04
       185  27 -5.800956E+05 -3.796113E+04 -2.747216E+04  5.771902E+04 -7.455575E+03  1.208294E+04
       186   1 -2.900992E+05  2.970225E+04  2.069815E+04  5.805413E+04 -7.475563E+03 -9.582464E+03
       186   2 -3.466707E+05  1.650943E+04  1.138237E+04  5.169430E+04 -7.349180E+03 -5.252650E+03
       186   3 -4.032930E+05  3.348546E+03  1.979224E+03  5.790184E+04 -7.223011E+03 -9.295025E+02
       186   4 -4.167615E+05  1.772680E+02 -2.127560E+02  5.790989E+04  9.004346E+00 -9.571255E+03
       186   5 -4.167346E+05  1.650819E+02 -2.447237E+02  5.162616E+04  1.235906E+02 -5.241278E+03
       186   6 -4.167588E+05  1.872059E+02 -3.557544E+02  5.790988E+04  2.379735E+02 -9.179637E+02
       186   7 -5.434078E+05 -2.934851E+04 -2.112392E+04  5.776567E+04  7.492096E+03 -9.560047E+03
       186   8 -4.867935E+05 -1.617949E+04 -1.187176E+04  5.155803E+04  7.595546E+03 -5.229905E+03
       186   9 -4.302244E+05 -2.974114E+03 -2.690529E+03  5.791792E+04  7.698801E+03 -9.064246E+02
       186  10 -2.900993E+05  2.970213E+04  2.069787E+04  5.805407E+04  5.638822E-09  6.801563E-10
       186  11 -3.466708E+05  1.650939E+04  1.138222E+04  5.169427E+04  4.869382E-09 -2.633812E-09
       186  12 -4.032931E+05  3.348531E+03  1.979124E+03  5.790183E+04 -5.461922E-10 -4.021502E-09
       186  13 -4.167615E+05  1.771697E+02 -2.129281E+02  5.790989E+04  4.496771E-10  3.718995E-09
       186  14 -4.167346E+05  1.650524E+02 -2.447754E+02  5.162616E+04  1.617397E-09 -1.227738E-09
       186  15 -4.167588E+05  1.872050E+02 -3.557561E+02  5.790988E+04 -6.092144E-10 -3.558850E-09
       186  16 -5.434079E+05 -2.934862E+04 -2.112420E+04  5.776573E+04 -6.301660E-09  1.591352E-09
       186  17 -4.867936E+05 -1.617954E+04 -1.187192E+04  5.155806E+04 -2.064594E-09 -1.440881E-09
       186  18 -4.302244E+05 -2.974130E+03 -2.690642E+03  5.791792E+04  1.810946E-09 -3.002417E-09
       186  19 -2.900992E+05  2.970225E+04  2.069815E+04  5.805413E+04  7.475563E+03  9.582464E+03
       186  20 -3.466707E+05  1.650943E+04  1.138237E+04  5.169430E+04  7.349180E+03  5.252650E+03
       186  21 -4.032930E+05  3.348546E+03  1.979224E+03  5.790184E+04  7.223011E+03  9.295025E+02
       186  22 -4.167615E+05  1.772680E+02 -2.127560E+02  5.790989E+04 -9.004346E+00  9.571255E+03
       186  23 -4.167346E+05  1.650819E+02 -2.447237E+02  5.162616E+04 -1.235906E+02  5.241278E+03
       186  24 -4.167588E+05  1.872059E+02 -3.557544E+02  5.790988E+04 -2.379735E+02  9.179637E+02
       186  25 -5.434078E+05 -2.934851E+04 -2.112392E+04  5.776567E+04 -7.492096E+03  9.560047E+03
       186  26 -4.867935E+05 -1.617949E+04 -1.187176E+04  5.155803E+04 -7.595546E+03  5.229905E+03
       186  27 -4.302244E+05 -2.974114E+03 -2.690529E+03  5.791792E+04 -7.698801E+03  9.064246E+02
       187   1 -4.400053E+05 -5.261752E+03 -4.460820E+03  5.784570E+04 -7.162810E+03  1.589701E+03
       187   2 -4.965381E+05 -1.846739E+04 -1.410145E+04  5.148631E+04 -6.641139E+03  5.870825E+03
       187   3 -5.531882E+05 -3.170503E+04 -2.410281E+04  5.768824E+04 -6.119148E+03  1.006220E+04
       187   4 -4.167683E+05  1.903354E+02 -4.496631E+02  5.790848E+04  3.068413E+02  1.601246E+03
       187   5 -4.167231E+05  1.739473E+02 -7.533264E+02  5.162790E+04  6.732528E+02  5.881924E+03
       187   6 -4.167714E+05  1.526521E+02 -1.309930E+03  5.790854E+04  1.040029E+03  1.007287E+04
       187   7 -3.935307E+05  5.642424E+03  3.561686E+03  5.797126E+04  7.776764E+03  1.612792E+03
       187   8 -3.369018E+05  1.881498E+04  1.259480E+04  5.176951E+04  7.988554E+03  5.893026E+03
       187   9 -2.803362E+05  3.200939E+04  2.148257E+04  5.812889E+04  8.200728E+03  1.008353E+04
       187  10 -4.400053E+05 -5.261769E+03 -4.460922E+03  5.784571E+04 -2.383139E-08 -3.689833E-10
       187  11 -4.965381E+05 -1.846744E+04 -1.410159E+04  5.148634E+04  3.769581E-08  2.108348E-09
       187  12 -5.531882E+05 -3.170515E+04 -2.410307E+04  5.768829E+04  8.924645E-08  4.321760E-09
       187  13 -4.167683E+05  1.903326E+02 -4.496681E+02  5.790848E+04  7.358659E-10 -1.414300E-09
       187  14 -4.167231E+05  1.739100E+02 -7.533923E+02  5.162790E+04 -2.542775E-09  2.185132E-09
       187  15 -4.167715E+05  1.525429E+02 -1.310123E+03  5.790853E+04 -1.112424E-09  5.288875E-09
       187  16 -3.935308E+05  5.642405E+03  3.561567E+03  5.797125E+04  2.255198E-08  3.659309E-10
       187  17 -3.369019E+05  1.881493E+04  1.259461E+04  5.176947E+04 -3.790999E-08 -2.751550E-09
       187  18 -2.803363E+05  3.200926E+04  2.148225E+04  5.812882E+04 -9.204618E-08  2.337873E-09
       187  19 -4.400053E+05 -5.261752E+03 -4.460820E+03  5.784570E+04  7.162810E+03 -1.589701E+03
       187  20 -4.965381E+05 -1.846739E+04 -1.410145E+04  5.148631E+04  6.641139E+03 -5.870825E+03
       187  21 -5.531882E+05 -3.170503E+04 -2.410281E+04  5.768824E+04  6.119148E+03 -1.006220E+04
       187  22 -4.167683E+05  1.903354E+02 -4.496631E+02  5.790848E+04 -3.068413E+02 -1.601246E+03
       187  23 -4.167231E+05  1.739473E+02 -7.533264E+02  5.162790E+04 -6.732528E+02 -5.881924E+03
       187  24 -4.167714E+05  1.526521E+02 -1.309930E+03  5.790854E+04 -1.040029E+03 -1.007287E+04
       187  25 -3.935307E+05  5.642424E+03  3.561686E+03  5.797126E+04 -7.776764E+03 -1.612792E+03
       187  26 -3.369018E+05  1.881498E+04  1.259480E+04  5.176951E+04 -7.988554E+03 -5.893026E+03
       187  27 -2.803362E+05  3.200939E+04  2.148257E+04  5.812889E+04 -8.200728E+03 -1.008353E+04
       188   1 -5.899943E+05 -4.031942E+04 -3.092962E+04  5.751698E+04 -5.955180E+03  1.252883E+04
       188   2 -6.462068E+05 -5.382085E+04 -4.216065E+04  5.154691E+04 -2.779478E+03  1.625098E+04
       188   3 -7.031230E+05 -6.834776E+04 -5.572764E+04  5.806960E+04  3.977664E+02  1.900387E+04
       188   4 -4.168455E+05  1.729596E+02 -1.722080E+03  5.789302E+04  1.300633E+03  1.253941E+04
       188   5 -4.166417E+05 -5.177487E+01 -3.020937E+03  5.164763E+04  2.803079E+03  1.625856E+04
       188   6 -4.168546E+05 -1.011134E+03 -5.492858E+03  5.789475E+04  4.307370E+03  1.900865E+04
       188   7 -2.436669E+05  4.066379E+04  2.748470E+04  5.826915E+04  8.558406E+03  1.254999E+04
       188   8 -1.870246E+05  5.371452E+04  3.611716E+04  5.174837E+04  8.387636E+03  1.626614E+04
       188   9 -1.305059E+05  6.632103E+04  4.473903E+04  5.771978E+04  8.218724E+03  1.901341E+04
       188  10 -5.899944E+05 -4.031960E+04 -3.092998E+04  5.751704E+04 -9.556068E-08  6.843079E-09
       188  11 -6.462069E+05 -5.382114E+04 -4.216117E+04  5.154695E+04 -3.886028E-08  2.043033E-09
       188  12 -7.031231E+05 -6.834815E+04 -5.572832E+04  5.806960E+04  2.178472E-08  9.279933E-10
       188  13 -4.168455E+05  1.727903E+02 -1.722378E+03  5.789300E+04 -2.414658E-09  4.863068E-09
       188  14 -4.166418E+05 -5.206077E+01 -3.021448E+03  5.164760E+04 -3.061764E-09  2.154500E-09
       188  15 -4.168547E+05 -1.011527E+03 -5.493571E+03  5.789468E+04  2.486995E-09 -1.707143E-09
       188  16 -2.436671E+05  4.066360E+04  2.748427E+04  5.826906E+04  9.393851E-08  3.534813E-09
       188  17 -1.870247E+05  5.371421E+04  3.611653E+04  5.174826E+04  3.881939E-08  2.806389E-10
       188  18 -1.305060E+05  6.632062E+04  4.473822E+04  5.771966E+04 -2.272523E-08 -5.046496E-09
       188  19 -5.899943E+05 -4.031942E+04 -3.092962E+04  5.751698E+04  5.955180E+03 -1.252883E+04
       188  20 -6.462068E+05 -5.382085E+04 -4.216065E+04  5.154691E+04  2.779478E+03 -1.625098E+04
       188  21 -7.031230E+05 -6.834776E+04 -5.572764E+04  5.806960E+04 -3.977664E+02 -1.900387E+04
       188  22 -4.168455E+05  1.729596E+02 -1.722080E+03  5.789302E+04 -1.300633E+03 -1.253941E+04
       188  23 -4.166417E+05 -5.177487E+01 -3.020937E+03  5.164763E+04 -2.803079E+03 -1.625856E+04
       188  24 -4.168546E+05 -1.011134E+03 -5.492858E+03  5.789475E+04 -4.307370E+03 -1.900865E+04
       188  25 -2.436669E+05  4.066379E+04  2.748470E+04  5.826915E+04 -8.558406E+03 -1.254999E+04
       188  26 -1.870246E+05  5.371452E+04  3.611716E+04  5.174837E+04 -8.387636E+03 -1.626614E+04
       188  27 -1.305059E+05  6.632103E+04  4.473903E+04  5.771978E+04 -8.218724E+03 -1.901341E+04
       189   1 -7.411954E+05 -7.697038E+04 -6.463013E+04  5.613252E+04  2.767804E+02  2.090187E+04
       189   2 -7.940296E+05 -9.603282E+04 -8.698688E+04  5.852532E+04  2.515530E+04  1.857317E+04
       189   3 -8.544096E+05 -1.322230E+05 -1.298380E+05  7.271656E+04  5.004316E+04  5.766860E+03
       189   4 -4.177441E+05 -7.511719E+02 -7.225901E+03  5.773664E+04  5.243722E+03  2.090780E+04
       189   5 -4.155526E+05 -5.541064E+03 -1.316320E+04  5.185271E+04  1.203846E+04  1.855470E+04
       189   6 -4.177628E+05 -2.431095E+04 -2.702358E+04  5.776768E+04  1.884498E+04  5.726249E+03
       189   7 -9.419044E+04  7.546229E+04  5.017452E+04  5.934158E+04  1.021318E+04  2.091376E+04
       189   8 -3.693745E+04  8.494236E+04  6.065434E+04  4.517588E+04 -1.086217E+03  1.853652E+04
       189   9  1.906236E+04  8.358886E+04  7.578155E+04  4.280815E+04 -1.237505E+04  5.687157E+03
       189  10 -7.411955E+05 -7.697085E+04 -6.463095E+04  5.613252E+04 -4.464239E-09  4.233308E-10
       189  11 -7.940304E+05 -9.603336E+04 -8.698872E+04  5.852494E+04 -6.450385E-10 -2.228273E-09
       189  12 -8.544123E+05 -1.322237E+05 -1.298428E+05  7.271633E+04  2.190821E-10 -6.696850E-10
       189  13 -4.177443E+05 -7.516486E+02 -7.226774E+03  5.773655E+04  2.568271E-09  1.506407E-09
       189  14 -4.155528E+05 -5.541472E+03 -1.316412E+04  5.185253E+04 -5.678080E-10 -2.786054E-09
       189  15 -4.177631E+05 -2.431108E+04 -2.702431E+04  5.776759E+04  2.961991E-11  4.545882E-10
       189  16 -9.419067E+04  7.546180E+04  5.017351E+04  5.934141E+04  5.246035E-09 -2.274025E-09
       189  17 -3.693754E+04  8.494199E+04  6.065369E+04  4.517590E+04  1.268504E-10 -5.027113E-11
       189  18  1.906219E+04  8.358879E+04  7.578120E+04  4.280820E+04 -1.382529E-10 -4.963049E-10
       189  19 -7.411954E+05 -7.697038E+04 -6.463013E+04  5.613252E+04 -2.767804E+02 -2.090187E+04
       189  20 -7.940296E+05 -9.603282E+04 -8.698688E+04  5.852532E+04 -2.515530E+04 -1.857317E+04
       189  21 -8.544096E+05 -1.322230E+05 -1.298380E+05  7.271656E+04 -5.004316E+04 -5.766860E+03
       189  22 -4.177441E+05 -7.511719E+02 -7.225901E+03  5.773664E+04 -5.243722E+03 -2.090780E+04
       189  23 -4.155526E+05 -5.541064E+03 -1.316320E+04  5.185271E+04 -1.203846E+04 -1.855470E+04
       189  24 -4.177628E+05 -2.431095E+04 -2.702358E+04  5.776768E+04 -1.884498E+04 -5.726249E+03
       189  25 -9.419044E+04  7.546229E+04  5.017452E+04  5.934158E+04 -1.021318E+04 -2.091376E+04
       189  26 -3.693745E+04  8.494236E+04  6.065434E+04  4.517588E+04  1.086217E+03 -1.853652E+04
       189  27  1.906236E+04  8.358886E+04  7.578155E+04  4.280815E+04  1.237505E+04 -5.687157E+03
       190   1 -1.392291E+05  6.689619E+04  5.056980E+04 -2.504872E+03 -3.841967E+04 -6.005014E+03
       190   2 -1.689173E+05  1.212478E+05  7.662241E+04  3.064647E+03 -2.912719E+04 -1.835759E+04
       190   3 -2.161174E+05  1.101034E+05  8.027825E+04  2.972790E+04 -1.985132E+04 -1.812288E+04
       190   4 -6.491556E+05 -6.004897E+04 -7.434539E+04  2.049802E+04 -5.092648E+04 -6.022271E+03
       190   5 -6.396436E+05  5.144109E+03 -3.309276E+04  9.907639E+03 -3.318903E+04 -1.836474E+04
       190   6 -6.491268E+05  3.346354E+03 -2.011864E+04  2.041256E+04 -1.546733E+04 -1.811617E+04
       190   7 -1.158844E+06 -1.870113E+05 -1.992787E+05  4.348191E+04 -6.342302E+04 -6.040463E+03
       190   8 -1.110165E+06 -1.109750E+05 -1.428228E+05  1.674533E+04 -3.724781E+04 -1.837199E+04
       190   9 -1.081963E+06 -1.034235E+05 -1.205280E+05  1.110370E+04 -1.108636E+04 -1.810959E+04
       190  10 -1.392307E+05  6.689576E+04  5.056696E+04 -2.505058E+03 -2.986299E-09  1.428161E-09
       190  11 -1.689183E+05  1.212472E+05  7.662018E+04  3.064217E+03  4.833747E-10  3.365515E-09
       190  12 -2.161179E+05  1.101029E+05  8.027690E+04  2.972761E+04  1.757947E-09  1.340991E-09
       190  13 -6.491584E+05 -6.004970E+04 -7.435034E+04  2.049778E+04 -1.061856E-09 -1.715094E-09
       190  14 -6.396448E+05  5.143450E+03 -3.309547E+04  9.907148E+03 -1.545819E-09 -3.615039E-09
       190  15 -6.491272E+05  3.345937E+03 -2.011970E+04  2.041234E+04  3.063040E-09  1.560048E-09
       190  16 -1.158848E+06 -1.870124E+05 -1.992864E+05  4.348160E+04  2.623634E-09  5.498525E-10
       190  17 -1.110167E+06 -1.109758E+05 -1.428261E+05  1.674478E+04 -1.389933E-09  5.750052E-09
       190  18 -1.081963E+06 -1.034239E+05 -1.205288E+05  1.110353E+04 -1.848721E-09  5.805055E-10
       190  19 -1.392291E+05  6.689619E+04  5.056980E+04 -2.504872E+03  3.841967E+04  6.005014E+03
       190  20 -1.689173E+05  1.212478E+05  7.662241E+04  3.064647E+03  2.912719E+04  1.835759E+04
       190  21 -2.161174E+05  1.101034E+05  8.027825E+04  2.972790E+04  1.985132E+04  1.812288E+04
       190  22 -6.491556E+05 -6.004897E+04 -7.434539E+04  2.049802E+04  5.092648E+04  6.022271E+03
       190  23 -6.396436E+05  5.144109E+03 -3.309276E+04  9.907639E+03  3.318903E+04  1.836474E+04
       190  24 -6.491268E+05  3.346354E+03 -2.011864E+04  2.041256E+04  1.546733E+04  1.811617E+04
       190  25 -1.158844E+06 -1.870113E+05 -1.992787E+05  4.348191E+04  6.342302E+04  6.040463E+03
       190  26 -1.110165E+06 -1.109750E+05 -1.428228E+05  1.674533E+04  3.724781E+04  1.837199E+04
       190  27 -1.081963E+06 -1.034235E+05 -1.205280E+05  1.110370E+04  1.108636E+04  1.810959E+04
       191   1 -2.516634E+05  9.228366E+04  7.544397E+04  1.952440E+04 -1.298059E+04 -1.549175E+04
       191   2 -2.897260E+05  8.792929E+04  7.388030E+04  9.785435E+03 -9.108057E+03 -1.439273E+04
       191   3 -3.296553E+05  7.821183E+04  6.844973E+04  2.190415E+04 -5.238042E+03 -1.261622E+04
       191   4 -6.453347E+05 -4.822250E+03 -1.625321E+04  2.061419E+04 -1.246913E+04 -1.549155E+04
       191   5 -6.443554E+05  4.858104E+02 -8.532856E+03  9.680110E+03 -8.143952E+03 -1.439145E+04
       191   6 -6.453249E+05  3.501864E+02 -4.995902E+03  2.060458E+04 -3.821057E+03 -1.261369E+04
       191   7 -1.038863E+06 -1.019391E+05 -1.079609E+05  2.170323E+04 -1.195799E+04 -1.549135E+04
       191   8 -9.988686E+05 -8.696655E+04 -9.095448E+04  9.574790E+03 -7.180393E+03 -1.439016E+04
       191   9 -9.609024E+05 -7.751849E+04 -7.844825E+04  1.930562E+04 -2.404787E+03 -1.261116E+04
       191  10 -2.516636E+05  9.228336E+04  7.544321E+04  1.952423E+04 -8.249371E-12 -1.174409E-09
       191  11 -2.897261E+05  8.792905E+04  7.387976E+04  9.785329E+03  5.052088E-09  3.178770E-09
       191  12 -3.296554E+05  7.821165E+04  6.844938E+04  2.190410E+04  1.558088E-09  6.004169E-09
       191  13 -6.453349E+05 -4.822549E+03 -1.625396E+04  2.061404E+04  2.547390E-09  6.267981E-09
       191  14 -6.443555E+05  4.855702E+02 -8.533369E+03  9.680016E+03 -2.111950E-10 -1.172849E-08
       191  15 -6.453249E+05  3.500117E+02 -4.996228E+03  2.060454E+04  4.140415E-09  5.054616E-09
       191  16 -1.038863E+06 -1.019394E+05 -1.079616E+05  2.170308E+04  4.764627E-10 -4.632010E-09
       191  17 -9.988687E+05 -8.696679E+04 -9.095497E+04  9.574707E+03  3.188760E-10 -2.775798E-09
       191  18 -9.609024E+05 -7.751866E+04 -7.844856E+04  1.930560E+04 -3.617879E-09  9.524477E-11
       191  19 -2.516634E+05  9.228366E+04  7.544397E+04  1.952440E+04  1.298059E+04  1.549175E+04
       191  20 -2.897260E+05  8.792929E+04  7.388030E+04  9.785435E+03  9.108057E+03  1.439273E+04
       191  21 -3.296553E+05  7.821183E+04  6.844973E+04  2.190415E+04  5.238042E+03  1.261622E+04
       191  22 -6.453347E+05 -4.822250E+03 -1.625321E+04  2.061419E+04  1.246913E+04  1.549155E+04
       191  23 -6.443554E+05  4.858104E+02 -8.532856E+03  9.680110E+03  8.143952E+03  1.439145E+04
       191  24 -6.453249E+05  3.501864E+02 -4.995902E+03  2.060458E+04  3.821057E+03  1.261369E+04
       191  25 -1.038863E+06 -1.019391E+05 -1.079609E+05  2.170323E+04  1.195799E+04  1.549135E+04
       191  26 -9.988686E+05 -8.696655E+04 -9.095448E+04  9.574790E+03  7.180393E+03  1.439016E+04
       191  27 -9.609024E+05 -7.751849E+04 -7.844825E+04  1.930562E+04  2.404787E+03  1.261116E+04
       192   1 -3.691066E+05  6.769727E+04  6.011647E+04  2.107207E+04 -4.258929E+03 -1.144769E+04
       192   2 -4.084409E+05  5.836911E+04  5.272677E+04  1.000865E+04 -3.198751E+03 -9.615326E+03
       192   3 -4.480889E+05  4.869107E+04  4.453921E+04  2.111246E+04 -2.139455E+03 -7.740704E+03
       192   4 -6.449571E+05 -3.035542E+02 -3.880307E+03  2.067676E+04 -3.042992E+03 -1.144540E+04
       192   5 -6.447947E+05  8.608806E+01 -2.192539E+03  9.592406E+03 -1.954893E+03 -9.612755E+03
       192   6 -6.449519E+05  1.210995E+02 -1.322104E+03  2.067581E+04 -8.676087E+02 -7.737838E+03
       192   7 -9.207374E+05 -6.830974E+04 -6.788219E+04  2.028159E+04 -1.827591E+03 -1.144311E+04
       192   8 -8.810970E+05 -5.820088E+04 -5.711561E+04  9.176295E+03 -7.115052E+02 -9.610184E+03
       192   9 -8.417791E+05 -4.845161E+04 -4.718604E+04  2.023928E+04  4.038367E+02 -7.734973E+03
       192  10 -3.691066E+05  6.769713E+04  6.011619E+04  2.107203E+04  3.091407E-09 -2.680522E-09
       192  11 -4.084409E+05  5.836901E+04  5.272658E+04  1.000862E+04  3.835261E-09 -4.272629E-09
       192  12 -4.480889E+05  4.869101E+04  4.453909E+04  2.111245E+04 -6.320705E-10 -2.198810E-09
       192  13 -6.449572E+05 -3.036973E+02 -3.880571E+03  2.067673E+04  2.233749E-09 -1.377368E-09
       192  14 -6.447948E+05  8.598784E+01 -2.192720E+03  9.592391E+03  1.314299E-09 -4.940175E-09
       192  15 -6.449519E+05  1.210350E+02 -1.322218E+03  2.067581E+04  2.099154E-09 -1.689210E-09
       192  16 -9.207374E+05 -6.830988E+04 -6.788244E+04  2.028157E+04 -9.225020E-10 -3.794522E-09
       192  17 -8.810970E+05 -5.820098E+04 -5.711578E+04  9.176289E+03 -1.990465E-09  2.041108E-09
       192  18 -8.417791E+05 -4.845168E+04 -4.718615E+04  2.023929E+04 -2.144577E-09  4.408077E-09
       192  19 -3.691066E+05  6.769727E+04  6.011647E+04  2.107207E+04  4.258929E+03  1.144769E+04
       192  20 -4.084409E+05  5.836911E+04  5.272677E+04  1.000865E+04  3.198751E+03  9.615326E+03
       192  21 -4.480889E+05  4.869107E+04  4.453921E+04  2.111246E+04  2.139455E+03  7.740704E+03
       192  22 -6.449571E+05 -3.035542E+02 -3.880307E+03  2.067676E+04  3.042992E+03  1.144540E+04
       192  23 -6.447947E+05  8.608806E+01 -2.192539E+03  9.592406E+03  1.954893E+03  9.612755E+03
       192  24 -6.449519E+05  1.210995E+02 -1.322104E+03  2.067581E+04  8.676087E+02  7.737838E+03
       192  25 -9.207374E+05 -6.830974E+04 -6.788219E+04  2.028159E+04  1.827591E+03  1.144311E+04
       192  26 -8.810970E+05 -5.820088E+04 -5.711561E+04  9.176295E+03  7.115052E+02  9.610184E+03
       192  27 -8.417791E+05 -4.845161E+04 -4.718604E+04  2.023928E+04 -4.038367E+02  7.734973E+03
       193   1 -4.882723E+05  3.867650E+04  3.522192E+04  2.101122E+04 -1.920183E+03 -6.640156E+03
       193   2 -5.279871E+05  2.887253E+04  2.641111E+04  9.768697E+03 -1.561470E+03 -4.755083E+03
       193   3 -5.678590E+05  1.913515E+04  1.735471E+04  2.086322E+04 -1.203162E+03 -2.864843E+03
       193   4 -6.449127E+05  7.161916E+01 -1.059825E+03  2.071382E+04 -6.563973E+02 -6.637197E+03
       193   5 -6.448319E+05  5.742493E+01 -7.405222E+02  9.545127E+03 -2.943290E+02 -4.752006E+03
       193   6 -6.449102E+05  1.093248E+02 -6.691160E+02  2.071373E+04  6.735667E+01 -2.861643E+03
       193   7 -8.015303E+05 -3.853499E+04 -3.734321E+04  2.041649E+04  6.070717E+02 -6.634240E+03
       193   8 -7.616640E+05 -2.875865E+04 -2.789307E+04  9.321592E+03  9.725748E+02 -4.748931E+03
       193   9 -7.219559E+05 -1.891692E+04 -1.869334E+04  2.056426E+04  1.337719E+03 -2.858443E+03
       193  10 -4.882723E+05  3.867645E+04  3.522183E+04  2.101121E+04  2.395302E-09 -6.739447E-09
       193  11 -5.279872E+05  2.887251E+04  2.641106E+04  9.768691E+03  1.289322E-09 -1.773819E-09
       193  12 -5.678590E+05  1.913514E+04  1.735469E+04  2.086322E+04 -5.952200E-09 -1.887280E-09
       193  13 -6.449127E+05  7.157175E+01 -1.059908E+03  2.071382E+04  2.377207E-09 -8.386249E-10
       193  14 -6.448319E+05  5.740066E+01 -7.405648E+02  9.545126E+03 -3.296524E-09 -6.682058E-09
       193  15 -6.449102E+05  1.093160E+02 -6.691314E+02  2.071373E+04  5.042140E-09 -4.512025E-09
       193  16 -8.015303E+05 -3.853504E+04 -3.734329E+04  2.041649E+04  4.345839E-10  1.671742E-09
       193  17 -7.616640E+05 -2.875867E+04 -2.789311E+04  9.321596E+03  7.814864E-10  7.009158E-09
       193  18 -7.219560E+05 -1.891693E+04 -1.869336E+04  2.056427E+04  3.774873E-09  2.010451E-09
       193  19 -4.882723E+05  3.867650E+04  3.522192E+04  2.101122E+04  1.920183E+03  6.640156E+03
       193  20 -5.279871E+05  2.887253E+04  2.641111E+04  9.768697E+03  1.561470E+03  4.755083E+03
       193  21 -5.678590E+05  1.913515E+04  1.735471E+04  2.086322E+04  1.203162E+03  2.864843E+03
       193  22 -6.449127E+05  7.161916E+01 -1.059825E+03  2.071382E+04  6.563973E+02  6.637197E+03
       193  23 -6.448319E+05  5.742493E+01 -7.405222E+02  9.545127E+03  2.943290E+02  4.752006E+03
       193  24 -6.449102E+05  1.093248E+02 -6.691160E+02  2.071373E+04 -6.735667E+01  2.861643E+03
       193  25 -8.015303E+05 -3.853499E+04 -3.734321E+04  2.041649E+04 -6.070717E+02  6.634240E+03
       193  26 -7.616640E+05 -2.875865E+04 -2.789307E+04  9.321592E+03 -9.725748E+02  4.748931E+03
       193  27 -7.219559E+05 -1.891692E+04 -1.869334E+04  2.056426E+04 -1.337719E+03  2.858443E+03
       194   1 -6.082867E+05  9.120329E+03  7.682058E+03  2.078323E+04 -1.082044E+03 -1.762797E+03
       194   2 -6.480804E+05 -7.390693E+02 -1.724512E+03  9.506077E+03 -6.070436E+02  1.309188E+02
       194   3 -6.880631E+05 -1.054984E+04 -1.145979E+04  2.062115E+04 -1.320671E+02  2.023173E+03
       194   4 -6.449161E+05  1.104444E+02 -7.117098E+02  2.072593E+04  1.892549E+02 -1.759559E+03
       194   5 -6.448208E+05  6.495816E+01 -9.669505E+02  9.529874E+03  6.632283E+02  1.341483E+02
       194   6 -6.449163E+05  6.824045E+01 -1.550251E+03  2.072604E+04  1.137208E+03  2.026400E+03
       194   7 -6.815443E+05 -8.899533E+03 -9.105559E+03  2.066863E+04  1.460479E+03 -1.756320E+03
       194   8 -6.415612E+05  8.689858E+02 -2.093839E+02  9.553672E+03  1.933507E+03  1.373780E+02
       194   9 -6.017679E+05  1.068619E+04  8.359169E+03  2.083093E+04  2.406571E+03  2.029627E+03
       194  10 -6.082867E+05  9.120326E+03  7.682049E+03  2.078323E+04 -1.254243E-10 -1.548411E-09
       194  11 -6.480804E+05 -7.390694E+02 -1.724512E+03  9.506077E+03  2.318228E-09 -3.616687E-09
       194  12 -6.880631E+05 -1.054984E+04 -1.145980E+04  2.062115E+04 -5.743707E-09 -7.539221E-11
       194  13 -6.449161E+05  1.104410E+02 -7.117157E+02  2.072593E+04  8.814285E-10  2.297003E-09
       194  14 -6.448208E+05  6.495802E+01 -9.669514E+02  9.529874E+03 -5.314931E-10 -2.184316E-09
       194  15 -6.449163E+05  6.823569E+01 -1.550262E+03  2.072604E+04  4.774822E-09 -3.198124E-10
       194  16 -6.815443E+05 -8.899537E+03 -9.105569E+03  2.066863E+04  2.206113E-10  3.937632E-10
       194  17 -6.415612E+05  8.689847E+02 -2.093910E+02  9.553672E+03 -1.113588E-10 -1.003060E-08
       194  18 -6.017679E+05  1.068618E+04  8.359150E+03  2.083092E+04  7.076890E-09 -2.401671E-09
       194  19 -6.082867E+05  9.120329E+03  7.682058E+03  2.078323E+04  1.082044E+03  1.762797E+03
       194  20 -6.480804E+05 -7.390693E+02 -1.724512E+03  9.506077E+03  6.070436E+02 -1.309188E+02
       194  21 -6.880631E+05 -1.054984E+04 -1.145979E+04  2.062115E+04  1.320671E+02 -2.023173E+03
       194  22 -6.449161E+05  1.104444E+02 -7.117098E+02  2.072593E+04 -1.892549E+02  1.759559E+03
       194  23 -6.448208E+05  6.495815E+01 -9.669505E+02  9.529874E+03 -6.632283E+02 -1.341483E+02
       194  24 -6.449163E+05  6.824045E+01 -1.550251E+03  2.072604E+04 -1.137208E+03 -2.026400E+03
       194  25 -6.815443E+05 -8.899533E+03 -9.105559E+03  2.066863E+04 -1.460479E+03  1.756320E+03
       194  26 -6.415612E+05  8.689858E+02 -2.093839E+02  9.553672E+03 -1.933507E+03 -1.373780E+02
       194  27 -6.017679E+05  1.068619E+04  8.359169E+03  2.083093E+04 -2.406571E+03 -2.029627E+03
       195   1 -7.285447E+05 -2.048908E+04 -2.152811E+04  2.041976E+04  1.754579E+02  3.128664E+03
       195   2 -7.680715E+05 -3.029249E+04 -3.204904E+04  9.294299E+03  1.877559E+03  5.018715E+03
       195   3 -8.080993E+05 -4.070690E+04 -4.386052E+04  2.049848E+04  3.580039E+03  6.877098E+03
       195   4 -6.449859E+05  1.443251E+02 -1.990630E+03  2.071152E+04  1.452324E+03  3.131870E+03
       195   5 -6.447385E+05  1.273642E+02 -3.384736E+03  9.547626E+03  3.133444E+03  5.021746E+03
       195   6 -6.449892E+05 -4.965741E+02 -6.054336E+03  2.071310E+04  4.815050E+03  6.879964E+03
       195   7 -5.614206E+05  2.077723E+04  1.754638E+04  2.100332E+04  2.729361E+03  3.135077E+03
       195   8 -5.213915E+05  3.054614E+04  2.527855E+04  9.800996E+03  4.389576E+03  5.024779E+03
       195   9 -4.818544E+05  3.971187E+04  3.175006E+04  2.092776E+04  6.050382E+03  6.882830E+03
       195  10 -7.285447E+05 -2.048909E+04 -2.152813E+04  2.041976E+04 -7.467534E-09  1.930272E-09
       195  11 -7.680716E+05 -3.029251E+04 -3.204909E+04  9.294292E+03 -1.889392E-09 -1.090999E-09
       195  12 -8.080993E+05 -4.070695E+04 -4.386063E+04  2.049846E+04 -1.299554E-09  4.370998E-10
       195  13 -6.449859E+05  1.443140E+02 -1.990653E+03  2.071152E+04  2.836694E-10  3.529623E-09
       195  14 -6.447386E+05  1.273344E+02 -3.384802E+03  9.547614E+03 -1.633907E-09  1.244513E-09
       195  15 -6.449892E+05 -4.966312E+02 -6.054469E+03  2.071307E+04  3.994650E-09 -2.234551E-09
       195  16 -5.614206E+05  2.077722E+04  1.754635E+04  2.100331E+04  1.003793E-08  5.601112E-09
       195  17 -5.213915E+05  3.054611E+04  2.527846E+04  9.800978E+03  7.054991E-09 -2.464844E-09
       195  18 -4.818545E+05  3.971181E+04  3.174991E+04  2.092773E+04 -2.043599E-09  6.587247E-09
       195  19 -7.285447E+05 -2.048908E+04 -2.152811E+04  2.041976E+04 -1.754579E+02 -3.128664E+03
       195  20 -7.680715E+05 -3.029249E+04 -3.204904E+04  9.294299E+03 -1.877559E+03 -5.018715E+03
       195  21 -8.080993E+05 -4.070690E+04 -4.386052E+04  2.049848E+04 -3.580039E+03 -6.877098E+03
       195  22 -6.449859E+05  1.443251E+02 -1.990630E+03  2.071152E+04 -1.452324E+03 -3.131870E+03
       195  23 -6.447385E+05  1.273642E+02 -3.384736E+03  9.547626E+03 -3.133444E+03 -5.021746E+03
       195  24 -6.449892E+05 -4.965741E+02 -6.054336E+03  2.071310E+04 -4.815050E+03 -6.879964E+03
       195  25 -5.614206E+05  2.077723E+04  1.754638E+04  2.100332E+04 -2.729361E+03 -3.135077E+03
       195  26 -5.213915E+05  3.054614E+04  2.527855E+04  9.800996E+03 -4.389576E+03 -5.024779E+03
       195  27 -4.818544E+05  3.971187E+04  3.175006E+04  2.092776E+04 -6.050382E+03 -6.882830E+03
       196   1 -8.488761E+05 -4.964775E+04 -5.517011E+04  1.904687E+04  4.636369E+03  8.040202E+03
       196   2 -8.867617E+05 -5.909908E+04 -6.978672E+04  9.825738E+03  1.176215E+04  9.864915E+03
       196   3 -9.278227E+05 -7.719138E+04 -9.122729E+04  2.275193E+04  1.888931E+04  1.115260E+04
       196   4 -6.455736E+05  5.266570E+02 -7.812517E+03  2.066624E+04  6.031729E+03  8.043343E+03
       196   5 -6.440217E+05  7.751296E+02 -1.335356E+04  9.601709E+03  1.279938E+04  9.866977E+03
       196   6 -6.455828E+05 -7.552984E+03 -2.546750E+04  2.068408E+04  1.956885E+04  1.115364E+04
       196   7 -4.422329E+05  5.069815E+04  3.954229E+04  2.228612E+04  7.427543E+03  8.046490E+03
       196   8 -4.012273E+05  6.064518E+04  4.307563E+04  9.377560E+03  1.383701E+04  9.869037E+03
       196   9 -3.632693E+05  6.207980E+04  4.028691E+04  1.861524E+04  2.024870E+04  1.115467E+04
       196  10 -8.488761E+05 -4.964783E+04 -5.517027E+04  1.904684E+04  1.191892E-08  3.528847E-09
       196  11 -8.867619E+05 -5.909922E+04 -6.978717E+04  9.825645E+03  8.436363E-09  6.580758E-09
       196  12 -9.278231E+05 -7.719161E+04 -9.122820E+04  2.275176E+04  5.254922E-11 -4.849524E-09
       196  13 -6.455737E+05  5.265778E+02 -7.812707E+03  2.066620E+04  1.715630E-09 -1.157011E-08
       196  14 -6.440219E+05  7.749811E+02 -1.335405E+04  9.601607E+03  1.986807E-09  2.525525E-10
       196  15 -6.455832E+05 -7.553220E+03 -2.546846E+04  2.068390E+04  3.134033E-09  7.276488E-10
       196  16 -4.422330E+05  5.069807E+04  3.954206E+04  2.228607E+04 -9.481449E-09  5.720463E-10
       196  17 -4.012275E+05  6.064502E+04  4.307509E+04  9.377450E+03 -7.312630E-09 -8.216606E-09
       196  18 -3.632698E+05  6.207955E+04  4.028590E+04  1.861506E+04 -3.744468E-09 -4.224185E-10
       196  19 -8.488761E+05 -4.964775E+04 -5.517011E+04  1.904687E+04 -4.636369E+03 -8.040202E+03
       196  20 -8.867617E+05 -5.909908E+04 -6.978672E+04  9.825738E+03 -1.176215E+04 -9.864915E+03
       196  21 -9.278227E+05 -7.719138E+04 -9.122729E+04  2.275193E+04 -1.888931E+04 -1.115260E+04
       196  22 -6.455736E+05  5.266570E+02 -7.812517E+03  2.066624E+04 -6.031729E+03 -8.043343E+03
       196  23 -6.440217E+05  7.751296E+02 -1.335356E+04  9.601709E+03 -1.279938E+04 -9.866977E+03
       196  24 -6.455828E+05 -7.552984E+03 -2.546750E+04  2.068408E+04 -1.956885E+04 -1.115364E+04
       196  25 -4.422329E+05  5.069815E+04  3.954229E+04  2.228612E+04 -7.427543E+03 -8.046490E+03
       196  26 -4.012273E+05  6.064518E+04  4.307563E+04  9.377560E+03 -1.383701E+04 -9.869037E+03
       196  27 -3.632693E+05  6.207980E+04  4.028691E+04  1.861524E+04 -2.024870E+04 -1.115467E+04
       197   1 -9.736170E+05 -7.423762E+04 -1.062650E+05  6.258952E+03  2.051706E+04  1.347121E+04
       197   2 -9.972210E+05 -8.085434E+04 -1.359442E+05  2.077935E+04  5.498045E+04  1.412123E+04
       197   3 -1.051915E+06 -1.937337E+05 -2.146555E+05  5.693980E+04  8.945857E+04  4.773831E+03
       197   4 -6.515374E+05  5.253351E+03 -3.153031E+04  2.050634E+04  2.427017E+04  1.347897E+04
       197   5 -6.366008E+05  8.104067E+03 -5.184617E+04  9.776110E+03  5.203634E+04  1.411405E+04
       197   6 -6.515749E+05 -9.411290E+04 -1.165208E+05  2.068784E+04  7.981992E+04  4.751485E+03
       197   7 -3.293613E+05  8.473775E+04  4.319757E+04  3.476113E+04  2.802520E+04  1.348690E+04
       197   8 -2.758601E+05  9.705374E+04  3.224312E+04 -1.233630E+03  4.909052E+04  1.410698E+04
       197   9 -2.510851E+05  5.501087E+03 -1.839677E+04 -1.558764E+04  7.017504E+04  4.730274E+03
       197  10 -9.736175E+05 -7.423793E+04 -1.062661E+05  6.258730E+03  7.192358E-09 -4.549390E-09
       197  11 -9.972243E+05 -8.085537E+04 -1.359502E+05  2.077872E+04  7.343301E-09 -5.127932E-09
       197  12 -1.051924E+06 -1.937359E+05 -2.146706E+05  5.693946E+04 -1.174168E-09  1.499653E-09
       197  13 -6.515380E+05  5.252998E+03 -3.153176E+04  2.050607E+04  1.391940E-11  8.173661E-10
       197  14 -6.366037E+05  8.103125E+03 -5.185163E+04  9.775518E+03 -1.076655E-09 -1.619808E-09
       197  15 -6.515818E+05 -9.411463E+04 -1.165328E+05  2.068753E+04  1.866010E-09  2.304030E-09
       197  16 -3.293622E+05  8.473735E+04  4.319575E+04  3.476082E+04 -6.546065E-09  3.647274E-09
       197  17 -2.758627E+05  9.705288E+04  3.223821E+04 -1.234187E+03 -4.545237E-09  1.826374E-09
       197  18 -2.510904E+05  5.499740E+03 -1.840607E+04 -1.558791E+04 -1.993310E-09 -1.638208E-09
       197  19 -9.736170E+05 -7.423762E+04 -1.062650E+05  6.258952E+03 -2.051706E+04 -1.347121E+04
       197  20 -9.972210E+05 -8.085434E+04 -1.359442E+05  2.077935E+04 -5.498045E+04 -1.412123E+04
       197  21 -1.051915E+06 -1.937337E+05 -2.146555E+05  5.693980E+04 -8.945857E+04 -4.773831E+03
       197  22 -6.515374E+05  5.253351E+03 -3.153031E+04  2.050634E+04 -2.427017E+04 -1.347897E+04
       197  23 -6.366008E+05  8.104067E+03 -5.184617E+04  9.776110E+03 -5.203634E+04 -1.411405E+04
       197  24 -6.515749E+05 -9.411290E+04 -1.165208E+05  2.068784E+04 -7.981992E+04 -4.751485E+03
       197  25 -3.293613E+05  8.473775E+04  4.319757E+04  3.476113E+04 -2.802520E+04 -1.348690E+04
       197  26 -2.758601E+05  9.705374E+04  3.224312E+04 -1.233630E+03 -4.909052E+04 -1.410698E+04
       197  27 -2.510851E+05  5.501087E+03 -1.839677E+04 -1.558764E+04 -7.017504E+04 -4.730274E+03
