    1C
    1UUSER                                                              
    1UDATE              11.october.2022                                 
    1UTIME              17:51:49                                        
    1UHOST                                                              
    1UPGM               CalculiX                                        
    1UVERSION           Version 2.20                             
    1UCOMPILETIME       Sun Jul 31 18:08:37 CEST 2022                    
    1UDIR                                                               
    1UDBN                                                               
    1UMAT    1MESH_MATERIAL                                             
    2C                           382                                     1
 -1         1 0.00000E+00 0.00000E+00 0.00000E+00
 -1         3 3.33333E-02 0.00000E+00 0.00000E+00
 -1         5 6.66667E-02 0.00000E+00 0.00000E+00
 -1         8 0.00000E+00 6.25000E-03 0.00000E+00
 -1         9 1.66667E-02 6.25000E-03 0.00000E+00
 -1        10 3.33333E-02 6.25000E-03 0.00000E+00
 -1        12 6.66667E-02 6.25000E-03 0.00000E+00
 -1        16 1.66667E-02 1.25000E-02 0.00000E+00
 -1        17 3.33333E-02 1.25000E-02 0.00000E+00
 -1        18 5.00000E-02 1.25000E-02 0.00000E+00
 -1        19 6.66667E-02 1.25000E-02 0.00000E+00
 -1        20 8.33333E-02 1.25000E-02 0.00000E+00
 -1        21 1.00000E-01 1.25000E-02 0.00000E+00
 -1        24 3.33333E-02 1.87500E-02 0.00000E+00
 -1        25 5.00000E-02 1.87500E-02 0.00000E+00
 -1        26 6.66667E-02 1.87500E-02 0.00000E+00
 -1        27 8.33333E-02 1.87500E-02 0.00000E+00
 -1        28 1.00000E-01 1.87500E-02 0.00000E+00
 -1        32 5.00000E-02 2.50000E-02 0.00000E+00
 -1        33 6.66667E-02 2.50000E-02 0.00000E+00
 -1        34 8.33333E-02 2.50000E-02 0.00000E+00
 -1        35 1.00000E-01 2.50000E-02 0.00000E+00
 -1        51 0.00000E+00 1.04167E-03 0.00000E+00
 -1        52 0.00000E+00 2.08333E-03 0.00000E+00
 -1        53 0.00000E+00 3.12500E-03 0.00000E+00
 -1        54 0.00000E+00 4.16667E-03 0.00000E+00
 -1        55 0.00000E+00 5.20833E-03 0.00000E+00
 -1        56 1.04167E-03 3.90630E-04 0.00000E+00
 -1        57 2.08333E-03 7.81250E-04 0.00000E+00
 -1        58 3.12500E-03 1.17188E-03 0.00000E+00
 -1        59 4.16667E-03 1.56250E-03 0.00000E+00
 -1        60 5.20833E-03 1.95312E-03 0.00000E+00
 -1        61 6.25000E-03 2.34375E-03 0.00000E+00
 -1        62 7.29167E-03 2.73438E-03 0.00000E+00
 -1        63 8.33333E-03 3.12500E-03 0.00000E+00
 -1        64 9.37500E-03 3.51563E-03 0.00000E+00
 -1        65 1.04167E-02 3.90625E-03 0.00000E+00
 -1        66 1.14583E-02 4.29688E-03 0.00000E+00
 -1        67 1.25000E-02 4.68750E-03 0.00000E+00
 -1        68 1.35417E-02 5.07813E-03 0.00000E+00
 -1        69 1.45833E-02 5.46875E-03 0.00000E+00
 -1        70 1.56250E-02 5.85938E-03 0.00000E+00
 -1       121 3.33333E-02 1.04167E-03 0.00000E+00
 -1       122 3.33333E-02 2.08333E-03 0.00000E+00
 -1       123 3.33333E-02 3.12500E-03 0.00000E+00
 -1       124 3.33333E-02 4.16667E-03 0.00000E+00
 -1       125 3.33333E-02 5.20833E-03 0.00000E+00
 -1       191 6.66667E-02 1.04167E-03 0.00000E+00
 -1       192 6.66667E-02 2.08333E-03 0.00000E+00
 -1       193 6.66667E-02 3.12500E-03 0.00000E+00
 -1       194 6.66667E-02 4.16667E-03 0.00000E+00
 -1       195 6.66667E-02 5.20833E-03 0.00000E+00
 -1       271 1.04167E-03 6.64063E-03 0.00000E+00
 -1       272 2.08333E-03 7.03125E-03 0.00000E+00
 -1       273 3.12500E-03 7.42188E-03 0.00000E+00
 -1       274 4.16667E-03 7.81250E-03 0.00000E+00
 -1       275 5.20833E-03 8.20313E-03 0.00000E+00
 -1       276 6.25000E-03 8.59375E-03 0.00000E+00
 -1       277 7.29167E-03 8.98438E-03 0.00000E+00
 -1       278 8.33333E-03 9.37500E-03 0.00000E+00
 -1       279 9.37500E-03 9.76562E-03 0.00000E+00
 -1       280 1.04167E-02 1.01562E-02 0.00000E+00
 -1       281 1.14583E-02 1.05469E-02 0.00000E+00
 -1       282 1.25000E-02 1.09375E-02 0.00000E+00
 -1       283 1.35417E-02 1.13281E-02 0.00000E+00
 -1       284 1.45833E-02 1.17188E-02 0.00000E+00
 -1       285 1.56250E-02 1.21094E-02 0.00000E+00
 -1       301 1.66667E-02 7.29167E-03 0.00000E+00
 -1       302 1.66667E-02 8.33333E-03 0.00000E+00
 -1       303 1.66667E-02 9.37500E-03 0.00000E+00
 -1       304 1.66667E-02 1.04167E-02 0.00000E+00
 -1       305 1.66667E-02 1.14583E-02 0.00000E+00
 -1       306 1.77083E-02 6.64063E-03 0.00000E+00
 -1       307 1.87500E-02 7.03125E-03 0.00000E+00
 -1       308 1.97917E-02 7.42188E-03 0.00000E+00
 -1       309 2.08333E-02 7.81250E-03 0.00000E+00
 -1       310 2.18750E-02 8.20313E-03 0.00000E+00
 -1       311 2.29167E-02 8.59375E-03 0.00000E+00
 -1       312 2.39583E-02 8.98438E-03 0.00000E+00
 -1       313 2.50000E-02 9.37500E-03 0.00000E+00
 -1       314 2.60417E-02 9.76562E-03 0.00000E+00
 -1       315 2.70833E-02 1.01562E-02 0.00000E+00
 -1       316 2.81250E-02 1.05469E-02 0.00000E+00
 -1       317 2.91667E-02 1.09375E-02 0.00000E+00
 -1       318 3.02083E-02 1.13281E-02 0.00000E+00
 -1       319 3.12500E-02 1.17188E-02 0.00000E+00
 -1       320 3.22917E-02 1.21094E-02 0.00000E+00
 -1       336 3.33333E-02 7.29167E-03 0.00000E+00
 -1       337 3.33333E-02 8.33333E-03 0.00000E+00
 -1       338 3.33333E-02 9.37500E-03 0.00000E+00
 -1       339 3.33333E-02 1.04167E-02 0.00000E+00
 -1       340 3.33333E-02 1.14583E-02 0.00000E+00
 -1       406 6.66667E-02 7.29167E-03 0.00000E+00
 -1       407 6.66667E-02 8.33333E-03 0.00000E+00
 -1       408 6.66667E-02 9.37500E-03 0.00000E+00
 -1       409 6.66667E-02 1.04167E-02 0.00000E+00
 -1       410 6.66667E-02 1.14583E-02 0.00000E+00
 -1       521 1.77083E-02 1.28906E-02 0.00000E+00
 -1       522 1.87500E-02 1.32813E-02 0.00000E+00
 -1       523 1.97917E-02 1.36719E-02 0.00000E+00
 -1       524 2.08333E-02 1.40625E-02 0.00000E+00
 -1       525 2.18750E-02 1.44531E-02 0.00000E+00
 -1       526 2.29167E-02 1.48437E-02 0.00000E+00
 -1       527 2.39583E-02 1.52344E-02 0.00000E+00
 -1       528 2.50000E-02 1.56250E-02 0.00000E+00
 -1       529 2.60417E-02 1.60156E-02 0.00000E+00
 -1       530 2.70833E-02 1.64062E-02 0.00000E+00
 -1       531 2.81250E-02 1.67969E-02 0.00000E+00
 -1       532 2.91667E-02 1.71875E-02 0.00000E+00
 -1       533 3.02083E-02 1.75781E-02 0.00000E+00
 -1       534 3.12500E-02 1.79687E-02 0.00000E+00
 -1       535 3.22917E-02 1.83594E-02 0.00000E+00
 -1       536 3.43750E-02 1.25000E-02 0.00000E+00
 -1       537 3.54167E-02 1.25000E-02 0.00000E+00
 -1       538 3.64583E-02 1.25000E-02 0.00000E+00
 -1       539 3.75000E-02 1.25000E-02 0.00000E+00
 -1       540 3.85417E-02 1.25000E-02 0.00000E+00
 -1       541 3.95833E-02 1.25000E-02 0.00000E+00
 -1       542 4.06250E-02 1.25000E-02 0.00000E+00
 -1       543 4.16667E-02 1.25000E-02 0.00000E+00
 -1       544 4.27083E-02 1.25000E-02 0.00000E+00
 -1       545 4.37500E-02 1.25000E-02 0.00000E+00
 -1       546 4.47917E-02 1.25000E-02 0.00000E+00
 -1       547 4.58333E-02 1.25000E-02 0.00000E+00
 -1       548 4.68750E-02 1.25000E-02 0.00000E+00
 -1       549 4.79167E-02 1.25000E-02 0.00000E+00
 -1       550 4.89583E-02 1.25000E-02 0.00000E+00
 -1       551 3.33333E-02 1.35417E-02 0.00000E+00
 -1       552 3.33333E-02 1.45833E-02 0.00000E+00
 -1       553 3.33333E-02 1.56250E-02 0.00000E+00
 -1       554 3.33333E-02 1.66667E-02 0.00000E+00
 -1       555 3.33333E-02 1.77083E-02 0.00000E+00
 -1       556 3.43750E-02 1.28906E-02 0.00000E+00
 -1       557 3.54167E-02 1.32813E-02 0.00000E+00
 -1       558 3.64583E-02 1.36719E-02 0.00000E+00
 -1       559 3.75000E-02 1.40625E-02 0.00000E+00
 -1       560 3.85417E-02 1.44531E-02 0.00000E+00
 -1       561 3.95833E-02 1.48437E-02 0.00000E+00
 -1       562 4.06250E-02 1.52344E-02 0.00000E+00
 -1       563 4.16667E-02 1.56250E-02 0.00000E+00
 -1       564 4.27083E-02 1.60156E-02 0.00000E+00
 -1       565 4.37500E-02 1.64062E-02 0.00000E+00
 -1       566 4.47917E-02 1.67969E-02 0.00000E+00
 -1       567 4.58333E-02 1.71875E-02 0.00000E+00
 -1       568 4.68750E-02 1.75781E-02 0.00000E+00
 -1       569 4.79167E-02 1.79687E-02 0.00000E+00
 -1       570 4.89583E-02 1.83594E-02 0.00000E+00
 -1       571 5.10417E-02 1.25000E-02 0.00000E+00
 -1       572 5.20833E-02 1.25000E-02 0.00000E+00
 -1       573 5.31250E-02 1.25000E-02 0.00000E+00
 -1       574 5.41667E-02 1.25000E-02 0.00000E+00
 -1       575 5.52083E-02 1.25000E-02 0.00000E+00
 -1       576 5.62500E-02 1.25000E-02 0.00000E+00
 -1       577 5.72917E-02 1.25000E-02 0.00000E+00
 -1       578 5.83333E-02 1.25000E-02 0.00000E+00
 -1       579 5.93750E-02 1.25000E-02 0.00000E+00
 -1       580 6.04167E-02 1.25000E-02 0.00000E+00
 -1       581 6.14583E-02 1.25000E-02 0.00000E+00
 -1       582 6.25000E-02 1.25000E-02 0.00000E+00
 -1       583 6.35417E-02 1.25000E-02 0.00000E+00
 -1       584 6.45833E-02 1.25000E-02 0.00000E+00
 -1       585 6.56250E-02 1.25000E-02 0.00000E+00
 -1       586 5.00000E-02 1.35417E-02 0.00000E+00
 -1       587 5.00000E-02 1.45833E-02 0.00000E+00
 -1       588 5.00000E-02 1.56250E-02 0.00000E+00
 -1       589 5.00000E-02 1.66667E-02 0.00000E+00
 -1       590 5.00000E-02 1.77083E-02 0.00000E+00
 -1       591 5.10417E-02 1.28906E-02 0.00000E+00
 -1       592 5.20833E-02 1.32813E-02 0.00000E+00
 -1       593 5.31250E-02 1.36719E-02 0.00000E+00
 -1       594 5.41667E-02 1.40625E-02 0.00000E+00
 -1       595 5.52083E-02 1.44531E-02 0.00000E+00
 -1       596 5.62500E-02 1.48437E-02 0.00000E+00
 -1       597 5.72917E-02 1.52344E-02 0.00000E+00
 -1       598 5.83333E-02 1.56250E-02 0.00000E+00
 -1       599 5.93750E-02 1.60156E-02 0.00000E+00
 -1       600 6.04167E-02 1.64062E-02 0.00000E+00
 -1       601 6.14583E-02 1.67969E-02 0.00000E+00
 -1       602 6.25000E-02 1.71875E-02 0.00000E+00
 -1       603 6.35417E-02 1.75781E-02 0.00000E+00
 -1       604 6.45833E-02 1.79687E-02 0.00000E+00
 -1       605 6.56250E-02 1.83594E-02 0.00000E+00
 -1       606 6.77083E-02 1.25000E-02 0.00000E+00
 -1       607 6.87500E-02 1.25000E-02 0.00000E+00
 -1       608 6.97917E-02 1.25000E-02 0.00000E+00
 -1       609 7.08333E-02 1.25000E-02 0.00000E+00
 -1       610 7.18750E-02 1.25000E-02 0.00000E+00
 -1       611 7.29167E-02 1.25000E-02 0.00000E+00
 -1       612 7.39583E-02 1.25000E-02 0.00000E+00
 -1       613 7.50000E-02 1.25000E-02 0.00000E+00
 -1       614 7.60417E-02 1.25000E-02 0.00000E+00
 -1       615 7.70833E-02 1.25000E-02 0.00000E+00
 -1       616 7.81250E-02 1.25000E-02 0.00000E+00
 -1       617 7.91667E-02 1.25000E-02 0.00000E+00
 -1       618 8.02083E-02 1.25000E-02 0.00000E+00
 -1       619 8.12500E-02 1.25000E-02 0.00000E+00
 -1       620 8.22917E-02 1.25000E-02 0.00000E+00
 -1       621 6.66667E-02 1.35417E-02 0.00000E+00
 -1       622 6.66667E-02 1.45833E-02 0.00000E+00
 -1       623 6.66667E-02 1.56250E-02 0.00000E+00
 -1       624 6.66667E-02 1.66667E-02 0.00000E+00
 -1       625 6.66667E-02 1.77083E-02 0.00000E+00
 -1       626 6.77083E-02 1.28906E-02 0.00000E+00
 -1       627 6.87500E-02 1.32813E-02 0.00000E+00
 -1       628 6.97917E-02 1.36719E-02 0.00000E+00
 -1       629 7.08333E-02 1.40625E-02 0.00000E+00
 -1       630 7.18750E-02 1.44531E-02 0.00000E+00
 -1       631 7.29167E-02 1.48437E-02 0.00000E+00
 -1       632 7.39583E-02 1.52344E-02 0.00000E+00
 -1       633 7.50000E-02 1.56250E-02 0.00000E+00
 -1       634 7.60417E-02 1.60156E-02 0.00000E+00
 -1       635 7.70833E-02 1.64062E-02 0.00000E+00
 -1       636 7.81250E-02 1.67969E-02 0.00000E+00
 -1       637 7.91667E-02 1.71875E-02 0.00000E+00
 -1       638 8.02083E-02 1.75781E-02 0.00000E+00
 -1       639 8.12500E-02 1.79687E-02 0.00000E+00
 -1       640 8.22917E-02 1.83594E-02 0.00000E+00
 -1       656 8.33333E-02 1.35417E-02 0.00000E+00
 -1       657 8.33333E-02 1.45833E-02 0.00000E+00
 -1       658 8.33333E-02 1.56250E-02 0.00000E+00
 -1       659 8.33333E-02 1.66667E-02 0.00000E+00
 -1       660 8.33333E-02 1.77083E-02 0.00000E+00
 -1       661 8.43750E-02 1.28906E-02 0.00000E+00
 -1       662 8.54167E-02 1.32813E-02 0.00000E+00
 -1       663 8.64583E-02 1.36719E-02 0.00000E+00
 -1       664 8.75000E-02 1.40625E-02 0.00000E+00
 -1       665 8.85417E-02 1.44531E-02 0.00000E+00
 -1       666 8.95833E-02 1.48437E-02 0.00000E+00
 -1       667 9.06250E-02 1.52344E-02 0.00000E+00
 -1       668 9.16667E-02 1.56250E-02 0.00000E+00
 -1       669 9.27083E-02 1.60156E-02 0.00000E+00
 -1       670 9.37500E-02 1.64062E-02 0.00000E+00
 -1       671 9.47917E-02 1.67969E-02 0.00000E+00
 -1       672 9.58333E-02 1.71875E-02 0.00000E+00
 -1       673 9.68750E-02 1.75781E-02 0.00000E+00
 -1       674 9.79167E-02 1.79687E-02 0.00000E+00
 -1       675 9.89583E-02 1.83594E-02 0.00000E+00
 -1       676 1.00000E-01 1.35417E-02 0.00000E+00
 -1       677 1.00000E-01 1.45833E-02 0.00000E+00
 -1       678 1.00000E-01 1.56250E-02 0.00000E+00
 -1       679 1.00000E-01 1.66667E-02 0.00000E+00
 -1       680 1.00000E-01 1.77083E-02 0.00000E+00
 -1       771 3.43750E-02 1.91406E-02 0.00000E+00
 -1       772 3.54167E-02 1.95312E-02 0.00000E+00
 -1       773 3.64583E-02 1.99219E-02 0.00000E+00
 -1       774 3.75000E-02 2.03125E-02 0.00000E+00
 -1       775 3.85417E-02 2.07031E-02 0.00000E+00
 -1       776 3.95833E-02 2.10938E-02 0.00000E+00
 -1       777 4.06250E-02 2.14844E-02 0.00000E+00
 -1       778 4.16667E-02 2.18750E-02 0.00000E+00
 -1       779 4.27083E-02 2.22656E-02 0.00000E+00
 -1       780 4.37500E-02 2.26563E-02 0.00000E+00
 -1       781 4.47917E-02 2.30469E-02 0.00000E+00
 -1       782 4.58333E-02 2.34375E-02 0.00000E+00
 -1       783 4.68750E-02 2.38281E-02 0.00000E+00
 -1       784 4.79167E-02 2.42187E-02 0.00000E+00
 -1       785 4.89583E-02 2.46094E-02 0.00000E+00
 -1       786 5.10417E-02 1.87500E-02 0.00000E+00
 -1       787 5.20833E-02 1.87500E-02 0.00000E+00
 -1       788 5.31250E-02 1.87500E-02 0.00000E+00
 -1       789 5.41667E-02 1.87500E-02 0.00000E+00
 -1       790 5.52083E-02 1.87500E-02 0.00000E+00
 -1       791 5.62500E-02 1.87500E-02 0.00000E+00
 -1       792 5.72917E-02 1.87500E-02 0.00000E+00
 -1       793 5.83333E-02 1.87500E-02 0.00000E+00
 -1       794 5.93750E-02 1.87500E-02 0.00000E+00
 -1       795 6.04167E-02 1.87500E-02 0.00000E+00
 -1       796 6.14583E-02 1.87500E-02 0.00000E+00
 -1       797 6.25000E-02 1.87500E-02 0.00000E+00
 -1       798 6.35417E-02 1.87500E-02 0.00000E+00
 -1       799 6.45833E-02 1.87500E-02 0.00000E+00
 -1       800 6.56250E-02 1.87500E-02 0.00000E+00
 -1       801 5.00000E-02 1.97917E-02 0.00000E+00
 -1       802 5.00000E-02 2.08333E-02 0.00000E+00
 -1       803 5.00000E-02 2.18750E-02 0.00000E+00
 -1       804 5.00000E-02 2.29167E-02 0.00000E+00
 -1       805 5.00000E-02 2.39583E-02 0.00000E+00
 -1       806 5.10417E-02 1.91406E-02 0.00000E+00
 -1       807 5.20833E-02 1.95312E-02 0.00000E+00
 -1       808 5.31250E-02 1.99219E-02 0.00000E+00
 -1       809 5.41667E-02 2.03125E-02 0.00000E+00
 -1       810 5.52083E-02 2.07031E-02 0.00000E+00
 -1       811 5.62500E-02 2.10938E-02 0.00000E+00
 -1       812 5.72917E-02 2.14844E-02 0.00000E+00
 -1       813 5.83333E-02 2.18750E-02 0.00000E+00
 -1       814 5.93750E-02 2.22656E-02 0.00000E+00
 -1       815 6.04167E-02 2.26563E-02 0.00000E+00
 -1       816 6.14583E-02 2.30469E-02 0.00000E+00
 -1       817 6.25000E-02 2.34375E-02 0.00000E+00
 -1       818 6.35417E-02 2.38281E-02 0.00000E+00
 -1       819 6.45833E-02 2.42187E-02 0.00000E+00
 -1       820 6.56250E-02 2.46094E-02 0.00000E+00
 -1       821 6.77083E-02 1.87500E-02 0.00000E+00
 -1       822 6.87500E-02 1.87500E-02 0.00000E+00
 -1       823 6.97917E-02 1.87500E-02 0.00000E+00
 -1       824 7.08333E-02 1.87500E-02 0.00000E+00
 -1       825 7.18750E-02 1.87500E-02 0.00000E+00
 -1       826 7.29167E-02 1.87500E-02 0.00000E+00
 -1       827 7.39583E-02 1.87500E-02 0.00000E+00
 -1       828 7.50000E-02 1.87500E-02 0.00000E+00
 -1       829 7.60417E-02 1.87500E-02 0.00000E+00
 -1       830 7.70833E-02 1.87500E-02 0.00000E+00
 -1       831 7.81250E-02 1.87500E-02 0.00000E+00
 -1       832 7.91667E-02 1.87500E-02 0.00000E+00
 -1       833 8.02083E-02 1.87500E-02 0.00000E+00
 -1       834 8.12500E-02 1.87500E-02 0.00000E+00
 -1       835 8.22917E-02 1.87500E-02 0.00000E+00
 -1       836 6.66667E-02 1.97917E-02 0.00000E+00
 -1       837 6.66667E-02 2.08333E-02 0.00000E+00
 -1       838 6.66667E-02 2.18750E-02 0.00000E+00
 -1       839 6.66667E-02 2.29167E-02 0.00000E+00
 -1       840 6.66667E-02 2.39583E-02 0.00000E+00
 -1       856 8.43750E-02 1.87500E-02 0.00000E+00
 -1       857 8.54167E-02 1.87500E-02 0.00000E+00
 -1       858 8.64583E-02 1.87500E-02 0.00000E+00
 -1       859 8.75000E-02 1.87500E-02 0.00000E+00
 -1       860 8.85417E-02 1.87500E-02 0.00000E+00
 -1       861 8.95833E-02 1.87500E-02 0.00000E+00
 -1       862 9.06250E-02 1.87500E-02 0.00000E+00
 -1       863 9.16667E-02 1.87500E-02 0.00000E+00
 -1       864 9.27083E-02 1.87500E-02 0.00000E+00
 -1       865 9.37500E-02 1.87500E-02 0.00000E+00
 -1       866 9.47917E-02 1.87500E-02 0.00000E+00
 -1       867 9.58333E-02 1.87500E-02 0.00000E+00
 -1       868 9.68750E-02 1.87500E-02 0.00000E+00
 -1       869 9.79167E-02 1.87500E-02 0.00000E+00
 -1       870 9.89583E-02 1.87500E-02 0.00000E+00
 -1       871 8.33333E-02 1.97917E-02 0.00000E+00
 -1       872 8.33333E-02 2.08333E-02 0.00000E+00
 -1       873 8.33333E-02 2.18750E-02 0.00000E+00
 -1       874 8.33333E-02 2.29167E-02 0.00000E+00
 -1       875 8.33333E-02 2.39583E-02 0.00000E+00
 -1       876 8.43750E-02 1.91406E-02 0.00000E+00
 -1       877 8.54167E-02 1.95312E-02 0.00000E+00
 -1       878 8.64583E-02 1.99219E-02 0.00000E+00
 -1       879 8.75000E-02 2.03125E-02 0.00000E+00
 -1       880 8.85417E-02 2.07031E-02 0.00000E+00
 -1       881 8.95833E-02 2.10938E-02 0.00000E+00
 -1       882 9.06250E-02 2.14844E-02 0.00000E+00
 -1       883 9.16667E-02 2.18750E-02 0.00000E+00
 -1       884 9.27083E-02 2.22656E-02 0.00000E+00
 -1       885 9.37500E-02 2.26563E-02 0.00000E+00
 -1       886 9.47917E-02 2.30469E-02 0.00000E+00
 -1       887 9.58333E-02 2.34375E-02 0.00000E+00
 -1       888 9.68750E-02 2.38281E-02 0.00000E+00
 -1       889 9.79167E-02 2.42187E-02 0.00000E+00
 -1       890 9.89583E-02 2.46094E-02 0.00000E+00
 -1       891 1.00000E-01 1.97917E-02 0.00000E+00
 -1       892 1.00000E-01 2.08333E-02 0.00000E+00
 -1       893 1.00000E-01 2.18750E-02 0.00000E+00
 -1       894 1.00000E-01 2.29167E-02 0.00000E+00
 -1       895 1.00000E-01 2.39583E-02 0.00000E+00
 -1       956 6.77083E-02 2.50000E-02 0.00000E+00
 -1       957 6.87500E-02 2.50000E-02 0.00000E+00
 -1       958 6.97917E-02 2.50000E-02 0.00000E+00
 -1       959 7.08333E-02 2.50000E-02 0.00000E+00
 -1       960 7.18750E-02 2.50000E-02 0.00000E+00
 -1       961 7.29167E-02 2.50000E-02 0.00000E+00
 -1       962 7.39583E-02 2.50000E-02 0.00000E+00
 -1       963 7.50000E-02 2.50000E-02 0.00000E+00
 -1       964 7.60417E-02 2.50000E-02 0.00000E+00
 -1       965 7.70833E-02 2.50000E-02 0.00000E+00
 -1       966 7.81250E-02 2.50000E-02 0.00000E+00
 -1       967 7.91667E-02 2.50000E-02 0.00000E+00
 -1       968 8.02083E-02 2.50000E-02 0.00000E+00
 -1       969 8.12500E-02 2.50000E-02 0.00000E+00
 -1       970 8.22917E-02 2.50000E-02 0.00000E+00
 -1       971 8.43750E-02 2.50000E-02 0.00000E+00
 -1       972 8.54167E-02 2.50000E-02 0.00000E+00
 -1       973 8.64583E-02 2.50000E-02 0.00000E+00
 -1       974 8.75000E-02 2.50000E-02 0.00000E+00
 -1       975 8.85417E-02 2.50000E-02 0.00000E+00
 -1       976 8.95833E-02 2.50000E-02 0.00000E+00
 -1       977 9.06250E-02 2.50000E-02 0.00000E+00
 -1       978 9.16667E-02 2.50000E-02 0.00000E+00
 -1       979 9.27083E-02 2.50000E-02 0.00000E+00
 -1       980 9.37500E-02 2.50000E-02 0.00000E+00
 -1       981 9.47917E-02 2.50000E-02 0.00000E+00
 -1       982 9.58333E-02 2.50000E-02 0.00000E+00
 -1       983 9.68750E-02 2.50000E-02 0.00000E+00
 -1       984 9.79167E-02 2.50000E-02 0.00000E+00
 -1       985 9.89583E-02 2.50000E-02 0.00000E+00
 -3
    3C                           197                                     1
 -1         1   12    0    1
 -2         1        52        51
 -1         2   12    0    1
 -2        52        54        53
 -1         3   12    0    1
 -2        54         8        55
 -1         4   12    0    1
 -2         1        57        56
 -1         5   12    0    1
 -2        57        59        58
 -1         6   12    0    1
 -2        59        61        60
 -1         7   12    0    1
 -2        61        63        62
 -1         8   12    0    1
 -2        63        65        64
 -1         9   12    0    1
 -2        65        67        66
 -1        10   12    0    1
 -2        67        69        68
 -1        11   12    0    1
 -2        69         9        70
 -1        12   12    0    1
 -2         3       122       121
 -1        13   12    0    1
 -2       122       124       123
 -1        14   12    0    1
 -2       124        10       125
 -1        15   12    0    1
 -2         5       192       191
 -1        16   12    0    1
 -2       192       194       193
 -1        17   12    0    1
 -2       194        12       195
 -1        18   12    0    1
 -2         8       272       271
 -1        19   12    0    1
 -2       272       274       273
 -1        20   12    0    1
 -2       274       276       275
 -1        21   12    0    1
 -2       276       278       277
 -1        22   12    0    1
 -2       278       280       279
 -1        23   12    0    1
 -2       280       282       281
 -1        24   12    0    1
 -2       282       284       283
 -1        25   12    0    1
 -2       284        16       285
 -1        26   12    0    1
 -2         9       302       301
 -1        27   12    0    1
 -2       302       304       303
 -1        28   12    0    1
 -2       304        16       305
 -1        29   12    0    1
 -2         9       307       306
 -1        30   12    0    1
 -2       307       309       308
 -1        31   12    0    1
 -2       309       311       310
 -1        32   12    0    1
 -2       311       313       312
 -1        33   12    0    1
 -2       313       315       314
 -1        34   12    0    1
 -2       315       317       316
 -1        35   12    0    1
 -2       317       319       318
 -1        36   12    0    1
 -2       319        17       320
 -1        37   12    0    1
 -2        10       337       336
 -1        38   12    0    1
 -2       337       339       338
 -1        39   12    0    1
 -2       339        17       340
 -1        40   12    0    1
 -2        12       407       406
 -1        41   12    0    1
 -2       407       409       408
 -1        42   12    0    1
 -2       409        19       410
 -1        43   12    0    1
 -2        16       522       521
 -1        44   12    0    1
 -2       522       524       523
 -1        45   12    0    1
 -2       524       526       525
 -1        46   12    0    1
 -2       526       528       527
 -1        47   12    0    1
 -2       528       530       529
 -1        48   12    0    1
 -2       530       532       531
 -1        49   12    0    1
 -2       532       534       533
 -1        50   12    0    1
 -2       534        24       535
 -1        51   12    0    1
 -2        17       537       536
 -1        52   12    0    1
 -2       537       539       538
 -1        53   12    0    1
 -2       539       541       540
 -1        54   12    0    1
 -2       541       543       542
 -1        55   12    0    1
 -2       543       545       544
 -1        56   12    0    1
 -2       545       547       546
 -1        57   12    0    1
 -2       547       549       548
 -1        58   12    0    1
 -2       549        18       550
 -1        59   12    0    1
 -2        17       552       551
 -1        60   12    0    1
 -2       552       554       553
 -1        61   12    0    1
 -2       554        24       555
 -1        62   12    0    1
 -2        17       557       556
 -1        63   12    0    1
 -2       557       559       558
 -1        64   12    0    1
 -2       559       561       560
 -1        65   12    0    1
 -2       561       563       562
 -1        66   12    0    1
 -2       563       565       564
 -1        67   12    0    1
 -2       565       567       566
 -1        68   12    0    1
 -2       567       569       568
 -1        69   12    0    1
 -2       569        25       570
 -1        70   12    0    1
 -2        18       572       571
 -1        71   12    0    1
 -2       572       574       573
 -1        72   12    0    1
 -2       574       576       575
 -1        73   12    0    1
 -2       576       578       577
 -1        74   12    0    1
 -2       578       580       579
 -1        75   12    0    1
 -2       580       582       581
 -1        76   12    0    1
 -2       582       584       583
 -1        77   12    0    1
 -2       584        19       585
 -1        78   12    0    1
 -2        18       587       586
 -1        79   12    0    1
 -2       587       589       588
 -1        80   12    0    1
 -2       589        25       590
 -1        81   12    0    1
 -2        18       592       591
 -1        82   12    0    1
 -2       592       594       593
 -1        83   12    0    1
 -2       594       596       595
 -1        84   12    0    1
 -2       596       598       597
 -1        85   12    0    1
 -2       598       600       599
 -1        86   12    0    1
 -2       600       602       601
 -1        87   12    0    1
 -2       602       604       603
 -1        88   12    0    1
 -2       604        26       605
 -1        89   12    0    1
 -2        19       607       606
 -1        90   12    0    1
 -2       607       609       608
 -1        91   12    0    1
 -2       609       611       610
 -1        92   12    0    1
 -2       611       613       612
 -1        93   12    0    1
 -2       613       615       614
 -1        94   12    0    1
 -2       615       617       616
 -1        95   12    0    1
 -2       617       619       618
 -1        96   12    0    1
 -2       619        20       620
 -1        97   12    0    1
 -2        19       622       621
 -1        98   12    0    1
 -2       622       624       623
 -1        99   12    0    1
 -2       624        26       625
 -1       100   12    0    1
 -2        19       627       626
 -1       101   12    0    1
 -2       627       629       628
 -1       102   12    0    1
 -2       629       631       630
 -1       103   12    0    1
 -2       631       633       632
 -1       104   12    0    1
 -2       633       635       634
 -1       105   12    0    1
 -2       635       637       636
 -1       106   12    0    1
 -2       637       639       638
 -1       107   12    0    1
 -2       639        27       640
 -1       108   12    0    1
 -2        20       657       656
 -1       109   12    0    1
 -2       657       659       658
 -1       110   12    0    1
 -2       659        27       660
 -1       111   12    0    1
 -2        20       662       661
 -1       112   12    0    1
 -2       662       664       663
 -1       113   12    0    1
 -2       664       666       665
 -1       114   12    0    1
 -2       666       668       667
 -1       115   12    0    1
 -2       668       670       669
 -1       116   12    0    1
 -2       670       672       671
 -1       117   12    0    1
 -2       672       674       673
 -1       118   12    0    1
 -2       674        28       675
 -1       119   12    0    1
 -2        21       677       676
 -1       120   12    0    1
 -2       677       679       678
 -1       121   12    0    1
 -2       679        28       680
 -1       122   12    0    1
 -2        24       772       771
 -1       123   12    0    1
 -2       772       774       773
 -1       124   12    0    1
 -2       774       776       775
 -1       125   12    0    1
 -2       776       778       777
 -1       126   12    0    1
 -2       778       780       779
 -1       127   12    0    1
 -2       780       782       781
 -1       128   12    0    1
 -2       782       784       783
 -1       129   12    0    1
 -2       784        32       785
 -1       130   12    0    1
 -2        25       787       786
 -1       131   12    0    1
 -2       787       789       788
 -1       132   12    0    1
 -2       789       791       790
 -1       133   12    0    1
 -2       791       793       792
 -1       134   12    0    1
 -2       793       795       794
 -1       135   12    0    1
 -2       795       797       796
 -1       136   12    0    1
 -2       797       799       798
 -1       137   12    0    1
 -2       799        26       800
 -1       138   12    0    1
 -2        25       802       801
 -1       139   12    0    1
 -2       802       804       803
 -1       140   12    0    1
 -2       804        32       805
 -1       141   12    0    1
 -2        25       807       806
 -1       142   12    0    1
 -2       807       809       808
 -1       143   12    0    1
 -2       809       811       810
 -1       144   12    0    1
 -2       811       813       812
 -1       145   12    0    1
 -2       813       815       814
 -1       146   12    0    1
 -2       815       817       816
 -1       147   12    0    1
 -2       817       819       818
 -1       148   12    0    1
 -2       819        33       820
 -1       149   12    0    1
 -2        26       822       821
 -1       150   12    0    1
 -2       822       824       823
 -1       151   12    0    1
 -2       824       826       825
 -1       152   12    0    1
 -2       826       828       827
 -1       153   12    0    1
 -2       828       830       829
 -1       154   12    0    1
 -2       830       832       831
 -1       155   12    0    1
 -2       832       834       833
 -1       156   12    0    1
 -2       834        27       835
 -1       157   12    0    1
 -2        26       837       836
 -1       158   12    0    1
 -2       837       839       838
 -1       159   12    0    1
 -2       839        33       840
 -1       160   12    0    1
 -2        27       857       856
 -1       161   12    0    1
 -2       857       859       858
 -1       162   12    0    1
 -2       859       861       860
 -1       163   12    0    1
 -2       861       863       862
 -1       164   12    0    1
 -2       863       865       864
 -1       165   12    0    1
 -2       865       867       866
 -1       166   12    0    1
 -2       867       869       868
 -1       167   12    0    1
 -2       869        28       870
 -1       168   12    0    1
 -2        27       872       871
 -1       169   12    0    1
 -2       872       874       873
 -1       170   12    0    1
 -2       874        34       875
 -1       171   12    0    1
 -2        27       877       876
 -1       172   12    0    1
 -2       877       879       878
 -1       173   12    0    1
 -2       879       881       880
 -1       174   12    0    1
 -2       881       883       882
 -1       175   12    0    1
 -2       883       885       884
 -1       176   12    0    1
 -2       885       887       886
 -1       177   12    0    1
 -2       887       889       888
 -1       178   12    0    1
 -2       889        35       890
 -1       179   12    0    1
 -2        28       892       891
 -1       180   12    0    1
 -2       892       894       893
 -1       181   12    0    1
 -2       894        35       895
 -1       182   12    0    1
 -2        33       957       956
 -1       183   12    0    1
 -2       957       959       958
 -1       184   12    0    1
 -2       959       961       960
 -1       185   12    0    1
 -2       961       963       962
 -1       186   12    0    1
 -2       963       965       964
 -1       187   12    0    1
 -2       965       967       966
 -1       188   12    0    1
 -2       967       969       968
 -1       189   12    0    1
 -2       969        34       970
 -1       190   12    0    1
 -2        34       972       971
 -1       191   12    0    1
 -2       972       974       973
 -1       192   12    0    1
 -2       974       976       975
 -1       193   12    0    1
 -2       976       978       977
 -1       194   12    0    1
 -2       978       980       979
 -1       195   12    0    1
 -2       980       982       981
 -1       196   12    0    1
 -2       982       984       983
 -1       197   12    0    1
 -2       984        35       985
 -3
    1PSTEP                         1           1           1          
  100CL  101 1.000000000         382                     0    1           1
 -4  DISP        4    1
 -5  D1          1    2    1    0
 -5  D2          1    2    2    0
 -5  D3          1    2    3    0
 -5  ALL         1    2    0    0    1ALL
 -1         1 1.32602E-04 0.00000E+00 0.00000E+00
 -1         3 8.36475E-05-3.79254E-27 0.00000E+00
 -1         5 6.56016E-05 3.79311E-25 1.32349E-23
 -1         8 1.05588E-04-1.40910E-06 0.00000E+00
 -1         9 9.06315E-05-2.82761E-05 0.00000E+00
 -1        10 7.72177E-05-2.56543E-06-6.61744E-24
 -1        12 6.42946E-05 1.24109E-06 0.00000E+00
 -1        16 7.44555E-05-2.84406E-05 0.00000E+00
 -1        17 5.85837E-05-5.14577E-06 0.00000E+00
 -1        18 5.83358E-05-5.24827E-07 0.00000E+00
 -1        19 6.03714E-05 2.47259E-06 0.00000E+00
 -1        20 6.11557E-05 2.72265E-05 0.00000E+00
 -1        21 6.11508E-05 6.34471E-05 0.00000E+00
 -1        24 2.40188E-05-6.42595E-06 0.00000E+00
 -1        25 5.37168E-05-1.75169E-07 0.00000E+00
 -1        26 5.53854E-05 3.28608E-06 0.00000E+00
 -1        27 5.33529E-05 2.61896E-05 0.00000E+00
 -1        28 5.10938E-05 6.24394E-05 0.00000E+00
 -1        32 0.00000E+00 0.00000E+00 0.00000E+00
 -1        33 4.97878E-05 4.73246E-06 0.00000E+00
 -1        34 4.74527E-05 2.60794E-05 0.00000E+00
 -1        35 4.38298E-05 6.19262E-05 0.00000E+00
 -1        51 1.30525E-04-2.35232E-07 0.00000E+00
 -1        52 1.27124E-04-4.62931E-07 0.00000E+00
 -1        53 1.22657E-04-6.90713E-07 0.00000E+00
 -1        54 1.17397E-04-9.21499E-07 0.00000E+00
 -1        55 1.11616E-04-1.15775E-06-1.14771E-23
 -1        56 1.30006E-04-1.53301E-06-5.29396E-23
 -1        57 1.27668E-04-4.06640E-06 0.00000E+00
 -1        58 1.25643E-04-7.42515E-06 0.00000E+00
 -1        59 1.23838E-04-1.14269E-05 0.00000E+00
 -1        60 1.22166E-04-1.57884E-05 0.00000E+00
 -1        61 1.20513E-04-2.02093E-05 0.00000E+00
 -1        62 1.18766E-04-2.43799E-05 0.00000E+00
 -1        63 1.16817E-04-2.80085E-05 0.00000E+00
 -1        64 1.14584E-04-3.08765E-05-1.05879E-22
 -1        65 1.12005E-04-3.28163E-05 0.00000E+00
 -1        66 1.09064E-04-3.37861E-05 1.05879E-22
 -1        67 1.05769E-04-3.38085E-05 0.00000E+00
 -1        68 1.02176E-04-3.30353E-05 1.05879E-22
 -1        69 9.83767E-05-3.16649E-05 0.00000E+00
 -1        70 9.44557E-05-2.99900E-05 0.00000E+00
 -1       121 8.34674E-05-4.26878E-07 0.00000E+00
 -1       122 8.29276E-05-8.53875E-07 0.00000E+00
 -1       123 8.20297E-05-1.28112E-06 0.00000E+00
 -1       124 8.07761E-05-1.70872E-06 0.00000E+00
 -1       125 7.91706E-05-2.13679E-06-1.32349E-23
 -1       191 6.55653E-05 2.06887E-07 0.00000E+00
 -1       192 6.54565E-05 4.13767E-07 0.00000E+00
 -1       193 6.52750E-05 6.20637E-07 0.00000E+00
 -1       194 6.50208E-05 8.27488E-07 0.00000E+00
 -1       195 6.46941E-05 1.03431E-06 0.00000E+00
 -1       271 1.01931E-04 1.67282E-06 5.29396E-23
 -1       272 9.87678E-05 3.22553E-06 0.00000E+00
 -1       273 9.61224E-05 3.40872E-06 0.00000E+00
 -1       274 9.39211E-05 2.37767E-06 2.64698E-23
 -1       275 9.21048E-05 3.14277E-07-5.29396E-23
 -1       276 9.05979E-05-2.58331E-06 2.64698E-23
 -1       277 8.93222E-05-6.10287E-06-5.29396E-23
 -1       278 8.81943E-05-1.00207E-05 2.64698E-23
 -1       279 8.71289E-05-1.41067E-05 0.00000E+00
 -1       280 8.60395E-05-1.81276E-05 0.00000E+00
 -1       281 8.48400E-05-2.18509E-05 0.00000E+00
 -1       282 8.34469E-05-2.50501E-05-2.64698E-23
 -1       283 8.17783E-05-2.75072E-05-5.29396E-23
 -1       284 7.97646E-05-2.90154E-05 0.00000E+00
 -1       285 7.73245E-05-2.93894E-05 5.29396E-23
 -1       301 8.78862E-05-2.83157E-05 0.00000E+00
 -1       302 8.51388E-05-2.83324E-05-3.30872E-24
 -1       303 8.24058E-05-2.83458E-05 6.61744E-24
 -1       304 7.97034E-05-2.83607E-05-3.30872E-24
 -1       305 7.70479E-05-2.83822E-05 0.00000E+00
 -1       306 8.84543E-05-2.62787E-05-2.64698E-23
 -1       307 8.63912E-05-2.46791E-05-1.32349E-23
 -1       308 8.44509E-05-2.34035E-05 2.64698E-23
 -1       309 8.26037E-05-2.23883E-05 2.64698E-23
 -1       310 8.08277E-05-2.15641E-05 0.00000E+00
 -1       311 7.90965E-05-2.08612E-05 0.00000E+00
 -1       312 7.73840E-05-2.02084E-05-5.29396E-23
 -1       313 7.56632E-05-1.95340E-05 2.64698E-23
 -1       314 7.39075E-05-1.87668E-05 0.00000E+00
 -1       315 7.20905E-05-1.78363E-05 0.00000E+00
 -1       316 7.01864E-05-1.66736E-05 0.00000E+00
 -1       317 6.81707E-05-1.52122E-05 0.00000E+00
 -1       318 6.60192E-05-1.33884E-05 0.00000E+00
 -1       319 6.37143E-05-1.11406E-05-1.32349E-23
 -1       320 6.12280E-05-8.41520E-06 0.00000E+00
 -1       336 7.49228E-05-2.99472E-06 1.32349E-23
 -1       337 7.22928E-05-3.42465E-06 0.00000E+00
 -1       338 6.93349E-05-3.85533E-06 1.32349E-23
 -1       339 6.60576E-05-4.28620E-06-6.61744E-24
 -1       340 6.24704E-05-4.71811E-06 0.00000E+00
 -1       406 6.38225E-05 1.44781E-06 0.00000E+00
 -1       407 6.32776E-05 1.65440E-06 0.00000E+00
 -1       408 6.26599E-05 1.86079E-06-6.61744E-24
 -1       409 6.19695E-05 2.06663E-06-3.30872E-24
 -1       410 6.12065E-05 2.27140E-06 0.00000E+00
 -1       521 7.13297E-05-2.69506E-05 5.29396E-23
 -1       522 6.82518E-05-2.57757E-05 2.64698E-23
 -1       523 6.52643E-05-2.48378E-05-5.29396E-23
 -1       524 6.23352E-05-2.40813E-05 2.64698E-23
 -1       525 5.94486E-05-2.34411E-05 0.00000E+00
 -1       526 5.65799E-05-2.28530E-05 0.00000E+00
 -1       527 5.37058E-05-2.22515E-05-5.29396E-23
 -1       528 5.08018E-05-2.15715E-05 0.00000E+00
 -1       529 4.78443E-05-2.07493E-05 0.00000E+00
 -1       530 4.48104E-05-1.97238E-05 0.00000E+00
 -1       531 4.16784E-05-1.84376E-05 0.00000E+00
 -1       532 3.84297E-05-1.68375E-05 0.00000E+00
 -1       533 3.50457E-05-1.48762E-05 0.00000E+00
 -1       534 3.15185E-05-1.25105E-05-2.64698E-23
 -1       535 2.78255E-05-9.70994E-06 0.00000E+00
 -1       536 5.85491E-05-1.59399E-06 6.61744E-24
 -1       537 5.85294E-05 1.10899E-06 0.00000E+00
 -1       538 5.85114E-05 3.05096E-06 3.30872E-24
 -1       539 5.84962E-05 4.32078E-06 0.00000E+00
 -1       540 5.84819E-05 5.00716E-06 0.00000E+00
 -1       541 5.84682E-05 5.19893E-06 0.00000E+00
 -1       542 5.84545E-05 4.98496E-06 0.00000E+00
 -1       543 5.84409E-05 4.45414E-06 0.00000E+00
 -1       544 5.84272E-05 3.69542E-06 0.00000E+00
 -1       545 5.84134E-05 2.79774E-06 0.00000E+00
 -1       546 5.83995E-05 1.85007E-06 0.00000E+00
 -1       547 5.83858E-05 9.41384E-07 5.16988E-26
 -1       548 5.83722E-05 1.60640E-07 0.00000E+00
 -1       549 5.83592E-05-4.03226E-07 0.00000E+00
 -1       550 5.83462E-05-6.61205E-07 0.00000E+00
 -1       551 5.34314E-05-5.35127E-06-4.54949E-24
 -1       552 4.76667E-05-5.55501E-06-2.48154E-24
 -1       553 4.15639E-05-5.76054E-06 6.61744E-24
 -1       554 3.54027E-05-5.96936E-06-6.61744E-24
 -1       555 2.94625E-05-6.18318E-06 2.64698E-23
 -1       556 5.71188E-05-1.78188E-06 0.00000E+00
 -1       557 5.59563E-05 8.02214E-07 2.64698E-23
 -1       558 5.50618E-05 2.67995E-06 1.32349E-23
 -1       559 5.44040E-05 3.93196E-06 0.00000E+00
 -1       560 5.39515E-05 4.63902E-06 0.00000E+00
 -1       561 5.36734E-05 4.88264E-06 0.00000E+00
 -1       562 5.35388E-05 4.74442E-06 1.32349E-23
 -1       563 5.35166E-05 4.30614E-06 0.00000E+00
 -1       564 5.35763E-05 3.64966E-06-6.61744E-24
 -1       565 5.36871E-05 2.85688E-06 0.00000E+00
 -1       566 5.38182E-05 2.00974E-06-3.30872E-24
 -1       567 5.39391E-05 1.19024E-06-3.30872E-24
 -1       568 5.40192E-05 4.80299E-07 0.00000E+00
 -1       569 5.40282E-05-3.82223E-08-4.13590E-25
 -1       570 5.39358E-05-2.83568E-07-1.65436E-24
 -1       571 5.84582E-05-2.68909E-07 3.30872E-24
 -1       572 5.85842E-05-1.00122E-07-4.13590E-25
 -1       573 5.87112E-05-2.51845E-09-3.30872E-24
 -1       574 5.88387E-05 4.06644E-08 0.00000E+00
 -1       575 5.89664E-05 4.62592E-08 3.30872E-24
 -1       576 5.90942E-05 3.12079E-08 0.00000E+00
 -1       577 5.92220E-05 1.24606E-08-3.30872E-24
 -1       578 5.93499E-05 6.98213E-09 3.30872E-24
 -1       579 5.94777E-05 3.17387E-08 0.00000E+00
 -1       580 5.96055E-05 1.03698E-07-6.61744E-24
 -1       581 5.97333E-05 2.39826E-07 0.00000E+00
 -1       582 5.98611E-05 4.57074E-07 0.00000E+00
 -1       583 5.99889E-05 7.72380E-07 0.00000E+00
 -1       584 6.01166E-05 1.20251E-06 0.00000E+00
 -1       585 6.02441E-05 1.76412E-06 0.00000E+00
 -1       586 5.76977E-05-4.65487E-07 0.00000E+00
 -1       587 5.69571E-05-4.05684E-07 0.00000E+00
 -1       588 5.61508E-05-3.45945E-07 0.00000E+00
 -1       589 5.53168E-05-2.86753E-07-4.13590E-25
 -1       590 5.44930E-05-2.28790E-07 0.00000E+00
 -1       591 5.81340E-05-2.20943E-07 0.00000E+00
 -1       592 5.79479E-05 2.33658E-08 0.00000E+00
 -1       593 5.77786E-05 2.20031E-07 0.00000E+00
 -1       594 5.76225E-05 3.79749E-07-1.65436E-24
 -1       595 5.74760E-05 5.13229E-07-3.30872E-24
 -1       596 5.73352E-05 6.31098E-07-1.65436E-24
 -1       597 5.71963E-05 7.43970E-07 3.30872E-24
 -1       598 5.70553E-05 8.62449E-07-8.27181E-25
 -1       599 5.69081E-05 9.97138E-07 0.00000E+00
 -1       600 5.67510E-05 1.15864E-06 0.00000E+00
 -1       601 5.65798E-05 1.35754E-06-1.65436E-24
 -1       602 5.63907E-05 1.60447E-06-8.27181E-25
 -1       603 5.61799E-05 1.91002E-06-1.65436E-24
 -1       604 5.59436E-05 2.28486E-06 6.20385E-25
 -1       605 5.56785E-05 2.73967E-06-4.13590E-25
 -1       606 6.04255E-05 3.44011E-06 0.00000E+00
 -1       607 6.04764E-05 4.52013E-06 0.00000E+00
 -1       608 6.05262E-05 5.70601E-06 0.00000E+00
 -1       609 6.05755E-05 6.99013E-06 0.00000E+00
 -1       610 6.06245E-05 8.36483E-06 0.00000E+00
 -1       611 6.06734E-05 9.82228E-06 0.00000E+00
 -1       612 6.07221E-05 1.13547E-05 0.00000E+00
 -1       613 6.07706E-05 1.29542E-05-1.65436E-24
 -1       614 6.08191E-05 1.46130E-05 0.00000E+00
 -1       615 6.08675E-05 1.63232E-05 0.00000E+00
 -1       616 6.09158E-05 1.80770E-05-3.30872E-24
 -1       617 6.09641E-05 1.98667E-05 0.00000E+00
 -1       618 6.10123E-05 2.16842E-05 3.30872E-24
 -1       619 6.10604E-05 2.35220E-05 8.27181E-25
 -1       620 6.11083E-05 2.53720E-05 0.00000E+00
 -1       621 5.94684E-05 2.60894E-06-3.30872E-24
 -1       622 5.85770E-05 2.74576E-06 0.00000E+00
 -1       623 5.77102E-05 2.88255E-06 3.30872E-24
 -1       624 5.68808E-05 3.01895E-06 1.65436E-24
 -1       625 5.61017E-05 3.15457E-06 0.00000E+00
 -1       626 6.01060E-05 3.49942E-06 0.00000E+00
 -1       627 5.97954E-05 4.64404E-06 0.00000E+00
 -1       628 5.94443E-05 5.89538E-06 0.00000E+00
 -1       629 5.90576E-05 7.24109E-06-6.61744E-24
 -1       630 5.86400E-05 8.66880E-06-6.61744E-24
 -1       631 5.81962E-05 1.01659E-05-6.61744E-24
 -1       632 5.77310E-05 1.17199E-05 0.00000E+00
 -1       633 5.72492E-05 1.33182E-05 0.00000E+00
 -1       634 5.67553E-05 1.49482E-05 6.61744E-24
 -1       635 5.62543E-05 1.65974E-05 0.00000E+00
 -1       636 5.57507E-05 1.82531E-05-3.30872E-24
 -1       637 5.52493E-05 1.99029E-05-8.27181E-25
 -1       638 5.47548E-05 2.15340E-05 1.65436E-24
 -1       639 5.42715E-05 2.31340E-05 1.24077E-24
 -1       640 5.38036E-05 2.46902E-05-8.27181E-25
 -1       656 5.95222E-05 2.70592E-05 3.30872E-24
 -1       657 5.81418E-05 2.68835E-05 0.00000E+00
 -1       658 5.69248E-05 2.67082E-05 0.00000E+00
 -1       659 5.57811E-05 2.65328E-05 0.00000E+00
 -1       660 5.46205E-05 2.63572E-05 1.65436E-24
 -1       661 6.06150E-05 2.91773E-05 3.30872E-24
 -1       662 6.00351E-05 3.12501E-05 0.00000E+00
 -1       663 5.94171E-05 3.34237E-05 0.00000E+00
 -1       664 5.87688E-05 3.56799E-05 0.00000E+00
 -1       665 5.80966E-05 3.79999E-05 0.00000E+00
 -1       666 5.74075E-05 4.03652E-05-3.30872E-24
 -1       667 5.67083E-05 4.27572E-05-6.61744E-24
 -1       668 5.60060E-05 4.51577E-05 0.00000E+00
 -1       669 5.53074E-05 4.75480E-05 6.61744E-24
 -1       670 5.46196E-05 4.99099E-05 0.00000E+00
 -1       671 5.39494E-05 5.22248E-05 6.61744E-24
 -1       672 5.33037E-05 5.44743E-05 0.00000E+00
 -1       673 5.26894E-05 5.66397E-05 0.00000E+00
 -1       674 5.21126E-05 5.87019E-05 0.00000E+00
 -1       675 5.15816E-05 6.06426E-05 1.65436E-24
 -1       676 5.94636E-05 6.32778E-05 6.61744E-24
 -1       677 5.77783E-05 6.31086E-05 3.30872E-24
 -1       678 5.60968E-05 6.29395E-05 3.30872E-24
 -1       679 5.44209E-05 6.27712E-05 0.00000E+00
 -1       680 5.27527E-05 6.26028E-05-3.30872E-24
 -1       771 2.14078E-05-3.04268E-06 5.29396E-23
 -1       772 1.90637E-05-4.01767E-07 2.64698E-23
 -1       773 1.69712E-05 1.56736E-06 5.29396E-23
 -1       774 1.51032E-05 2.93769E-06 0.00000E+00
 -1       775 1.34328E-05 3.78276E-06 0.00000E+00
 -1       776 1.19318E-05 4.17713E-06 0.00000E+00
 -1       777 1.05720E-05 4.19575E-06 0.00000E+00
 -1       778 9.32490E-06 3.91419E-06 0.00000E+00
 -1       779 8.16201E-06 3.40830E-06 0.00000E+00
 -1       780 7.05473E-06 2.75427E-06 0.00000E+00
 -1       781 5.97445E-06 2.02846E-06 0.00000E+00
 -1       782 4.89268E-06 1.30737E-06 0.00000E+00
 -1       783 3.78090E-06 6.67496E-07 0.00000E+00
 -1       784 2.61151E-06 1.85301E-07 0.00000E+00
 -1       785 1.35684E-06-6.29396E-08 2.64698E-23
 -1       786 5.38145E-05 3.08476E-07 0.00000E+00
 -1       787 5.39184E-05 6.73452E-07-8.27181E-25
 -1       788 5.40223E-05 9.37593E-07 0.00000E+00
 -1       789 5.41272E-05 1.11878E-06 0.00000E+00
 -1       790 5.42322E-05 1.23483E-06 0.00000E+00
 -1       791 5.43374E-05 1.30351E-06-1.65436E-24
 -1       792 5.44427E-05 1.34256E-06 0.00000E+00
 -1       793 5.45480E-05 1.36968E-06 0.00000E+00
 -1       794 5.46533E-05 1.40258E-06 3.30872E-24
 -1       795 5.47586E-05 1.45898E-06-1.65436E-24
 -1       796 5.48638E-05 1.55660E-06 0.00000E+00
 -1       797 5.49690E-05 1.71320E-06 1.65436E-24
 -1       798 5.50741E-05 1.94657E-06 0.00000E+00
 -1       799 5.51788E-05 2.27456E-06 0.00000E+00
 -1       800 5.52835E-05 2.71511E-06 0.00000E+00
 -1       801 4.90660E-05-1.11891E-07 0.00000E+00
 -1       802 3.93522E-05-7.34142E-08 0.00000E+00
 -1       803 2.70795E-05-5.88231E-08 0.00000E+00
 -1       804 1.47577E-05-5.00267E-08 0.00000E+00
 -1       805 4.89618E-06-1.89060E-08 0.00000E+00
 -1       806 5.34262E-05 2.63635E-07 0.00000E+00
 -1       807 5.31554E-05 6.40214E-07 6.61744E-24
 -1       808 5.29033E-05 9.64268E-07-6.61744E-24
 -1       809 5.26670E-05 1.24535E-06 0.00000E+00
 -1       810 5.24430E-05 1.49298E-06-3.30872E-24
 -1       811 5.22279E-05 1.71671E-06 1.65436E-24
 -1       812 5.20182E-05 1.92605E-06 0.00000E+00
 -1       813 5.18104E-05 2.13052E-06 0.00000E+00
 -1       814 5.16007E-05 2.33965E-06 0.00000E+00
 -1       815 5.13858E-05 2.56296E-06 1.65436E-24
 -1       816 5.11620E-05 2.80997E-06 1.65436E-24
 -1       817 5.09257E-05 3.09019E-06 8.27181E-25
 -1       818 5.06734E-05 3.41314E-06 0.00000E+00
 -1       819 5.04018E-05 3.78826E-06-1.24077E-24
 -1       820 5.01073E-05 4.22501E-06 1.65436E-24
 -1       821 5.52663E-05 4.03520E-06 8.27181E-25
 -1       822 5.51399E-05 4.96487E-06 0.00000E+00
 -1       823 5.50133E-05 6.05636E-06-3.30872E-24
 -1       824 5.48856E-05 7.29060E-06 1.65436E-24
 -1       825 5.47575E-05 8.64845E-06 0.00000E+00
 -1       826 5.46291E-05 1.01106E-05-1.65436E-24
 -1       827 5.45005E-05 1.16578E-05 0.00000E+00
 -1       828 5.43718E-05 1.32705E-05 0.00000E+00
 -1       829 5.42430E-05 1.49293E-05 0.00000E+00
 -1       830 5.41142E-05 1.66146E-05-1.65436E-24
 -1       831 5.39854E-05 1.83069E-05-3.30872E-24
 -1       832 5.38568E-05 1.99866E-05 0.00000E+00
 -1       833 5.37285E-05 2.16342E-05 0.00000E+00
 -1       834 5.36011E-05 2.32302E-05 0.00000E+00
 -1       835 5.34738E-05 2.47551E-05 0.00000E+00
 -1       836 5.45911E-05 3.52320E-06 0.00000E+00
 -1       837 5.36242E-05 3.76852E-06 3.30872E-24
 -1       838 5.25724E-05 4.01341E-06 0.00000E+00
 -1       839 5.15237E-05 4.25753E-06 0.00000E+00
 -1       840 5.05663E-05 4.50190E-06-3.30872E-24
 -1       856 5.32202E-05 2.77194E-05 0.00000E+00
 -1       857 5.30803E-05 2.95080E-05 1.65436E-24
 -1       858 5.29399E-05 3.15218E-05-3.30872E-24
 -1       859 5.27982E-05 3.37263E-05 1.65436E-24
 -1       860 5.26560E-05 3.60870E-05 0.00000E+00
 -1       861 5.25133E-05 3.85694E-05-1.65436E-24
 -1       862 5.23703E-05 4.11388E-05 0.00000E+00
 -1       863 5.22272E-05 4.37603E-05 0.00000E+00
 -1       864 5.20840E-05 4.63993E-05 0.00000E+00
 -1       865 5.19409E-05 4.90208E-05-1.65436E-24
 -1       866 5.17980E-05 5.15901E-05 3.30872E-24
 -1       867 5.16553E-05 5.40724E-05 0.00000E+00
 -1       868 5.15131E-05 5.64330E-05 0.00000E+00
 -1       869 5.13717E-05 5.86373E-05 0.00000E+00
 -1       870 5.12307E-05 6.06507E-05 3.30872E-24
 -1       871 5.22004E-05 2.61740E-05 0.00000E+00
 -1       872 5.11860E-05 2.61568E-05 0.00000E+00
 -1       873 5.02573E-05 2.61393E-05 0.00000E+00
 -1       874 4.93610E-05 2.61211E-05 0.00000E+00
 -1       875 4.84438E-05 2.61022E-05-1.65436E-24
 -1       876 5.29945E-05 2.77710E-05-3.30872E-24
 -1       877 5.25628E-05 2.95725E-05-3.30872E-24
 -1       878 5.20599E-05 3.15625E-05 6.61744E-24
 -1       879 5.14977E-05 3.37133E-05 0.00000E+00
 -1       880 5.08858E-05 3.59963E-05 6.61744E-24
 -1       881 5.02347E-05 3.83838E-05-3.30872E-24
 -1       882 4.95547E-05 4.08481E-05-6.61744E-24
 -1       883 4.88561E-05 4.33615E-05-3.30872E-24
 -1       884 4.81494E-05 4.58965E-05 0.00000E+00
 -1       885 4.74449E-05 4.84256E-05 0.00000E+00
 -1       886 4.67528E-05 5.09214E-05 0.00000E+00
 -1       887 4.60836E-05 5.33562E-05 0.00000E+00
 -1       888 4.54475E-05 5.57024E-05-6.61744E-24
 -1       889 4.48538E-05 5.79319E-05 1.65436E-24
 -1       890 4.43146E-05 6.00171E-05 0.00000E+00
 -1       891 4.96757E-05 6.23543E-05 0.00000E+00
 -1       892 4.85317E-05 6.22681E-05-1.65436E-24
 -1       893 4.75186E-05 6.21822E-05 0.00000E+00
 -1       894 4.64929E-05 6.20964E-05 8.27181E-25
 -1       895 4.53110E-05 6.20103E-05 0.00000E+00
 -1       956 4.96455E-05 5.49206E-06 8.27181E-25
 -1       957 4.95004E-05 6.41093E-06 1.65436E-24
 -1       958 4.93547E-05 7.47233E-06 3.30872E-24
 -1       959 4.92086E-05 8.65842E-06-1.65436E-24
 -1       960 4.90622E-05 9.95138E-06 1.65436E-24
 -1       961 4.89156E-05 1.13332E-05-1.65436E-24
 -1       962 4.87690E-05 1.27859E-05-3.30872E-24
 -1       963 4.86223E-05 1.42915E-05-1.65436E-24
 -1       964 4.84755E-05 1.58319E-05 0.00000E+00
 -1       965 4.83287E-05 1.73892E-05 1.65436E-24
 -1       966 4.81819E-05 1.89454E-05-6.61744E-24
 -1       967 4.80352E-05 2.04823E-05 0.00000E+00
 -1       968 4.78886E-05 2.19820E-05-6.61744E-24
 -1       969 4.77423E-05 2.34266E-05 0.00000E+00
 -1       970 4.75965E-05 2.47982E-05 6.61744E-24
 -1       971 4.72328E-05 2.74298E-05 3.30872E-24
 -1       972 4.70072E-05 2.90663E-05 3.30872E-24
 -1       973 4.67811E-05 3.09538E-05 0.00000E+00
 -1       974 4.65538E-05 3.30569E-05 0.00000E+00
 -1       975 4.63261E-05 3.53397E-05 0.00000E+00
 -1       976 4.60979E-05 3.77662E-05-3.30872E-24
 -1       977 4.58694E-05 4.03001E-05 0.00000E+00
 -1       978 4.56407E-05 4.29050E-05 0.00000E+00
 -1       979 4.54119E-05 4.55444E-05-6.61744E-24
 -1       980 4.51832E-05 4.81819E-05-3.30872E-24
 -1       981 4.49546E-05 5.07808E-05 0.00000E+00
 -1       982 4.47265E-05 5.33048E-05-3.30872E-24
 -1       983 4.44988E-05 5.57175E-05 0.00000E+00
 -1       984 4.42726E-05 5.79825E-05-3.30872E-24
 -1       985 4.40468E-05 6.00639E-05 0.00000E+00
 -3
    1PSTEP                         2           1           1          
  100CL  101 1.000000000         382                     0    1           1
 -4  STRESS      6    1
 -5  SXX         1    4    1    1
 -5  SYY         1    4    2    2
 -5  SZZ         1    4    3    3
 -5  SXY         1    4    1    2
 -5  SYZ         1    4    2    3
 -5  SZX         1    4    3    1
 -1         1-3.76297E+06-1.61154E+06-8.45214E+05-1.94340E+06 1.04046E-09-6.69388E-10
 -1         3-6.10064E+01-1.21981E+06-2.90292E+01-3.45602E+02-1.97919E-10 7.11498E-09
 -1         5-3.93040E+01 5.92214E+05 2.02806E+01 1.90232E+00 2.60659E-10 1.47702E-09
 -1         8-2.81885E+06-1.30123E+06-5.12617E+05-1.76325E+06 2.54659E-10 9.54606E-09
 -1         9-3.53847E+06-1.15851E+06-6.28351E+05-1.10308E+06 2.55144E-09-3.72529E-09
 -1        10-1.12853E+02-1.21994E+06-1.11569E+03-2.01663E+03-3.09748E-09-2.28056E-09
 -1        12-3.11455E+01 5.92257E+05 6.58618E+02 1.22141E+01 4.66031E-10 2.65791E-08
 -1        16-3.74226E+06-1.18736E+06-4.94061E+05-1.28896E+06 4.76575E-10-7.51182E-09
 -1        17-7.17534E+05-5.60821E+05-8.45285E+04-4.87656E+05-3.38478E-09-1.74623E-10
 -1        18 3.19990E+04 1.35387E+04-1.71836E+04-1.20942E+05 6.24368E-10-1.12595E-09
 -1        19 1.57852E+05 2.01425E+05 5.96604E+02 1.01100E+04-6.94854E-11 1.73532E-09
 -1        20 1.46291E+05-1.18018E+05-1.62896E+04 8.77044E+04 6.78604E-09 5.25082E-10
 -1        21-1.29507E+02-4.80889E+05-2.09042E+03-6.30575E+02 7.01044E-09 9.06930E-09
 -1        24-2.78042E+06-1.00776E+06-2.47328E+05-1.36189E+06-5.51033E-09 5.77226E-09
 -1        25-8.22698E+03 4.05918E+04 2.55440E+04-5.12552E+05 1.75132E-09-1.33368E-09
 -1        26-1.20081E+04 1.83046E+05 1.00178E+04-3.86041E+04-9.16771E-11 6.63186E-09
 -1        27-2.94097E+04-7.43483E+04-3.27205E+04 1.00698E+05 1.22327E-09-4.14063E-09
 -1        28-1.23654E+04-1.45744E+05-2.35760E+03 6.79439E+04 1.24905E-08-3.28933E-09
 -1        32-1.06572E+06-1.74500E+05 2.51599E+05-1.54533E+06-1.53523E-09 9.27002E-10
 -1        33-1.43987E+05 2.00517E+05 6.01113E+04-5.04697E+04-1.41730E-11-1.06957E-09
 -1        34-3.37872E+05-5.60260E+04-2.10514E+04 9.18183E+04 6.24884E-09 3.37726E-10
 -1        35-4.39355E+04-4.66810E+04-7.98672E+02 1.04228E+05 9.11074E-09-1.74623E-10
 -1        51 3.97817E+04-5.88624E+05 6.34591E+04-1.53852E+06-4.94765E-10-1.94996E-09
 -1        52 2.25827E+04-5.88891E+05 4.07928E+04-1.69031E+06 4.36557E-11 1.51995E-08
 -1        53 1.86939E+04-6.08015E+05 3.53881E+04-1.53443E+06 7.78527E-10 6.24277E-09
 -1        54 4.14914E+04-6.06010E+05 5.74498E+04-1.69441E+06 1.16415E-10 4.83124E-09
 -1        55 8.60420E+04-6.25773E+05 1.06051E+05-1.53348E+06 2.76486E-10 3.24508E-09
 -1        56-7.10324E+06-7.86087E+05-5.97556E+05-2.74440E+06-7.85803E-10 2.61934E-10
 -1        57-7.37241E+06-1.29956E+06-4.03162E+05-2.68755E+06-3.75621E-09 1.38061E-08
 -1        58-7.23042E+06-9.68912E+05-1.40405E+05-2.69821E+06-1.86628E-09-3.34694E-10
 -1        59-7.22206E+06-1.08782E+06-8.37907E+04-2.74565E+06-3.32420E-09-9.67702E-09
 -1        60-7.25181E+06-9.91294E+05-3.27051E+04-2.68836E+06-6.20275E-10 4.62751E-09
 -1        61-7.20095E+06-1.05755E+06-1.86115E+04-2.75247E+06 3.87899E-10 1.13941E-08
 -1        62-7.25109E+06-9.98313E+05-9.01503E+03-2.69159E+06 2.89401E-09-3.24007E-11
 -1        63-7.21099E+06-1.04063E+06-7.45585E+03-2.73761E+06 3.25849E-09 3.02884E-09
 -1        64-7.24141E+06-1.00831E+06-8.80760E+03-2.70302E+06-3.92902E-10-2.47383E-10
 -1        65-7.23552E+06-1.02171E+06-1.76258E+04-2.71096E+06 1.29330E-09-2.78851E-09
 -1        66-7.22644E+06-1.01746E+06-3.11915E+04-2.71808E+06 9.29106E-10 6.77392E-09
 -1        67-7.27773E+06-1.02857E+06-7.94235E+04-2.67976E+06 4.69549E-09-1.43427E-09
 -1        68-7.19982E+06-1.00213E+06-1.33165E+05-2.73419E+06 3.58705E-09-2.47383E-09
 -1        69-7.42144E+06-1.22931E+06-3.82439E+05-2.62543E+06-4.66571E-09-4.20550E-09
 -1        70-7.08503E+06-8.22528E+05-5.66661E+05-2.77087E+06 1.92085E-09 1.45519E-10
 -1       121-8.14406E+01-1.22011E+06-7.75231E+01 1.72727E+02 3.17332E-10-2.92584E-09
 -1       122-5.91697E+01-1.21982E+06-6.73890E+01-6.84248E+02-1.04195E-09 8.23093E-10
 -1       123-7.83906E+01-1.22011E+06-1.70685E+02 5.11073E+02 1.00442E-09 2.17096E-09
 -1       124-5.80763E+01-1.21984E+06-2.70809E+02-1.35558E+03-1.92275E-09 3.77213E-09
 -1       125-6.77941E+01-1.22010E+06-5.70271E+02 8.43668E+02 1.39015E-09-1.92267E-09
 -1       191-4.19266E+01 5.92258E+05 2.29923E+01-9.62543E-01 3.53486E-10 4.45652E-10
 -1       192-4.11947E+01 5.92215E+05 4.29915E+01 4.96932E+00 5.69067E-10-1.85273E-08
 -1       193-4.69349E+01 5.92257E+05 7.87292E+01-4.07950E+00 7.31074E-10-6.79938E-09
 -1       194-4.72705E+01 5.92222E+05 1.62724E+02 1.07546E+01 2.37163E-10 4.21642E-09
 -1       195-5.65529E+01 5.92252E+05 3.17049E+02-6.84490E+00 9.57073E-10 1.21454E-08
 -1       271-5.56831E+06-7.34363E+05-4.29663E+05-2.16772E+06-1.10595E-09-4.36557E-10
 -1       272-5.69265E+06-1.00101E+06-2.65578E+05-2.19341E+06 9.74524E-10-1.78443E-08
 -1       273-5.64431E+06-8.13198E+05-1.01221E+05-2.15577E+06 1.50430E-09-7.85803E-10
 -1       274-5.60312E+06-8.92264E+05-5.42728E+04-2.22044E+06 1.03319E-09-4.28645E-09
 -1       275-5.65588E+06-8.17308E+05-2.34812E+04-2.15132E+06-5.05679E-10-5.92627E-09
 -1       276-5.58964E+06-8.86752E+05-1.21121E+04-2.22931E+06-3.89264E-10-3.57886E-10
 -1       277-5.65925E+06-8.15568E+05-6.22509E+03-2.14890E+06 2.86491E-10-5.92763E-10
 -1       278-5.58654E+06-8.88445E+05-4.65840E+03-2.23311E+06 2.87787E-09 1.01032E-08
 -1       279-5.65995E+06-8.14877E+05-5.43842E+03-2.14825E+06 6.68484E-09 7.21684E-09
 -1       280-5.58761E+06-8.88785E+05-1.00876E+04-2.23246E+06 3.34694E-09-2.75941E-09
 -1       281-5.65804E+06-8.15424E+05-1.91735E+04-2.14940E+06-5.37511E-10 5.35874E-09
 -1       282-5.59767E+06-8.94375E+05-4.43713E+04-2.22664E+06 2.52840E-10-1.56469E-08
 -1       283-5.64897E+06-8.11699E+05-8.25880E+04-2.15264E+06 1.24055E-09-5.00222E-09
 -1       284-5.67026E+06-9.83574E+05-2.16877E+05-2.20484E+06 8.65043E-10 1.07684E-08
 -1       285-5.58683E+06-7.47484E+05-3.50913E+05-2.16243E+06 9.78616E-10-3.71074E-09
 -1       301 6.91101E+04-2.23890E+04 1.71414E+05-4.73872E+04 3.52156E-09 5.21868E-09
 -1       302 2.41631E+04 1.11709E+04 1.09529E+05-5.70345E+04-3.25599E-10 4.50200E-09
 -1       303 6.25724E+03-1.06608E+04 9.37187E+04-4.75622E+04 3.87445E-10 3.16140E-09
 -1       304 3.69361E+04 1.97635E+04 1.46770E+05-5.68994E+04 5.36602E-10 9.68430E-09
 -1       305 1.09375E+05-3.08522E+04 2.60976E+05-4.74237E+04 1.00408E-09 7.61247E-09
 -1       306-3.17201E+06-4.25781E+05-1.84140E+05-1.22495E+06 8.71296E-10 3.49246E-09
 -1       307-3.22491E+06-5.41408E+05-1.13920E+05-1.23759E+06-4.56339E-10 1.17725E-08
 -1       308-3.20301E+06-4.61154E+05-4.33342E+04-1.22150E+06-5.18753E-10 5.28235E-09
 -1       309-3.18878E+06-4.92254E+05-2.33650E+04-1.24569E+06 1.37982E-09 3.14503E-09
 -1       310-3.20665E+06-4.64300E+05-1.00887E+04-1.22089E+06 3.34921E-10 1.00863E-09
 -1       311-3.18460E+06-4.87958E+05-5.35827E+03-1.24677E+06-1.63425E-10-2.91936E-09
 -1       312-3.20713E+06-4.64555E+05-2.93643E+03-1.22078E+06 1.55921E-09-2.63742E-09
 -1       313-3.18431E+06-4.87469E+05-2.59454E+03-1.24667E+06-7.96945E-11-7.78982E-10
 -1       314-3.20691E+06-4.64753E+05-3.52704E+03-1.22099E+06-1.21554E-09 2.17960E-09
 -1       315-3.18544E+06-4.87384E+05-6.95077E+03-1.24583E+06 3.25144E-10 1.27193E-08
 -1       316-3.20589E+06-4.64779E+05-1.33825E+04-1.22151E+06-1.15779E-09 6.99129E-09
 -1       317-3.19155E+06-4.92562E+05-3.11161E+04-1.24370E+06 9.06084E-10 1.35788E-09
 -1       318-3.20080E+06-4.60821E+05-5.77907E+04-1.22257E+06-6.12772E-11-5.10408E-09
 -1       319-3.24007E+06-5.57778E+05-1.51913E+05-1.23252E+06 4.58658E-09 1.94632E-10
 -1       320-3.15934E+06-4.13728E+05-2.45523E+05-1.22728E+06-5.12955E-09 3.76895E-09
 -1       336-8.12983E+00-1.22005E+06-2.18077E+03 1.17185E+03 2.10366E-09 1.94723E-09
 -1       337-8.49737E+02-1.22054E+06-4.67699E+03-2.66011E+03-3.74894E-09-2.26328E-09
 -1       338 5.24510E+02-1.21955E+06-8.57103E+03 1.48656E+03 2.31785E-09 3.14321E-09
 -1       339-9.33436E+03-1.22594E+06-2.07649E+04-3.36504E+03-4.19095E-09 3.14958E-09
 -1       340 6.11245E+03-1.21471E+06-3.31298E+04 1.86726E+03 3.36877E-09 7.17137E-09
 -1       406 1.79436E+01 5.92223E+05 1.29890E+03-5.62208E+00 1.46974E-09 1.09467E-08
 -1       407 4.22273E+02 5.92485E+05 2.76310E+03-8.95684E+00 3.92276E-10-4.90400E-09
 -1       408 1.39039E+03 5.92023E+05 5.51649E+03 1.57411E+01 1.65937E-09 8.91305E-10
 -1       409 5.93715E+03 5.94246E+05 1.24204E+04-1.94243E+02 1.44610E-10-1.01500E-09
 -1       410 1.71146E+04 5.90449E+05 2.53544E+04 2.03164E+02 1.71713E-09-3.14685E-10
 -1       521-5.71567E+06-7.51995E+05-3.62472E+05-2.19822E+06 2.05182E-09-7.85803E-10
 -1       522-5.84191E+06-9.58694E+05-2.24415E+05-2.19832E+06 1.38698E-09 6.69388E-10
 -1       523-5.77609E+06-8.22530E+05-8.51801E+04-2.19185E+06-1.99543E-09 6.08998E-09
 -1       524-5.77128E+06-8.60785E+05-4.59133E+04-2.21316E+06-4.87978E-09-6.54836E-11
 -1       525-5.78283E+06-8.29148E+05-1.97241E+04-2.19101E+06 4.09273E-12 1.56342E-09
 -1       526-5.76350E+06-8.51705E+05-1.03459E+04-2.21452E+06-1.37385E-09 5.27348E-09
 -1       527-5.78350E+06-8.29933E+05-5.40274E+03-2.19107E+06-1.76465E-09-4.09327E-09
 -1       528-5.76328E+06-8.50300E+05-4.31182E+03-2.21384E+06-5.36556E-09-9.99307E-10
 -1       529-5.78295E+06-8.30496E+05-5.33579E+03-2.19167E+06-8.13543E-10 9.00400E-11
 -1       530-5.76546E+06-8.49606E+05-1.01341E+04-2.21203E+06 1.12777E-10 7.23958E-10
 -1       531-5.78123E+06-8.30802E+05-1.93181E+04-2.19276E+06 2.11048E-09 1.24328E-09
 -1       532-5.77495E+06-8.56531E+05-4.48885E+04-2.20839E+06 8.74206E-09-4.18095E-09
 -1       533-5.77368E+06-8.25294E+05-8.33109E+04-2.19464E+06 5.29508E-09-4.16912E-09
 -1       534-5.84575E+06-9.50471E+05-2.19390E+05-2.19186E+06 4.84943E-09-5.64978E-09
 -1       535-5.71381E+06-7.57158E+05-3.54407E+05-2.20178E+06-4.86762E-09 1.06229E-09
 -1       536-5.04460E+04-1.47771E+04 7.58898E+04-2.20728E+04 1.48793E-09-7.95990E-09
 -1       537-2.30991E+04 2.09115E+04 4.77765E+04-6.57416E+04-5.14137E-09-5.31509E-09
 -1       538-3.94695E+04-1.70133E+03 1.95184E+04-2.17581E+04 2.76486E-10 6.89397E-10
 -1       539-3.60986E+04 1.60731E+03 1.07776E+04-6.60781E+04 2.65572E-09 7.62611E-09
 -1       540-3.84588E+04-3.13100E+02 4.86677E+03-2.17192E+04 8.80391E-10 7.43512E-10
 -1       541-3.78881E+04 8.62052E+01 2.55740E+03-6.61298E+04-7.50333E-11-2.55841E-09
 -1       542-3.84201E+04-6.38065E+01 1.14858E+03-2.17087E+04 3.45608E-11-5.76165E-10
 -1       543-3.83684E+04 6.68708E+01 5.09996E+02-6.61468E+04-1.53705E-10 1.66528E-09
 -1       544-3.84527E+04 2.45885E+01 5.30602E+01-2.17026E+04-2.26464E-10 4.97948E-11
 -1       545-3.85652E+04 8.21991E+01-3.67988E+02-6.61542E+04 6.48015E-12-5.10090E-09
 -1       546-3.84313E+04 6.77338E+01-9.37665E+02-2.17012E+04 2.61252E-10-4.53588E-09
 -1       547-3.88030E+04-2.89330E+02-2.17220E+03-6.61439E+04-1.44519E-09-1.32252E-09
 -1       548-3.81566E+04 2.76411E+02-4.03766E+03-2.17132E+04-1.04910E-09 1.44837E-09
 -1       549-4.11284E+04-4.39212E+03-9.81383E+03-6.59786E+04-1.24601E-10-1.97724E-09
 -1       550-3.57816E+04 2.81314E+03-1.57186E+04-2.18659E+04-9.82254E-11 2.08547E-09
 -1       551 2.17330E+04-5.34966E+05 4.26870E+04-8.12193E+05 7.61065E-09-1.73168E-09
 -1       552 1.67717E+04-5.30237E+05 4.06595E+04-9.71379E+05 4.14002E-09 8.40373E-09
 -1       553 1.29775E+04-5.37314E+05 5.53193E+04-8.10702E+05 8.14907E-09 2.69938E-09
 -1       554 4.12550E+04-5.14960E+05 1.10711E+05-9.71520E+05 4.99131E-09-5.90262E-10
 -1       555 9.82330E+04-5.52284E+05 2.11144E+05-8.11629E+05 6.69388E-09-3.35785E-09
 -1       556-2.70149E+05-1.83698E+05 3.76105E+04-3.13728E+05 7.27596E-09 2.18279E-09
 -1       557-2.35245E+05-2.19342E+05 1.88031E+04-3.40645E+05-6.91944E-09 3.07773E-09
 -1       558-2.71395E+05-1.94265E+05 7.78776E+03-3.07407E+05 6.40284E-10-1.42245E-09
 -1       559-2.40083E+05-2.24800E+05 3.87837E+03-3.42752E+05 3.01225E-09 1.02318E-09
 -1       560-2.72588E+05-1.93801E+05 1.66810E+03-3.07918E+05-2.98314E-10 3.12866E-09
 -1       561-2.41638E+05-2.24508E+05 8.27520E+02-3.43828E+05 1.12414E-09 3.21552E-09
 -1       562-2.73490E+05-1.93230E+05 2.89609E+02-3.08521E+05 1.05902E-08 1.75241E-08
 -1       563-2.42536E+05-2.24122E+05 4.07056E+01-3.44449E+05-8.07631E-10-2.51275E-08
 -1       564-2.74007E+05-1.92899E+05-2.61090E+02-3.08874E+05 4.29281E-09 6.01722E-09
 -1       565-2.42979E+05-2.23940E+05-7.03103E+02-3.44737E+05-2.03727E-10 6.51198E-09
 -1       566-2.74100E+05-1.92789E+05-1.55027E+03-3.08964E+05 2.30739E-09 9.62063E-09
 -1       567-2.43208E+05-2.24093E+05-3.44330E+03-3.44676E+05-1.36424E-11 3.29601E-09
 -1       568-2.73628E+05-1.93319E+05-7.11066E+03-3.08621E+05 4.12547E-09 6.87578E-09
 -1       569-2.46831E+05-2.28196E+05-1.67488E+04-3.43324E+05 2.32831E-10-3.75803E-09
 -1       570-2.71252E+05-2.05152E+05-3.38691E+04-3.03447E+05-6.98492E-10-2.09047E-09
 -1       571 3.64229E+05 1.69604E+04 2.51979E+04-9.72779E+04 1.56433E-09-7.83984E-10
 -1       572 3.67972E+05 5.87910E+03 1.23471E+04-1.06641E+05-3.88354E-10-1.84536E-09
 -1       573 3.65693E+05 1.38493E+03 5.48519E+03-9.70214E+04 9.50513E-09 1.33514E-09
 -1       574 3.66134E+05 4.42780E+02 2.74909E+03-1.06918E+05 1.89602E-08-9.22228E-10
 -1       575 3.65837E+05 5.26569E+01 1.29514E+03-9.69887E+04 9.78616E-09 4.06726E-09
 -1       576 3.65874E+05 9.90378E+00 6.58538E+02-1.06955E+05 7.15545E-10 1.18780E-09
 -1       577 3.65861E+05-1.85850E+01 3.21668E+02-9.69844E+04 9.74046E-09 5.84805E-09
 -1       578 3.65861E+05-1.82783E+01 1.70243E+02-1.06960E+05 1.73568E-08 7.26686E-10
 -1       579 3.65910E+05-3.58265E+01 9.29808E+01-9.69839E+04 7.10497E-09-3.61615E-09
 -1       580 3.65932E+05-5.32705E+01 6.97821E+01-1.06955E+05-7.71252E-10 9.84983E-10
 -1       581 3.66004E+05-8.31288E+01 7.23817E+01-9.69890E+04 2.31012E-10-1.34060E-09
 -1       582 3.66070E+05-1.02621E+02 1.25791E+02-1.06899E+05 2.14459E-09-7.41329E-09
 -1       583 3.66137E+05-1.07368E+02 2.25095E+02-9.70403E+04 3.44335E-09-2.82944E-09
 -1       584 3.66323E+05 3.56850E+01 5.06421E+02-1.06462E+05-1.16415E-10 4.00746E-09
 -1       585 3.66241E+05 4.56289E+02 1.01385E+03-9.74259E+04 8.14907E-10-4.83851E-10
 -1       586 3.33450E+03 1.72942E+05 5.72696E+03-2.14839E+05 2.44654E-09-5.72163E-09
 -1       587 1.94106E+03 1.73834E+05 5.45461E+03-2.36486E+05 3.79077E-09 5.31145E-10
 -1       588 2.29578E+03 1.72777E+05 7.74304E+03-2.14534E+05 2.63572E-09 1.32877E-09
 -1       589 7.76028E+03 1.75636E+05 1.58717E+04-2.36628E+05 4.31100E-09-3.92480E-09
 -1       590 2.13974E+04 1.70874E+05 3.16592E+04-2.14683E+05 2.72667E-09-2.83762E-09
 -1       591-1.93221E+05-5.97085E+04-3.62862E+04-9.39069E+04 4.83851E-10-4.11637E-09
 -1       592-1.95123E+05-5.63334E+04-1.80001E+04-1.03992E+05 3.01702E-09-3.94721E-09
 -1       593-1.94643E+05-4.77844E+04-7.64273E+03-9.95784E+04 2.39334E-09 8.41919E-09
 -1       594-1.91151E+05-5.16531E+04-3.74610E+03-1.04479E+05-1.10867E-09 1.30385E-08
 -1       595-1.94834E+05-4.74089E+04-1.72709E+03-9.98119E+04-3.59705E-10-3.69857E-09
 -1       596-1.90870E+05-5.14810E+04-8.74046E+02-1.04446E+05 1.35219E-09-4.00860E-09
 -1       597-1.94869E+05-4.74379E+04-4.72575E+02-9.98128E+04 3.96966E-10 2.92539E-09
 -1       598-1.90839E+05-5.14842E+04-3.71812E+02-1.04432E+05 4.42697E-10 3.53566E-10
 -1       599-1.94863E+05-4.74414E+04-4.64712E+02-9.98097E+04 7.68296E-10-2.92630E-09
 -1       600-1.90859E+05-5.14860E+04-8.53124E+02-1.04436E+05-2.36469E-10-5.14092E-09
 -1       601-1.94818E+05-4.74194E+04-1.68154E+03-9.98025E+04 2.94449E-09-7.05359E-09
 -1       602-1.91126E+05-5.16537E+04-3.64498E+03-1.04454E+05 3.71801E-09-1.50776E-08
 -1       603-1.94619E+05-4.77957E+04-7.43545E+03-9.95738E+04 3.21324E-09-3.01043E-09
 -1       604-1.95020E+05-5.61652E+04-1.75077E+04-1.03921E+05 1.09503E-09-3.84398E-09
 -1       605-1.93186E+05-5.94308E+04-3.52933E+04-9.40937E+04 3.68800E-09-3.28146E-09
 -1       606 1.44270E+05-1.53034E+04-2.29188E+04 4.44091E+04 2.72848E-09 4.06726E-09
 -1       607 1.40750E+05-5.26710E+03-1.12331E+04 4.83188E+04 1.82663E-08-7.11771E-09
 -1       608 1.42783E+05-1.20898E+03-4.99500E+03 4.41194E+04 1.49212E-08-1.70257E-09
 -1       609 1.42287E+05-3.28577E+02-2.49851E+03 4.86350E+04-3.16868E-09 5.86624E-09
 -1       610 1.42546E+05 2.41630E+01-1.17767E+03 4.40816E+04-8.84575E-09-4.47926E-09
 -1       611 1.42432E+05 9.67635E+01-5.90462E+02 4.86751E+04-1.44864E-08-2.97860E-10
 -1       612 1.42470E+05 1.14217E+02-2.79135E+02 4.40774E+04-4.33829E-09-4.01133E-09
 -1       613 1.42415E+05 1.35335E+02-1.23872E+02 4.86797E+04-8.81209E-09-1.23828E-09
 -1       614 1.42425E+05 1.26951E+02-2.81046E+01 4.40765E+04-8.88576E-10 2.04545E-09
 -1       615 1.42388E+05 1.52234E+02 5.57863E+01 4.86797E+04 9.36325E-09 4.69254E-09
 -1       616 1.42391E+05 1.48799E+02 1.63568E+02 4.40771E+04-4.49381E-09 1.16097E-09
 -1       617 1.42395E+05 2.24922E+02 3.77041E+02 4.86774E+04-1.42381E-09-1.48384E-09
 -1       618 1.42345E+05 3.43449E+02 7.65724E+02 4.40781E+04 9.86256E-09-1.27966E-09
 -1       619 1.42629E+05 9.89144E+02 1.73088E+03 4.86673E+04 2.41234E-08-5.85260E-10
 -1       620 1.42116E+05 2.51927E+03 3.53353E+03 4.40816E+04 9.64963E-09-7.11361E-09
 -1       621 1.70847E+03 3.93237E+05 5.06976E+03-3.78265E+04-4.20187E-10 7.61247E-10
 -1       622 7.50118E+02 3.94230E+05 5.05724E+03-4.53163E+04-1.59798E-09-6.86850E-09
 -1       623 5.19454E+02 3.93377E+05 7.22755E+03-3.78365E+04-5.53882E-10-2.05591E-09
 -1       624 4.05376E+03 3.96474E+05 1.47097E+04-4.51753E+04-1.20235E-09-5.09999E-09
 -1       625 1.21166E+04 3.91052E+05 2.82530E+04-3.79609E+04-1.14596E-10 4.90218E-10
 -1       626 2.20444E+05 7.44711E+04-5.88071E+03 1.46315E+05-4.02815E-09 2.93221E-09
 -1       627 2.15441E+05 8.09395E+04-2.78108E+03 1.50109E+05-1.42245E-09 8.24616E-09
 -1       628 2.20635E+05 7.73277E+04-1.16841E+03 1.44729E+05 9.11314E-10-2.64117E-09
 -1       629 2.15697E+05 8.23039E+04-5.55080E+02 1.50092E+05 1.13751E-08-4.70288E-09
 -1       630 2.20590E+05 7.75521E+04-2.40660E+02 1.44564E+05 3.71983E-09-5.57105E-09
 -1       631 2.15668E+05 8.24280E+04-9.63371E+01 1.50075E+05-6.55564E-09 1.17231E-08
 -1       632 2.20544E+05 7.75750E+04-3.11387E+00 1.44531E+05-2.45927E-09-1.33850E-08
 -1       633 2.15642E+05 8.24451E+04 8.67071E+01 1.50060E+05 9.33915E-09-1.37770E-08
 -1       634 2.20513E+05 7.75743E+04 2.20015E+02 1.44517E+05 1.14669E-08-4.00451E-09
 -1       635 2.15656E+05 8.24580E+04 4.98772E+02 1.50057E+05-9.63973E-09-2.28288E-08
 -1       636 2.20488E+05 7.76062E+04 1.03445E+03 1.44496E+05-4.04486E-09-1.05515E-08
 -1       637 2.15910E+05 8.27596E+04 2.31403E+03 1.50008E+05 9.14343E-09-1.45155E-09
 -1       638 2.20448E+05 7.85082E+04 4.80018E+03 1.44107E+05 9.84846E-09 4.80759E-09
 -1       639 2.18366E+05 8.71552E+04 1.14327E+04 1.48910E+05 7.65817E-09 6.32645E-09
 -1       640 2.20642E+05 9.11331E+04 2.41481E+04 1.38877E+05 3.01952E-10-2.19279E-09
 -1       656 1.05807E+04-4.97003E+05-5.94619E+04 2.27671E+04-5.95173E-09 3.57431E-09
 -1       657-1.75019E+04-5.17655E+05-4.25781E+04 6.74569E+04-5.72823E-09 9.89894E-09
 -1       658 1.87898E+03-5.04585E+05-2.77681E+04 2.26054E+04-7.28323E-09 2.20803E-09
 -1       659-1.62869E+04-5.16977E+05-4.03040E+04 6.75614E+04-5.10227E-09-5.06532E-10
 -1       660 9.77603E+03-4.97791E+05-5.50521E+04 2.26653E+04-2.75941E-09-1.67415E-09
 -1       661 4.31900E+05 5.92871E+04 3.45839E+04 1.70192E+05-1.21388E-08 4.76575E-10
 -1       662 4.38967E+05 8.17999E+04 2.11078E+04 1.75798E+05-1.37082E-08-3.03817E-09
 -1       663 4.37395E+05 6.52670E+04 8.13675E+03 1.69966E+05-4.87523E-09-4.33647E-09
 -1       664 4.32582E+05 7.29131E+04 4.34159E+03 1.76882E+05-3.06005E-09 3.12070E-10
 -1       665 4.37936E+05 6.58483E+04 1.90234E+03 1.69977E+05-7.35031E-09-5.54564E-10
 -1       666 4.31952E+05 7.21060E+04 1.01638E+03 1.76918E+05 6.86555E-10-2.52362E-09
 -1       667 4.37991E+05 6.59127E+04 5.83972E+02 1.69986E+05-9.70195E-09-5.99053E-09
 -1       668 4.31898E+05 7.20421E+04 5.53871E+02 1.76914E+05-2.34434E-08-6.57406E-09
 -1       669 4.37987E+05 6.59051E+04 7.97069E+02 1.69983E+05 1.47488E-08-4.16560E-09
 -1       670 4.32003E+05 7.21652E+04 1.59597E+03 1.76934E+05 1.40834E-08 2.48616E-09
 -1       671 4.37894E+05 6.57965E+04 3.10034E+03 1.69966E+05 5.51256E-09-2.19529E-09
 -1       672 4.33049E+05 7.34955E+04 7.14463E+03 1.76872E+05 7.03039E-09-1.15165E-09
 -1       673 4.36995E+05 6.48412E+04 1.34146E+04 1.69952E+05-3.41043E-09 1.72804E-09
 -1       674 4.43580E+05 8.81602E+04 3.48195E+04 1.75082E+05 5.48988E-09-3.01361E-09
 -1       675 4.27931E+05 5.49746E+04 5.70572E+04 1.70319E+05 6.76255E-09 1.09139E-10
 -1       676 6.50156E+01-4.80679E+05-2.50677E+03 3.15293E+02 1.58404E-08 2.66347E-09
 -1       677-7.69152E+02-4.81352E+05-4.62421E+03-6.29506E+02 6.94786E-09-1.52269E-10
 -1       678 5.48710E+02-4.80216E+05-8.09548E+03 3.13972E+02 1.08080E-08 8.26617E-10
 -1       679-8.69707E+03-4.86347E+05-1.94380E+04-6.26673E+02 9.45420E-09-2.41141E-09
 -1       680 5.75201E+03-4.75688E+05-3.09078E+04 3.08920E+02 9.31686E-09-2.81898E-09
 -1       771-2.83369E+06-5.73296E+05-8.07266E+04-1.24278E+06 4.19095E-09-2.47383E-09
 -1       772-2.82034E+06-5.82446E+05-3.99058E+04-1.28453E+06 2.61934E-10 2.20552E-09
 -1       773-2.83885E+06-5.45504E+05-1.70948E+04-1.25516E+06 4.38013E-09 8.06176E-09
 -1       774-2.81194E+06-5.72678E+05-8.31025E+03-1.28794E+06 2.22644E-09-1.25783E-09
 -1       775-2.84058E+06-5.43819E+05-3.91335E+03-1.25617E+06-2.45200E-09-8.38190E-09
 -1       776-2.81219E+06-5.72106E+05-1.94072E+03-1.28902E+06-4.36557E-10-4.92264E-09
 -1       777-2.84159E+06-5.43304E+05-1.08514E+03-1.25660E+06-6.36646E-10-4.31714E-09
 -1       778-2.81275E+06-5.71920E+05-8.18979E+02-1.28973E+06-1.51522E-09 6.73481E-10
 -1       779-2.84216E+06-5.42955E+05-1.04874E+03-1.25687E+06-1.64437E-09-5.06861E-09
 -1       780-2.81315E+06-5.71821E+05-1.91708E+03-1.29012E+06 7.80346E-10-4.43833E-10
 -1       781-2.84226E+06-5.42776E+05-3.81533E+03-1.25695E+06 2.03272E-10-7.36691E-10
 -1       782-2.81380E+06-5.72179E+05-8.29624E+03-1.29017E+06-3.70846E-10-1.44246E-09
 -1       783-2.84164E+06-5.43745E+05-1.69797E+04-1.25638E+06 3.67436E-10 1.45883E-09
 -1       784-2.82264E+06-5.82388E+05-4.00353E+04-1.28841E+06 1.33150E-09 2.19370E-09
 -1       785-2.83776E+06-5.70779E+05-8.08024E+04-1.24386E+06-1.89175E-10 1.52977E-09
 -1       786 2.94990E+05-7.25931E+03 3.89628E+04-4.31700E+03 2.98769E-10-2.91402E-09
 -1       787 3.08474E+05 1.09558E+04 2.44476E+04-1.31924E+04-5.10227E-10 3.63070E-09
 -1       788 3.00702E+05-6.95772E+02 1.00635E+04-4.29870E+03 4.99085E-10 1.42109E-09
 -1       789 3.02146E+05 9.60872E+02 5.52263E+03-1.31960E+04-1.31013E-09 4.37615E-09
 -1       790 3.01295E+05-7.47007E+01 2.54954E+03-4.31182E+03 9.62245E-10-6.79279E-10
 -1       791 3.01467E+05 8.20406E+01 1.35445E+03-1.31763E+04-6.29598E-10-2.27647E-09
 -1       792 3.01368E+05-1.01457E+01 6.99819E+02-4.31836E+03 1.17581E-10 1.79529E-09
 -1       793 3.01384E+05 8.97209E+00 4.62201E+02-1.31711E+04 8.75673E-11-2.31981E-09
 -1       794 3.01375E+05-6.10012E+00 4.28109E+02-4.31704E+03-1.92472E-10-1.45846E-09
 -1       795 3.01411E+05 3.34939E+01 6.45413E+02-1.31822E+04-1.89004E-10 6.65117E-09
 -1       796 3.01347E+05-3.45217E+01 1.12294E+03-4.30725E+03-1.97360E-10 2.77083E-09
 -1       797 3.01707E+05 4.06203E+02 2.38105E+03-1.32067E+04 1.23805E-10-2.23508E-10
 -1       798 3.01096E+05-3.03321E+02 4.31499E+03-4.29259E+03-4.62023E-10 3.94630E-09
 -1       799 3.04428E+05 4.68149E+03 1.04719E+04-1.32034E+04-1.58570E-09-2.96097E-09
 -1       800 2.98654E+05-3.11866E+03 1.66792E+04-4.31132E+03-5.42059E-10-2.00271E-09
 -1       801-1.54894E+04 2.60468E+05 3.70229E+04-6.18259E+05 1.02409E-08-2.59024E-09
 -1       802 5.50581E+04 2.55480E+05 5.91523E+04-1.86775E+06 4.96002E-08 3.97267E-09
 -1       803 1.01565E+04 2.43582E+05 7.62230E+04-6.16330E+05 2.07874E-08 6.16910E-09
 -1       804 1.13493E+05 2.90731E+05 1.70149E+05-1.86745E+06 4.73083E-08-3.44517E-09
 -1       805-5.61152E+04 2.23221E+05 2.51962E+05-6.18583E+05 1.14524E-08 4.65661E-09
 -1       806-2.57759E+05-8.31048E+04-2.11402E+04-1.38255E+05 9.32130E-09-1.05374E-08
 -1       807-2.56411E+05-7.89731E+04-1.00054E+04-1.46341E+05 2.30075E-08-4.96493E-09
 -1       808-2.57660E+05-7.20124E+04-4.20220E+03-1.42837E+05 7.97900E-09-4.82828E-09
 -1       809-2.54290E+05-7.51252E+04-2.02536E+03-1.47353E+05-7.62157E-10 3.12042E-09
 -1       810-2.57728E+05-7.12042E+04-9.10997E+02-1.43192E+05-7.17955E-09 1.79602E-09
 -1       811-2.54086E+05-7.48561E+04-4.49172E+02-1.47413E+05-9.24683E-09 1.43154E-08
 -1       812-2.57752E+05-7.11719E+04-2.21473E+02-1.43213E+05-9.63973E-09-4.33829E-09
 -1       813-2.54065E+05-7.48480E+04-1.38685E+02-1.47411E+05 1.79955E-09 6.08816E-09
 -1       814-2.57752E+05-7.11783E+04-1.28271E+02-1.43211E+05-1.81490E-09 2.54204E-09
 -1       815-2.54066E+05-7.48566E+04-2.01046E+02-1.47403E+05-1.06343E-09 2.89151E-09
 -1       816-2.57730E+05-7.11997E+04-3.77962E+02-1.43196E+05-4.84988E-09-3.49610E-09
 -1       817-2.54145E+05-7.49614E+04-8.25776E+02-1.47355E+05-5.67979E-10-3.66072E-09
 -1       818-2.57679E+05-7.15475E+04-1.70731E+03-1.43054E+05-9.71522E-09 6.61385E-09
 -1       819-2.55076E+05-7.64371E+04-4.05962E+03-1.46825E+05-2.59733E-08-7.54335E-09
 -1       820-2.57611E+05-7.61329E+04-8.57667E+03-1.41276E+05-1.01982E-08-1.45428E-09
 -1       821-3.57366E+05 8.33909E+03-4.48734E+04 4.36612E+03-3.73075E-09 4.45107E-09
 -1       822-3.72854E+05-1.26196E+04-2.81528E+04 1.36924E+04-1.63095E-09 2.46291E-09
 -1       823-3.63956E+05 7.92027E+02-1.15974E+04 4.26091E+03 3.51383E-09 2.09639E-10
 -1       824-3.65613E+05-1.08605E+03-6.36622E+03 1.38337E+04-2.14845E-09-6.55291E-10
 -1       825-3.64648E+05 8.90853E+01-2.95738E+03 4.22304E+03-8.14248E-09-2.06887E-09
 -1       826-3.64865E+05-5.94466E+01-1.59860E+03 1.38952E+04-1.42873E-08-3.69482E-10
 -1       827-3.64737E+05 2.30385E+01-8.86447E+02 4.19900E+03-7.64203E-09 2.70990E-09
 -1       828-3.64793E+05 2.87871E+01-6.96792E+02 1.39326E+04-9.79367E-09 5.70546E-09
 -1       829-3.64741E+05 2.49923E+01-8.16552E+02 4.18547E+03 8.12292E-11 1.87207E-09
 -1       830-3.64870E+05-3.87066E+01-1.41898E+03 1.39479E+04 6.77164E-09-4.46972E-09
 -1       831-3.64669E+05 8.77913E+01-2.59252E+03 4.18371E+03-2.88301E-09-3.66163E-09
 -1       832-3.65540E+05-9.28588E+02-5.56948E+03 1.39393E+04-3.90230E-10-2.29181E-09
 -1       833-3.64068E+05 7.07096E+02-1.01337E+04 4.19450E+03-9.31323E-10 2.66618E-09
 -1       834-3.71883E+05-1.10029E+04-2.46061E+04 1.38800E+04 1.45576E-09 8.34916E-10
 -1       835-3.58312E+05 7.30792E+03-3.92118E+04 4.24660E+03 2.24418E-09-2.42107E-09
 -1       836-8.62319E+03 7.01584E+05 5.90324E+04-2.77088E+04-6.60293E-10-7.82347E-09
 -1       837 1.63263E+04 7.21625E+05 4.54668E+04-7.25613E+04-2.03636E-09-1.07939E-08
 -1       838-1.98443E+03 7.08155E+05 3.63840E+04-2.76583E+04-1.62208E-09-7.05086E-09
 -1       839 2.44695E+04 7.27002E+05 6.19414E+04-7.25587E+04-2.00816E-09-7.23469E-09
 -1       840-1.38628E+04 6.96211E+05 9.13006E+04-2.77101E+04-1.78989E-09 1.18234E-11
 -1       856-3.93180E+05 6.64713E+03-4.27273E+04 9.87656E+03-4.83760E-09-1.26056E-09
 -1       857-4.07527E+05-1.10901E+04-2.64373E+04 2.71091E+04-5.37148E-09-1.46838E-09
 -1       858-3.99351E+05 6.24758E+02-1.10102E+04 9.71345E+03-7.52971E-09 4.32647E-09
 -1       859-4.00853E+05-8.02714E+02-5.97486E+03 2.73176E+04-2.61707E-09-7.57939E-09
 -1       860-3.99978E+05 1.01938E+02-2.78931E+03 9.66322E+03 2.23599E-09-7.68887E-09
 -1       861-4.00222E+05 5.83574E+01-1.47822E+03 2.73907E+04-4.07999E-09-5.64410E-09
 -1       862-4.00063E+05 5.87192E+01-7.82914E+02 9.63945E+03 1.18553E-08-3.83272E-09
 -1       863-4.00165E+05 1.32594E+02-5.44022E+02 2.74191E+04 2.72691E-08-1.52153E-08
 -1       864-4.00071E+05 5.78441E+01-5.50169E+02 9.63462E+03 9.05396E-09-5.77415E-09
 -1       865-4.00191E+05 9.72915E+01-8.75315E+02 2.74088E+04 8.96762E-09-1.18126E-09
 -1       866-4.00025E+05 8.01680E+01-1.56754E+03 9.64981E+03-5.17480E-09-4.07373E-09
 -1       867-4.00528E+05-3.81157E+02-3.31006E+03 2.73562E+04-7.36554E-09-3.75255E-09
 -1       868-3.99675E+05 3.63295E+02-6.08148E+03 9.68786E+03 3.36377E-09-7.37168E-09
 -1       869-4.04187E+05-6.06419E+03-1.45853E+04 2.71782E+04-7.70160E-09-4.43674E-09
 -1       870-3.96264E+05 3.67494E+03-2.35755E+04 9.83108E+03 2.92403E-09-1.97906E-09
 -1       871-5.23352E+03-4.76388E+04-1.01898E+04 1.55885E+05-3.41606E-09-1.50249E-09
 -1       872-1.83744E+03-4.95971E+04-2.98493E+03 1.86236E+05 1.40972E-10-2.90720E-09
 -1       873-8.53490E+01-4.89472E+04 3.05201E+03 1.55578E+05-2.04091E-09-4.84215E-09
 -1       874 3.12725E+03-4.63917E+04 1.13355E+04 1.86360E+05-6.00267E-11-2.26464E-09
 -1       875 1.03206E+04-5.10708E+04 2.42144E+04 1.55787E+05-2.03545E-09 2.70529E-09
 -1       876 5.29811E+05 7.25090E+04 4.91768E+04 2.10500E+05-5.89125E-09-4.77667E-09
 -1       877 5.39325E+05 1.05104E+05 3.00180E+04 2.19136E+05-9.89940E-09 4.51837E-09
 -1       878 5.37610E+05 8.10308E+04 1.15654E+04 2.10185E+05-3.53725E-09-2.23190E-09
 -1       879 5.30254E+05 9.24424E+04 6.16942E+03 2.20632E+05-3.81283E-09-4.72858E-09
 -1       880 5.38357E+05 8.18803E+04 2.69165E+03 2.10216E+05-1.13391E-08 1.48157E-09
 -1       881 5.29374E+05 9.12672E+04 1.42002E+03 2.20638E+05-1.07510E-08 1.72599E-09
 -1       882 5.38419E+05 8.19910E+04 7.77051E+02 2.10243E+05-9.74671E-09-2.60468E-09
 -1       883 5.29305E+05 9.11505E+04 6.72509E+02 2.20596E+05-3.05798E-08-4.44993E-09
 -1       884 5.38406E+05 8.19971E+04 8.99750E+02 2.10249E+05 3.86733E-09-1.00476E-09
 -1       885 5.29425E+05 9.12713E+04 1.75167E+03 2.20602E+05 1.73663E-08 1.43229E-08
 -1       886 5.38302E+05 8.18818E+04 3.37965E+03 2.10234E+05 9.08722E-09 1.10049E-10
 -1       887 5.30564E+05 9.27183E+04 7.77372E+03 2.20538E+05 1.51634E-08-2.54022E-09
 -1       888 5.37331E+05 8.08368E+04 1.45896E+04 2.10215E+05-6.24436E-09 3.62888E-09
 -1       889 5.42016E+05 1.08670E+05 3.78655E+04 2.18607E+05 4.06789E-09 4.53792E-09
 -1       890 5.27481E+05 7.00994E+04 6.20445E+04 2.10611E+05 6.17547E-09 5.76620E-09
 -1       891 1.29198E+03-2.44097E+05-9.96297E+03 4.43225E+04-1.25283E-09-1.91631E-09
 -1       892-2.96564E+03-2.47323E+05-7.61958E+03 1.17308E+05-1.34742E-09-4.97721E-09
 -1       893 2.57508E+02-2.45279E+05-6.07296E+03 4.41605E+04 1.06729E-09 4.48989E-09
 -1       894-4.30425E+03-2.48178E+05-1.03082E+04 1.17294E+05-5.23687E-09-1.57888E-09
 -1       895 2.13305E+03-2.43206E+05-1.52316E+04 4.43356E+04-6.11362E-09-5.86624E-10
 -1       956-4.14853E+05-7.63773E+03-1.77909E+04 5.19937E+04-4.71300E-09 1.26602E-09
 -1       957-4.18284E+05-2.46390E+03-9.06461E+03 6.16950E+04-1.43336E-09 3.54703E-11
 -1       958-4.16449E+05-2.05637E+02-4.08606E+03 5.16713E+04 4.31828E-09-5.18139E-09
 -1       959-4.16774E+05 3.13111E+01-2.08048E+03 6.20474E+04-4.23915E-09-6.64841E-10
 -1       960-4.16652E+05 1.28981E+02-1.01285E+03 5.16372E+04-8.75298E-09 1.12868E-09
 -1       961-4.16715E+05 1.64208E+02-5.30515E+02 6.20866E+04-1.52090E-08 1.13596E-09
 -1       962-4.16723E+05 1.49889E+02-2.94550E+02 5.16312E+04-6.93854E-09 7.67159E-10
 -1       963-4.16746E+05 1.86655E+02-2.18328E+02 6.20946E+04-9.81595E-09 2.45927E-09
 -1       964-4.16750E+05 1.64883E+02-2.44646E+02 5.16289E+04-1.28694E-09-4.31100E-09
 -1       965-4.16772E+05 1.97217E+02-4.05640E+02 6.20950E+04 8.35007E-09 3.46472E-09
 -1       966-4.16738E+05 1.73686E+02-7.53319E+02 5.16306E+04-2.55682E-09 2.62571E-09
 -1       967-4.16858E+05 1.22109E+02-1.54208E+03 6.20741E+04 4.05066E-09 6.33008E-10
 -1       968-4.16618E+05-5.39914E+01-3.02217E+03 5.16504E+04-7.40329E-10-3.14230E-10
 -1       969-4.18010E+05-1.70928E+03-6.71117E+03 6.18609E+04-4.95629E-09 1.51317E-10
 -1       970-4.15457E+05-5.54842E+03-1.31685E+04 5.18517E+04 1.55978E-09-3.21597E-09
 -1       971-6.39504E+05 5.13133E+03-3.31052E+04 9.90376E+03-6.27733E-09 2.03545E-09
 -1       972-6.50563E+05-8.58394E+03-2.04783E+04 2.76702E+04-8.40737E-09 6.77119E-10
 -1       973-6.44290E+05 4.78500E+02-8.54007E+03 9.68086E+03-6.86578E-09 3.83943E-09
 -1       974-6.45426E+05-6.02632E+02-4.64313E+03 2.79775E+04 2.83148E-09-1.58661E-09
 -1       975-6.44783E+05 8.28359E+01-2.19570E+03 9.59323E+03 1.28148E-09-2.74986E-09
 -1       976-6.44963E+05 7.46650E+01-1.21240E+03 2.81117E+04-5.63523E-09 2.29250E-09
 -1       977-6.44853E+05 5.66079E+01-7.41325E+02 9.54586E+03 1.03744E-08-6.29484E-10
 -1       978-6.44944E+05 1.34700E+02-6.97068E+02 2.81741E+04 2.33749E-08 5.81338E-10
 -1       979-6.44853E+05 6.49277E+01-9.67027E+02 9.53058E+03 1.32259E-08-2.70393E-09
 -1       980-6.45037E+05 5.66191E+01-1.80314E+03 2.81716E+04 1.71520E-08-6.52008E-10
 -1       981-6.44759E+05 1.26456E+02-3.38575E+03 9.54837E+03-2.55568E-10-5.83839E-09
 -1       982-6.45832E+05-9.76226E+02-7.25412E+03 2.81008E+04 4.68208E-09-1.99975E-10
 -1       983-6.44008E+05 7.71685E+02-1.33573E+04 9.60234E+03 9.50331E-09 3.45608E-10
 -1       984-6.53966E+05-1.34539E+04-3.20923E+04 2.78854E+04-4.18163E-09 1.64573E-09
 -1       985-6.36529E+05 8.09752E+03-5.18520E+04 9.77107E+03 9.04038E-09-1.68802E-09
 -3
 9999
